%chk=ZnPc2_40x45.chk
%nprocshared=8
%mem=16GB
#p def2svp iop(3/107=0400000000,3/108=0400000000) lc-blyp

lc-blyp(mu=0.4)/def2-tzvp(-f), geom b3pw/631dp

0 1
 C                  3.15784397    5.78713924    0.00000000
 C                  1.85919252    6.32505828    0.00000000
 C                  3.36848008    4.41150946    0.00000000
 C                  2.24657322    3.58522424    0.00000000
 C                  0.94656921    4.12370352    0.00000000
 C                  0.73753315    5.50128336    0.00000000
 C                  2.09307193    2.13592508    0.00000000
 C                  0.03030176    2.99035247    0.00000000
 N                  0.75859999    1.83142238    0.00000000
 N                 -1.29079781    3.11626158    0.00000000
 N                  3.11626158    1.29079781    0.00000000
 H                  4.01025268    6.46084983    0.00000000
 H                  1.73283386    7.40418758    0.00000000
 H                  4.36755479    3.98742135    0.00000000
 H                 -0.26879492    5.90786029    0.00000000
 C                  5.78713924   -3.15784397    0.00000000
 C                  6.32505828   -1.85919252    0.00000000
 C                  4.41150946   -3.36848008    0.00000000
 C                  3.58522424   -2.24657322    0.00000000
 C                  4.12370352   -0.94656921    0.00000000
 C                  5.50128336   -0.73753315    0.00000000
 C                  2.13592508   -2.09307193    0.00000000
 C                  2.99035247   -0.03030176    0.00000000
 N                  1.83142238   -0.75859999    0.00000000
 N                  1.29079781   -3.11626158    0.00000000
 H                  6.46084983   -4.01025268    0.00000000
 H                  7.40418758   -1.73283386    0.00000000
 H                  3.98742135   -4.36755479    0.00000000
 H                  5.90786029    0.26879492    0.00000000
 C                 -5.78713924    3.15784397    0.00000000
 C                 -6.32505828    1.85919252    0.00000000
 C                 -4.41150946    3.36848008    0.00000000
 C                 -3.58522424    2.24657322    0.00000000
 C                 -4.12370352    0.94656921    0.00000000
 C                 -5.50128336    0.73753315    0.00000000
 C                 -2.13592508    2.09307193    0.00000000
 C                 -2.99035247    0.03030176    0.00000000
 N                 -1.83142238    0.75859999    0.00000000
 N                 -3.11626158   -1.29079781    0.00000000
 H                 -6.46084983    4.01025268    0.00000000
 H                 -7.40418758    1.73283386    0.00000000
 H                 -3.98742135    4.36755479    0.00000000
 H                 -5.90786029   -0.26879492    0.00000000
 C                 -3.15784397   -5.78713924    0.00000000
 C                 -1.85919252   -6.32505828    0.00000000
 C                 -3.36848008   -4.41150946    0.00000000
 C                 -2.24657322   -3.58522424    0.00000000
 C                 -0.94656921   -4.12370352    0.00000000
 C                 -0.73753315   -5.50128336    0.00000000
 C                 -2.09307193   -2.13592508    0.00000000
 C                 -0.03030176   -2.99035247    0.00000000
 N                 -0.75859999   -1.83142238    0.00000000
 H                 -4.01025268   -6.46084983    0.00000000
 H                 -1.73283386   -7.40418758    0.00000000
 H                 -4.36755479   -3.98742135    0.00000000
 H                  0.26879492   -5.90786029    0.00000000
 Zn                 0.00000000    0.00000000    0.00000000
 C                 -1.85919252    6.32505828    4.00000000
 C                 -3.15784397    5.78713924    4.00000000
 C                 -0.73753315    5.50128336    4.00000000
 C                 -0.94656921    4.12370352    4.00000000
 C                 -2.24657322    3.58522424    4.00000000
 C                 -3.36848008    4.41150946    4.00000000
 C                 -0.03030176    2.99035247    4.00000000
 C                 -2.09307193    2.13592508    4.00000000
 N                 -0.75859999    1.83142238    4.00000000
 N                 -3.11626158    1.29079781    4.00000000
 N                  1.29079781    3.11626158    4.00000000
 H                 -1.73283386    7.40418758    4.00000000
 H                 -4.01025268    6.46084983    4.00000000
 H                  0.26879492    5.90786029    4.00000000
 H                 -4.36755479    3.98742135    4.00000000
 C                  6.32505828    1.85919252    4.00000000
 C                  5.78713924    3.15784397    4.00000000
 C                  5.50128336    0.73753315    4.00000000
 C                  4.12370352    0.94656921    4.00000000
 C                  3.58522424    2.24657322    4.00000000
 C                  4.41150946    3.36848008    4.00000000
 C                  2.99035247    0.03030176    4.00000000
 C                  2.13592508    2.09307193    4.00000000
 N                  1.83142238    0.75859999    4.00000000
 N                  3.11626158   -1.29079781    4.00000000
 H                  7.40418758    1.73283386    4.00000000
 H                  6.46084983    4.01025268    4.00000000
 H                  5.90786029   -0.26879492    4.00000000
 H                  3.98742135    4.36755479    4.00000000
 C                 -6.32505828   -1.85919252    4.00000000
 C                 -5.78713924   -3.15784397    4.00000000
 C                 -5.50128336   -0.73753315    4.00000000
 C                 -4.12370352   -0.94656921    4.00000000
 C                 -3.58522424   -2.24657322    4.00000000
 C                 -4.41150946   -3.36848008    4.00000000
 C                 -2.99035247   -0.03030176    4.00000000
 C                 -2.13592508   -2.09307193    4.00000000
 N                 -1.83142238   -0.75859999    4.00000000
 N                 -1.29079781   -3.11626158    4.00000000
 H                 -7.40418758   -1.73283386    4.00000000
 H                 -6.46084983   -4.01025268    4.00000000
 H                 -5.90786029    0.26879492    4.00000000
 H                 -3.98742135   -4.36755479    4.00000000
 C                  1.85919252   -6.32505828    4.00000000
 C                  3.15784397   -5.78713924    4.00000000
 C                  0.73753315   -5.50128336    4.00000000
 C                  0.94656921   -4.12370352    4.00000000
 C                  2.24657322   -3.58522424    4.00000000
 C                  3.36848008   -4.41150946    4.00000000
 C                  0.03030176   -2.99035247    4.00000000
 C                  2.09307193   -2.13592508    4.00000000
 N                  0.75859999   -1.83142238    4.00000000
 H                  1.73283386   -7.40418758    4.00000000
 H                  4.01025268   -6.46084983    4.00000000
 H                 -0.26879492   -5.90786029    4.00000000
 H                  4.36755479   -3.98742135    4.00000000
 Zn                 0.00000000    0.00000000    4.00000000

