%chk=ZnPc2_35x15.chk
%nprocshared=8
%mem=16GB
#p lc-blyp/def2svp iop(3/107=0400000000,3/108=0400000000)

lc-blyp(mu=0.4)/def2-tzvp(-f), geom b3pw/631dp

0 1
 C                  1.55242119    6.40725741    0.00000000
 C                  0.15879652    6.59073158    0.00000000
 C                  2.11191924    5.13301772    0.00000000
 C                  1.24209878    4.04451662    0.00000000
 C                 -0.15297736    4.22818187    0.00000000
 C                 -0.71143459    5.50471930    0.00000000
 C                  1.46893414    2.60487208    0.00000000
 C                 -0.74469092    2.89630135    0.00000000
 N                  0.25874433    1.96535830    0.00000000
 N                 -2.05336279    2.67599449    0.00000000
 N                  2.67599449    2.05336279    0.00000000
 H                  2.20141565    7.27863148    0.00000000
 H                 -0.24255578    7.60038642    0.00000000
 H                  3.18671338    4.98195963    0.00000000
 H                 -1.78870272    5.63698559    0.00000000
 C                  6.40725741   -1.55242119    0.00000000
 C                  6.59073158   -0.15879652    0.00000000
 C                  5.13301772   -2.11191924    0.00000000
 C                  4.04451662   -1.24209878    0.00000000
 C                  4.22818187    0.15297736    0.00000000
 C                  5.50471930    0.71143459    0.00000000
 C                  2.60487208   -1.46893414    0.00000000
 C                  2.89630135    0.74469092    0.00000000
 N                  1.96535830   -0.25874433    0.00000000
 N                  2.05336279   -2.67599449    0.00000000
 H                  7.27863148   -2.20141565    0.00000000
 H                  7.60038642    0.24255578    0.00000000
 H                  4.98195963   -3.18671338    0.00000000
 H                  5.63698559    1.78870272    0.00000000
 C                 -6.40725741    1.55242119    0.00000000
 C                 -6.59073158    0.15879652    0.00000000
 C                 -5.13301772    2.11191924    0.00000000
 C                 -4.04451662    1.24209878    0.00000000
 C                 -4.22818187   -0.15297736    0.00000000
 C                 -5.50471930   -0.71143459    0.00000000
 C                 -2.60487208    1.46893414    0.00000000
 C                 -2.89630135   -0.74469092    0.00000000
 N                 -1.96535830    0.25874433    0.00000000
 N                 -2.67599449   -2.05336279    0.00000000
 H                 -7.27863148    2.20141565    0.00000000
 H                 -7.60038642   -0.24255578    0.00000000
 H                 -4.98195963    3.18671338    0.00000000
 H                 -5.63698559   -1.78870272    0.00000000
 C                 -1.55242119   -6.40725741    0.00000000
 C                 -0.15879652   -6.59073158    0.00000000
 C                 -2.11191924   -5.13301772    0.00000000
 C                 -1.24209878   -4.04451662    0.00000000
 C                  0.15297736   -4.22818187    0.00000000
 C                  0.71143459   -5.50471930    0.00000000
 C                 -1.46893414   -2.60487208    0.00000000
 C                  0.74469092   -2.89630135    0.00000000
 N                 -0.25874433   -1.96535830    0.00000000
 H                 -2.20141565   -7.27863148    0.00000000
 H                  0.24255578   -7.60038642    0.00000000
 H                 -3.18671338   -4.98195963    0.00000000
 H                  1.78870272   -5.63698559    0.00000000
 Zn                 0.00000000    0.00000000    0.00000000
 C                 -0.15879652    6.59073158    3.50000000
 C                 -1.55242119    6.40725741    3.50000000
 C                  0.71143459    5.50471930    3.50000000
 C                  0.15297736    4.22818187    3.50000000
 C                 -1.24209878    4.04451662    3.50000000
 C                 -2.11191924    5.13301772    3.50000000
 C                  0.74469092    2.89630135    3.50000000
 C                 -1.46893414    2.60487208    3.50000000
 N                 -0.25874433    1.96535830    3.50000000
 N                 -2.67599449    2.05336279    3.50000000
 N                  2.05336279    2.67599449    3.50000000
 H                  0.24255578    7.60038642    3.50000000
 H                 -2.20141565    7.27863148    3.50000000
 H                  1.78870272    5.63698559    3.50000000
 H                 -3.18671338    4.98195963    3.50000000
 C                  6.59073158    0.15879652    3.50000000
 C                  6.40725741    1.55242119    3.50000000
 C                  5.50471930   -0.71143459    3.50000000
 C                  4.22818187   -0.15297736    3.50000000
 C                  4.04451662    1.24209878    3.50000000
 C                  5.13301772    2.11191924    3.50000000
 C                  2.89630135   -0.74469092    3.50000000
 C                  2.60487208    1.46893414    3.50000000
 N                  1.96535830    0.25874433    3.50000000
 N                  2.67599449   -2.05336279    3.50000000
 H                  7.60038642   -0.24255578    3.50000000
 H                  7.27863148    2.20141565    3.50000000
 H                  5.63698559   -1.78870272    3.50000000
 H                  4.98195963    3.18671338    3.50000000
 C                 -6.59073158   -0.15879652    3.50000000
 C                 -6.40725741   -1.55242119    3.50000000
 C                 -5.50471930    0.71143459    3.50000000
 C                 -4.22818187    0.15297736    3.50000000
 C                 -4.04451662   -1.24209878    3.50000000
 C                 -5.13301772   -2.11191924    3.50000000
 C                 -2.89630135    0.74469092    3.50000000
 C                 -2.60487208   -1.46893414    3.50000000
 N                 -1.96535830   -0.25874433    3.50000000
 N                 -2.05336279   -2.67599449    3.50000000
 H                 -7.60038642    0.24255578    3.50000000
 H                 -7.27863148   -2.20141565    3.50000000
 H                 -5.63698559    1.78870272    3.50000000
 H                 -4.98195963   -3.18671338    3.50000000
 C                  0.15879652   -6.59073158    3.50000000
 C                  1.55242119   -6.40725741    3.50000000
 C                 -0.71143459   -5.50471930    3.50000000
 C                 -0.15297736   -4.22818187    3.50000000
 C                  1.24209878   -4.04451662    3.50000000
 C                  2.11191924   -5.13301772    3.50000000
 C                 -0.74469092   -2.89630135    3.50000000
 C                  1.46893414   -2.60487208    3.50000000
 N                  0.25874433   -1.96535830    3.50000000
 H                 -0.24255578   -7.60038642    3.50000000
 H                  2.20141565   -7.27863148    3.50000000
 H                 -1.78870272   -5.63698559    3.50000000
 H                  3.18671338   -4.98195963    3.50000000
 Zn                 0.00000000    0.00000000    3.50000000

--Link1--
%chk=ZnPc2_35x15.chk
%nprocshared=8
%mem=120GB
#p td(nstates=6) lc-blyp/gen iop(3/107=0400000000, 3/108=0400000000) geom=check guess=read

ZnPc dimer lc-blyp(mu=0.4)/def2-tzvp(-f), monomer geom b3pw/631dp

0 1

H Zn 0
def2tzvp
****
C     0
S    6   1.00
  13575.3496820              0.22245814352D-03
   2035.2333680              0.17232738252D-02
    463.22562359             0.89255715314D-02
    131.20019598             0.35727984502D-01
     42.853015891            0.11076259931
     15.584185766            0.24295627626
S    2   1.00
      6.2067138508           0.41440263448
      2.5764896527           0.23744968655
S    1   1.00
      0.57696339419          1.0000000
S    1   1.00
      0.22972831358          1.0000000
S    1   1.00
      0.95164440028D-01      1.0000000
P    4   1.00
     34.697232244            0.53333657805D-02
      7.9582622826           0.35864109092D-01
      2.3780826883           0.14215873329
      0.81433208183          0.34270471845
P    1   1.00
      0.28887547253           .46445822433
P    1   1.00
      0.10056823671           .24955789874
D    1   1.00
      1.09700000             1.0000000
D    1   1.00
      0.31800000             1.0000000
****
N     0
S    6   1.00
  19730.8006470              0.21887984991D-03
   2957.8958745              0.16960708803D-02
    673.22133595             0.87954603538D-02
    190.68249494             0.35359382605D-01
     62.295441898            0.11095789217
     22.654161182            0.24982972552
S    2   1.00
      8.9791477428           0.40623896148
      3.6863002370           0.24338217176
S    1   1.00
      0.84660076805          1.0000000
S    1   1.00
      0.33647133771          1.0000000
S    1   1.00
      0.13647653675          1.0000000
P    4   1.00
     49.200380510            0.55552416751D-02
     11.346790537            0.38052379723D-01
      3.4273972411           0.14953671029
      1.1785525134           0.34949305230
P    1   1.00
      0.41642204972           .45843153697
P    1   1.00
      0.14260826011           .24428771672
D    1   1.00
      1.65400000             1.0000000
D    1   1.00
      0.46900000             1.0000000
****


