 Entering Gaussian System, Link 0=g09
 Input=ZnPc3_33_20.gjf
 Output=ZnPc3_33_20.log
 Initial command:
 /opt/g09/l1.exe "/home/sergey/scratch/Gau-3884679.inp" -scrdir="/home/sergey/scratch/"
 Entering Link 1 = /opt/g09/l1.exe PID=   3884681.
  
 Copyright (c) 1988,1990,1992,1993,1995,1998,2003,2009,2015,
            Gaussian, Inc.  All Rights Reserved.
  
 This is part of the Gaussian(R) 09 program.  It is based on
 the Gaussian(R) 03 system (copyright 2003, Gaussian, Inc.),
 the Gaussian(R) 98 system (copyright 1998, Gaussian, Inc.),
 the Gaussian(R) 94 system (copyright 1995, Gaussian, Inc.),
 the Gaussian 92(TM) system (copyright 1992, Gaussian, Inc.),
 the Gaussian 90(TM) system (copyright 1990, Gaussian, Inc.),
 the Gaussian 88(TM) system (copyright 1988, Gaussian, Inc.),
 the Gaussian 86(TM) system (copyright 1986, Carnegie Mellon
 University), and the Gaussian 82(TM) system (copyright 1983,
 Carnegie Mellon University). Gaussian is a federally registered
 trademark of Gaussian, Inc.
  
 This software contains proprietary and confidential information,
 including trade secrets, belonging to Gaussian, Inc.
  
 This software is provided under written license and may be
 used, copied, transmitted, or stored only in accord with that
 written license.
  
 The following legend is applicable only to US Government
 contracts under FAR:
  
                    RESTRICTED RIGHTS LEGEND
  
 Use, reproduction and disclosure by the US Government is
 subject to restrictions as set forth in subparagraphs (a)
 and (c) of the Commercial Computer Software - Restricted
 Rights clause in FAR 52.227-19.
  
 Gaussian, Inc.
 340 Quinnipiac St., Bldg. 40, Wallingford CT 06492
  
  
 ---------------------------------------------------------------
 Warning -- This program may not be used in any manner that
 competes with the business of Gaussian, Inc. or will provide
 assistance to any competitor of Gaussian, Inc.  The licensee
 of this program is prohibited from giving any competitor of
 Gaussian, Inc. access to this program.  By using this program,
 the user acknowledges that Gaussian, Inc. is engaged in the
 business of creating and licensing software in the field of
 computational chemistry and represents and warrants to the
 licensee that it is not a competitor of Gaussian, Inc. and that
 it will not use this program in any manner prohibited above.
 ---------------------------------------------------------------
  

 Cite this work as:
 Gaussian 09, Revision E.01,
 M. J. Frisch, G. W. Trucks, H. B. Schlegel, G. E. Scuseria, 
 M. A. Robb, J. R. Cheeseman, G. Scalmani, V. Barone, B. Mennucci, 
 G. A. Petersson, H. Nakatsuji, M. Caricato, X. Li, H. P. Hratchian, 
 A. F. Izmaylov, J. Bloino, G. Zheng, J. L. Sonnenberg, M. Hada, 
 M. Ehara, K. Toyota, R. Fukuda, J. Hasegawa, M. Ishida, T. Nakajima, 
 Y. Honda, O. Kitao, H. Nakai, T. Vreven, J. A. Montgomery, Jr., 
 J. E. Peralta, F. Ogliaro, M. Bearpark, J. J. Heyd, E. Brothers, 
 K. N. Kudin, V. N. Staroverov, T. Keith, R. Kobayashi, J. Normand, 
 K. Raghavachari, A. Rendell, J. C. Burant, S. S. Iyengar, J. Tomasi, 
 M. Cossi, N. Rega, J. M. Millam, M. Klene, J. E. Knox, J. B. Cross, 
 V. Bakken, C. Adamo, J. Jaramillo, R. Gomperts, R. E. Stratmann, 
 O. Yazyev, A. J. Austin, R. Cammi, C. Pomelli, J. W. Ochterski, 
 R. L. Martin, K. Morokuma, V. G. Zakrzewski, G. A. Voth, 
 P. Salvador, J. J. Dannenberg, S. Dapprich, A. D. Daniels, 
 O. Farkas, J. B. Foresman, J. V. Ortiz, J. Cioslowski, 
 and D. J. Fox, Gaussian, Inc., Wallingford CT, 2013.
 
 ******************************************
 Gaussian 09:  ES64L-G09RevE.01 30-Nov-2015
                22-Oct-2025 
 ******************************************
 %chk=ZnPc3_33_20.chk
 %nprocshared=8
 Will use up to    8 processors via shared memory.
 %mem=16GB
 Default route:  MaxDisk=100GW
 ---------------------------------------------------------
 #p lc-blyp/def2svp iop(3/107=0400000000,3/108=0400000000)
 ---------------------------------------------------------
 1/38=1/1;
 2/12=2,17=6,18=5,40=1/2;
 3/5=43,7=101,11=2,16=1,25=1,30=1,74=1000402,107=400000000,108=400000000/1,2,3;
 4//1;
 5/5=2,38=5/2;
 6/7=2,8=2,9=2,10=2,28=1/1;
 99/5=1,9=1/99;
 Leave Link    1 at Wed Oct 22 06:53:02 2025, MaxMem=  2147483648 cpu:         0.1
 (Enter /opt/g09/l101.exe)
 -----------------------------------
 ZnPc dimer, monomer geom b3pw/631dp
 -----------------------------------
 Symbolic Z-matrix:
 Charge =  0 Multiplicity = 1
 C                     0.70283   6.55507   0. 
 C                    -0.70283   6.55507   0. 
 C                     1.42386   5.36476   0. 
 C                     0.70356   4.17204   0. 
 C                    -0.70356   4.17204   0. 
 C                    -1.42386   5.36476   0. 
 C                     1.11636   2.77432   0. 
 C                    -1.11636   2.77432   0. 
 N                     0.        1.98232   0. 
 N                    -2.38508   2.38508   0. 
 N                     2.38508   2.38508   0. 
 H                     1.23253   7.5037    0. 
 H                    -1.23253   7.5037    0. 
 H                     2.50917   5.35529   0. 
 H                    -2.50917   5.35529   0. 
 C                     6.55507  -0.70283   0. 
 C                     6.55507   0.70283   0. 
 C                     5.36476  -1.42386   0. 
 C                     4.17204  -0.70356   0. 
 C                     4.17204   0.70356   0. 
 C                     5.36476   1.42386   0. 
 C                     2.77432  -1.11636   0. 
 C                     2.77432   1.11636   0. 
 N                     1.98232   0.        0. 
 N                     2.38508  -2.38508   0. 
 H                     7.5037   -1.23253   0. 
 H                     7.5037    1.23253   0. 
 H                     5.35529  -2.50917   0. 
 H                     5.35529   2.50917   0. 
 C                    -6.55507   0.70283   0. 
 C                    -6.55507  -0.70283   0. 
 C                    -5.36476   1.42386   0. 
 C                    -4.17204   0.70356   0. 
 C                    -4.17204  -0.70356   0. 
 C                    -5.36476  -1.42386   0. 
 C                    -2.77432   1.11636   0. 
 C                    -2.77432  -1.11636   0. 
 N                    -1.98232   0.        0. 
 N                    -2.38508  -2.38508   0. 
 H                    -7.5037    1.23253   0. 
 H                    -7.5037   -1.23253   0. 
 H                    -5.35529   2.50917   0. 
 H                    -5.35529  -2.50917   0. 
 C                    -0.70283  -6.55507   0. 
 C                     0.70283  -6.55507   0. 
 C                    -1.42386  -5.36476   0. 
 C                    -0.70356  -4.17204   0. 
 C                     0.70356  -4.17204   0. 
 C                     1.42386  -5.36476   0. 
 C                    -1.11636  -2.77432   0. 
 C                     1.11636  -2.77432   0. 
 N                     0.       -1.98232   0. 
 H                    -1.23253  -7.5037    0. 
 H                     1.23253  -7.5037    0. 
 H                    -2.50917  -5.35529   0. 
 H                     2.50917  -5.35529   0. 
 Zn                    0.        0.        0. 
 C                     2.70283   6.55507   3.3 
 C                     1.29717   6.55507   3.3 
 C                     3.42386   5.36476   3.3 
 C                     2.70356   4.17204   3.3 
 C                     1.29644   4.17204   3.3 
 C                     0.57614   5.36476   3.3 
 C                     3.11636   2.77432   3.3 
 C                     0.88364   2.77432   3.3 
 N                     2.        1.98232   3.3 
 N                    -0.38508   2.38508   3.3 
 N                     4.38508   2.38508   3.3 
 H                     3.23253   7.5037    3.3 
 H                     0.76747   7.5037    3.3 
 H                     4.50917   5.35529   3.3 
 H                    -0.50917   5.35529   3.3 
 C                     8.55507  -0.70283   3.3 
 C                     8.55507   0.70283   3.3 
 C                     7.36476  -1.42386   3.3 
 C                     6.17204  -0.70356   3.3 
 C                     6.17204   0.70356   3.3 
 C                     7.36476   1.42386   3.3 
 C                     4.77432  -1.11636   3.3 
 C                     4.77432   1.11636   3.3 
 N                     3.98232   0.        3.3 
 N                     4.38508  -2.38508   3.3 
 H                     9.5037   -1.23253   3.3 
 H                     9.5037    1.23253   3.3 
 H                     7.35529  -2.50917   3.3 
 H                     7.35529   2.50917   3.3 
 C                    -4.55507   0.70283   3.3 
 C                    -4.55507  -0.70283   3.3 
 C                    -3.36476   1.42386   3.3 
 C                    -2.17204   0.70356   3.3 
 C                    -2.17204  -0.70356   3.3 
 C                    -3.36476  -1.42386   3.3 
 C                    -0.77432   1.11636   3.3 
 C                    -0.77432  -1.11636   3.3 
 N                     0.01768   0.        3.3 
 N                    -0.38508  -2.38508   3.3 
 H                    -5.5037    1.23253   3.3 
 H                    -5.5037   -1.23253   3.3 
 H                    -3.35529   2.50917   3.3 
 H                    -3.35529  -2.50917   3.3 
 C                     1.29717  -6.55507   3.3 
 C                     2.70283  -6.55507   3.3 
 C                     0.57614  -5.36476   3.3 
 C                     1.29644  -4.17204   3.3 
 C                     2.70356  -4.17204   3.3 
 C                     3.42386  -5.36476   3.3 
 C                     0.88364  -2.77432   3.3 
 C                     3.11636  -2.77432   3.3 
 N                     2.       -1.98232   3.3 
 H                     0.76747  -7.5037    3.3 
 H                     3.23253  -7.5037    3.3 
 H                    -0.50917  -5.35529   3.3 
 H                     4.50917  -5.35529   3.3 
 Zn                    2.        0.        3.3 
 C                     4.70283   6.55507   6.6 
 C                     3.29717   6.55507   6.6 
 C                     5.42386   5.36476   6.6 
 C                     4.70356   4.17204   6.6 
 C                     3.29644   4.17204   6.6 
 C                     2.57614   5.36476   6.6 
 C                     5.11636   2.77432   6.6 
 C                     2.88364   2.77432   6.6 
 N                     4.        1.98232   6.6 
 N                     1.61492   2.38508   6.6 
 N                     6.38508   2.38508   6.6 
 H                     5.23253   7.5037    6.6 
 H                     2.76747   7.5037    6.6 
 H                     6.50917   5.35529   6.6 
 H                     1.49083   5.35529   6.6 
 C                     10.55507  -0.70283   6.6 
 C                     10.55507   0.70283   6.6 
 C                     9.36476  -1.42386   6.6 
 C                     8.17204  -0.70356   6.6 
 C                     8.17204   0.70356   6.6 
 C                     9.36476   1.42386   6.6 
 C                     6.77432  -1.11636   6.6 
 C                     6.77432   1.11636   6.6 
 N                     5.98232   0.        6.6 
 N                     6.38508  -2.38508   6.6 
 H                     11.5037  -1.23253   6.6 
 H                     11.5037   1.23253   6.6 
 H                     9.35529  -2.50917   6.6 
 H                     9.35529   2.50917   6.6 
 C                    -2.55507   0.70283   6.6 
 C                    -2.55507  -0.70283   6.6 
 C                    -1.36476   1.42386   6.6 
 C                    -0.17204   0.70356   6.6 
 C                    -0.17204  -0.70356   6.6 
 C                    -1.36476  -1.42386   6.6 
 C                     1.22568   1.11636   6.6 
 C                     1.22568  -1.11636   6.6 
 N                     2.01768   0.        6.6 
 N                     1.61492  -2.38508   6.6 
 H                    -3.5037    1.23253   6.6 
 H                    -3.5037   -1.23253   6.6 
 H                    -1.35529   2.50917   6.6 
 H                    -1.35529  -2.50917   6.6 
 C                     3.29717  -6.55507   6.6 
 C                     4.70283  -6.55507   6.6 
 C                     2.57614  -5.36476   6.6 
 C                     3.29644  -4.17204   6.6 
 C                     4.70356  -4.17204   6.6 
 C                     5.42386  -5.36476   6.6 
 C                     2.88364  -2.77432   6.6 
 C                     5.11636  -2.77432   6.6 
 N                     4.       -1.98232   6.6 
 H                     2.76747  -7.5037    6.6 
 H                     5.23253  -7.5037    6.6 
 H                     1.49083  -5.35529   6.6 
 H                     6.50917  -5.35529   6.6 
 Zn                    4.        0.        6.6 
 
 NAtoms=    171 NQM=      171 NQMF=       0 NMMI=      0 NMMIF=      0
                NMic=       0 NMicF=      0.
                    Isotopes and Nuclear Properties:
 (Nuclear quadrupole moments (NQMom) in fm**2, nuclear magnetic moments (NMagM)
  in nuclear magnetons)

  Atom         1           2           3           4           5           6           7           8           9          10
 IAtWgt=          12          12          12          12          12          12          12          12          14          14
 AtmWgt=  12.0000000  12.0000000  12.0000000  12.0000000  12.0000000  12.0000000  12.0000000  12.0000000  14.0030740  14.0030740
 NucSpn=           0           0           0           0           0           0           0           0           2           2
 AtZEff=   0.0000000   0.0000000   0.0000000   0.0000000   0.0000000   0.0000000   0.0000000   0.0000000   0.0000000   0.0000000
 NQMom=    0.0000000   0.0000000   0.0000000   0.0000000   0.0000000   0.0000000   0.0000000   0.0000000   2.0440000   2.0440000
 NMagM=    0.0000000   0.0000000   0.0000000   0.0000000   0.0000000   0.0000000   0.0000000   0.0000000   0.4037610   0.4037610
 AtZNuc=   6.0000000   6.0000000   6.0000000   6.0000000   6.0000000   6.0000000   6.0000000   6.0000000   7.0000000   7.0000000

  Atom        11          12          13          14          15          16          17          18          19          20
 IAtWgt=          14           1           1           1           1          12          12          12          12          12
 AtmWgt=  14.0030740   1.0078250   1.0078250   1.0078250   1.0078250  12.0000000  12.0000000  12.0000000  12.0000000  12.0000000
 NucSpn=           2           1           1           1           1           0           0           0           0           0
 AtZEff=   0.0000000   0.0000000   0.0000000   0.0000000   0.0000000   0.0000000   0.0000000   0.0000000   0.0000000   0.0000000
 NQMom=    2.0440000   0.0000000   0.0000000   0.0000000   0.0000000   0.0000000   0.0000000   0.0000000   0.0000000   0.0000000
 NMagM=    0.4037610   2.7928460   2.7928460   2.7928460   2.7928460   0.0000000   0.0000000   0.0000000   0.0000000   0.0000000
 AtZNuc=   7.0000000   1.0000000   1.0000000   1.0000000   1.0000000   6.0000000   6.0000000   6.0000000   6.0000000   6.0000000

  Atom        21          22          23          24          25          26          27          28          29          30
 IAtWgt=          12          12          12          14          14           1           1           1           1          12
 AtmWgt=  12.0000000  12.0000000  12.0000000  14.0030740  14.0030740   1.0078250   1.0078250   1.0078250   1.0078250  12.0000000
 NucSpn=           0           0           0           2           2           1           1           1           1           0
 AtZEff=   0.0000000   0.0000000   0.0000000   0.0000000   0.0000000   0.0000000   0.0000000   0.0000000   0.0000000   0.0000000
 NQMom=    0.0000000   0.0000000   0.0000000   2.0440000   2.0440000   0.0000000   0.0000000   0.0000000   0.0000000   0.0000000
 NMagM=    0.0000000   0.0000000   0.0000000   0.4037610   0.4037610   2.7928460   2.7928460   2.7928460   2.7928460   0.0000000
 AtZNuc=   6.0000000   6.0000000   6.0000000   7.0000000   7.0000000   1.0000000   1.0000000   1.0000000   1.0000000   6.0000000

  Atom        31          32          33          34          35          36          37          38          39          40
 IAtWgt=          12          12          12          12          12          12          12          14          14           1
 AtmWgt=  12.0000000  12.0000000  12.0000000  12.0000000  12.0000000  12.0000000  12.0000000  14.0030740  14.0030740   1.0078250
 NucSpn=           0           0           0           0           0           0           0           2           2           1
 AtZEff=   0.0000000   0.0000000   0.0000000   0.0000000   0.0000000   0.0000000   0.0000000   0.0000000   0.0000000   0.0000000
 NQMom=    0.0000000   0.0000000   0.0000000   0.0000000   0.0000000   0.0000000   0.0000000   2.0440000   2.0440000   0.0000000
 NMagM=    0.0000000   0.0000000   0.0000000   0.0000000   0.0000000   0.0000000   0.0000000   0.4037610   0.4037610   2.7928460
 AtZNuc=   6.0000000   6.0000000   6.0000000   6.0000000   6.0000000   6.0000000   6.0000000   7.0000000   7.0000000   1.0000000

  Atom        41          42          43          44          45          46          47          48          49          50
 IAtWgt=           1           1           1          12          12          12          12          12          12          12
 AtmWgt=   1.0078250   1.0078250   1.0078250  12.0000000  12.0000000  12.0000000  12.0000000  12.0000000  12.0000000  12.0000000
 NucSpn=           1           1           1           0           0           0           0           0           0           0
 AtZEff=   0.0000000   0.0000000   0.0000000   0.0000000   0.0000000   0.0000000   0.0000000   0.0000000   0.0000000   0.0000000
 NQMom=    0.0000000   0.0000000   0.0000000   0.0000000   0.0000000   0.0000000   0.0000000   0.0000000   0.0000000   0.0000000
 NMagM=    2.7928460   2.7928460   2.7928460   0.0000000   0.0000000   0.0000000   0.0000000   0.0000000   0.0000000   0.0000000
 AtZNuc=   1.0000000   1.0000000   1.0000000   6.0000000   6.0000000   6.0000000   6.0000000   6.0000000   6.0000000   6.0000000

  Atom        51          52          53          54          55          56          57          58          59          60
 IAtWgt=          12          14           1           1           1           1          64          12          12          12
 AtmWgt=  12.0000000  14.0030740   1.0078250   1.0078250   1.0078250   1.0078250  63.9291454  12.0000000  12.0000000  12.0000000
 NucSpn=           0           2           1           1           1           1           0           0           0           0
 AtZEff=   0.0000000   0.0000000   0.0000000   0.0000000   0.0000000   0.0000000   0.0000000   0.0000000   0.0000000   0.0000000
 NQMom=    0.0000000   2.0440000   0.0000000   0.0000000   0.0000000   0.0000000   0.0000000   0.0000000   0.0000000   0.0000000
 NMagM=    0.0000000   0.4037610   2.7928460   2.7928460   2.7928460   2.7928460   0.0000000   0.0000000   0.0000000   0.0000000
 AtZNuc=   6.0000000   7.0000000   1.0000000   1.0000000   1.0000000   1.0000000  30.0000000   6.0000000   6.0000000   6.0000000

  Atom        61          62          63          64          65          66          67          68          69          70
 IAtWgt=          12          12          12          12          12          14          14          14           1           1
 AtmWgt=  12.0000000  12.0000000  12.0000000  12.0000000  12.0000000  14.0030740  14.0030740  14.0030740   1.0078250   1.0078250
 NucSpn=           0           0           0           0           0           2           2           2           1           1
 AtZEff=   0.0000000   0.0000000   0.0000000   0.0000000   0.0000000   0.0000000   0.0000000   0.0000000   0.0000000   0.0000000
 NQMom=    0.0000000   0.0000000   0.0000000   0.0000000   0.0000000   2.0440000   2.0440000   2.0440000   0.0000000   0.0000000
 NMagM=    0.0000000   0.0000000   0.0000000   0.0000000   0.0000000   0.4037610   0.4037610   0.4037610   2.7928460   2.7928460
 AtZNuc=   6.0000000   6.0000000   6.0000000   6.0000000   6.0000000   7.0000000   7.0000000   7.0000000   1.0000000   1.0000000

  Atom        71          72          73          74          75          76          77          78          79          80
 IAtWgt=           1           1          12          12          12          12          12          12          12          12
 AtmWgt=   1.0078250   1.0078250  12.0000000  12.0000000  12.0000000  12.0000000  12.0000000  12.0000000  12.0000000  12.0000000
 NucSpn=           1           1           0           0           0           0           0           0           0           0
 AtZEff=   0.0000000   0.0000000   0.0000000   0.0000000   0.0000000   0.0000000   0.0000000   0.0000000   0.0000000   0.0000000
 NQMom=    0.0000000   0.0000000   0.0000000   0.0000000   0.0000000   0.0000000   0.0000000   0.0000000   0.0000000   0.0000000
 NMagM=    2.7928460   2.7928460   0.0000000   0.0000000   0.0000000   0.0000000   0.0000000   0.0000000   0.0000000   0.0000000
 AtZNuc=   1.0000000   1.0000000   6.0000000   6.0000000   6.0000000   6.0000000   6.0000000   6.0000000   6.0000000   6.0000000

  Atom        81          82          83          84          85          86          87          88          89          90
 IAtWgt=          14          14           1           1           1           1          12          12          12          12
 AtmWgt=  14.0030740  14.0030740   1.0078250   1.0078250   1.0078250   1.0078250  12.0000000  12.0000000  12.0000000  12.0000000
 NucSpn=           2           2           1           1           1           1           0           0           0           0
 AtZEff=   0.0000000   0.0000000   0.0000000   0.0000000   0.0000000   0.0000000   0.0000000   0.0000000   0.0000000   0.0000000
 NQMom=    2.0440000   2.0440000   0.0000000   0.0000000   0.0000000   0.0000000   0.0000000   0.0000000   0.0000000   0.0000000
 NMagM=    0.4037610   0.4037610   2.7928460   2.7928460   2.7928460   2.7928460   0.0000000   0.0000000   0.0000000   0.0000000
 AtZNuc=   7.0000000   7.0000000   1.0000000   1.0000000   1.0000000   1.0000000   6.0000000   6.0000000   6.0000000   6.0000000

  Atom        91          92          93          94          95          96          97          98          99         100
 IAtWgt=          12          12          12          12          14          14           1           1           1           1
 AtmWgt=  12.0000000  12.0000000  12.0000000  12.0000000  14.0030740  14.0030740   1.0078250   1.0078250   1.0078250   1.0078250
 NucSpn=           0           0           0           0           2           2           1           1           1           1
 AtZEff=   0.0000000   0.0000000   0.0000000   0.0000000   0.0000000   0.0000000   0.0000000   0.0000000   0.0000000   0.0000000
 NQMom=    0.0000000   0.0000000   0.0000000   0.0000000   2.0440000   2.0440000   0.0000000   0.0000000   0.0000000   0.0000000
 NMagM=    0.0000000   0.0000000   0.0000000   0.0000000   0.4037610   0.4037610   2.7928460   2.7928460   2.7928460   2.7928460
 AtZNuc=   6.0000000   6.0000000   6.0000000   6.0000000   7.0000000   7.0000000   1.0000000   1.0000000   1.0000000   1.0000000

  Atom       101         102         103         104         105         106         107         108         109         110
 IAtWgt=          12          12          12          12          12          12          12          12          14           1
 AtmWgt=  12.0000000  12.0000000  12.0000000  12.0000000  12.0000000  12.0000000  12.0000000  12.0000000  14.0030740   1.0078250
 NucSpn=           0           0           0           0           0           0           0           0           2           1
 AtZEff=   0.0000000   0.0000000   0.0000000   0.0000000   0.0000000   0.0000000   0.0000000   0.0000000   0.0000000   0.0000000
 NQMom=    0.0000000   0.0000000   0.0000000   0.0000000   0.0000000   0.0000000   0.0000000   0.0000000   2.0440000   0.0000000
 NMagM=    0.0000000   0.0000000   0.0000000   0.0000000   0.0000000   0.0000000   0.0000000   0.0000000   0.4037610   2.7928460
 AtZNuc=   6.0000000   6.0000000   6.0000000   6.0000000   6.0000000   6.0000000   6.0000000   6.0000000   7.0000000   1.0000000

  Atom       111         112         113         114         115         116         117         118         119         120
 IAtWgt=           1           1           1          64          12          12          12          12          12          12
 AtmWgt=   1.0078250   1.0078250   1.0078250  63.9291454  12.0000000  12.0000000  12.0000000  12.0000000  12.0000000  12.0000000
 NucSpn=           1           1           1           0           0           0           0           0           0           0
 AtZEff=   0.0000000   0.0000000   0.0000000   0.0000000   0.0000000   0.0000000   0.0000000   0.0000000   0.0000000   0.0000000
 NQMom=    0.0000000   0.0000000   0.0000000   0.0000000   0.0000000   0.0000000   0.0000000   0.0000000   0.0000000   0.0000000
 NMagM=    2.7928460   2.7928460   2.7928460   0.0000000   0.0000000   0.0000000   0.0000000   0.0000000   0.0000000   0.0000000
 AtZNuc=   1.0000000   1.0000000   1.0000000  30.0000000   6.0000000   6.0000000   6.0000000   6.0000000   6.0000000   6.0000000

  Atom       121         122         123         124         125         126         127         128         129         130
 IAtWgt=          12          12          14          14          14           1           1           1           1          12
 AtmWgt=  12.0000000  12.0000000  14.0030740  14.0030740  14.0030740   1.0078250   1.0078250   1.0078250   1.0078250  12.0000000
 NucSpn=           0           0           2           2           2           1           1           1           1           0
 AtZEff=   0.0000000   0.0000000   0.0000000   0.0000000   0.0000000   0.0000000   0.0000000   0.0000000   0.0000000   0.0000000
 NQMom=    0.0000000   0.0000000   2.0440000   2.0440000   2.0440000   0.0000000   0.0000000   0.0000000   0.0000000   0.0000000
 NMagM=    0.0000000   0.0000000   0.4037610   0.4037610   0.4037610   2.7928460   2.7928460   2.7928460   2.7928460   0.0000000
 AtZNuc=   6.0000000   6.0000000   7.0000000   7.0000000   7.0000000   1.0000000   1.0000000   1.0000000   1.0000000   6.0000000

  Atom       131         132         133         134         135         136         137         138         139         140
 IAtWgt=          12          12          12          12          12          12          12          14          14           1
 AtmWgt=  12.0000000  12.0000000  12.0000000  12.0000000  12.0000000  12.0000000  12.0000000  14.0030740  14.0030740   1.0078250
 NucSpn=           0           0           0           0           0           0           0           2           2           1
 AtZEff=   0.0000000   0.0000000   0.0000000   0.0000000   0.0000000   0.0000000   0.0000000   0.0000000   0.0000000   0.0000000
 NQMom=    0.0000000   0.0000000   0.0000000   0.0000000   0.0000000   0.0000000   0.0000000   2.0440000   2.0440000   0.0000000
 NMagM=    0.0000000   0.0000000   0.0000000   0.0000000   0.0000000   0.0000000   0.0000000   0.4037610   0.4037610   2.7928460
 AtZNuc=   6.0000000   6.0000000   6.0000000   6.0000000   6.0000000   6.0000000   6.0000000   7.0000000   7.0000000   1.0000000

  Atom       141         142         143         144         145         146         147         148         149         150
 IAtWgt=           1           1           1          12          12          12          12          12          12          12
 AtmWgt=   1.0078250   1.0078250   1.0078250  12.0000000  12.0000000  12.0000000  12.0000000  12.0000000  12.0000000  12.0000000
 NucSpn=           1           1           1           0           0           0           0           0           0           0
 AtZEff=   0.0000000   0.0000000   0.0000000   0.0000000   0.0000000   0.0000000   0.0000000   0.0000000   0.0000000   0.0000000
 NQMom=    0.0000000   0.0000000   0.0000000   0.0000000   0.0000000   0.0000000   0.0000000   0.0000000   0.0000000   0.0000000
 NMagM=    2.7928460   2.7928460   2.7928460   0.0000000   0.0000000   0.0000000   0.0000000   0.0000000   0.0000000   0.0000000
 AtZNuc=   1.0000000   1.0000000   1.0000000   6.0000000   6.0000000   6.0000000   6.0000000   6.0000000   6.0000000   6.0000000

  Atom       151         152         153         154         155         156         157         158         159         160
 IAtWgt=          12          14          14           1           1           1           1          12          12          12
 AtmWgt=  12.0000000  14.0030740  14.0030740   1.0078250   1.0078250   1.0078250   1.0078250  12.0000000  12.0000000  12.0000000
 NucSpn=           0           2           2           1           1           1           1           0           0           0
 AtZEff=   0.0000000   0.0000000   0.0000000   0.0000000   0.0000000   0.0000000   0.0000000   0.0000000   0.0000000   0.0000000
 NQMom=    0.0000000   2.0440000   2.0440000   0.0000000   0.0000000   0.0000000   0.0000000   0.0000000   0.0000000   0.0000000
 NMagM=    0.0000000   0.4037610   0.4037610   2.7928460   2.7928460   2.7928460   2.7928460   0.0000000   0.0000000   0.0000000
 AtZNuc=   6.0000000   7.0000000   7.0000000   1.0000000   1.0000000   1.0000000   1.0000000   6.0000000   6.0000000   6.0000000

  Atom       161         162         163         164         165         166         167         168         169         170
 IAtWgt=          12          12          12          12          12          14           1           1           1           1
 AtmWgt=  12.0000000  12.0000000  12.0000000  12.0000000  12.0000000  14.0030740   1.0078250   1.0078250   1.0078250   1.0078250
 NucSpn=           0           0           0           0           0           2           1           1           1           1
 AtZEff=   0.0000000   0.0000000   0.0000000   0.0000000   0.0000000   0.0000000   0.0000000   0.0000000   0.0000000   0.0000000
 NQMom=    0.0000000   0.0000000   0.0000000   0.0000000   0.0000000   2.0440000   0.0000000   0.0000000   0.0000000   0.0000000
 NMagM=    0.0000000   0.0000000   0.0000000   0.0000000   0.0000000   0.4037610   2.7928460   2.7928460   2.7928460   2.7928460
 AtZNuc=   6.0000000   6.0000000   6.0000000   6.0000000   6.0000000   7.0000000   1.0000000   1.0000000   1.0000000   1.0000000

  Atom       171
 IAtWgt=          64
 AtmWgt=  63.9291454
 NucSpn=           0
 AtZEff=   0.0000000
 NQMom=    0.0000000
 NMagM=    0.0000000
 AtZNuc=  30.0000000
 Leave Link  101 at Wed Oct 22 06:53:02 2025, MaxMem=  2147483648 cpu:         0.6
 (Enter /opt/g09/l202.exe)
 Stoichiometry    C96H48N24Zn3
 Framework group  C2H[O(Zn),C2(N.N),SGH(N6Zn2),X(C96H48N16)]
 Deg. of freedom   128
 Full point group                 C2H     NOp   4
 Largest Abelian subgroup         C2H     NOp   4
 Largest concise Abelian subgroup C2H     NOp   4
                         Standard orientation:                         
 ---------------------------------------------------------------------
 Center     Atomic      Atomic             Coordinates (Angstroms)
 Number     Number       Type             X           Y           Z
 ---------------------------------------------------------------------
      1          6           0        3.300000    1.297175    6.555074
      2          6           0        3.300000    2.702825    6.555074
      3          6           0        3.300000    0.576142    5.364764
      4          6           0        3.300000    1.296443    4.172041
      5          6           0        3.300000    2.703557    4.172041
      6          6           0        3.300000    3.423858    5.364764
      7          6           0        3.300000    0.883637    2.774321
      8          6           0        3.300000    3.116363    2.774321
      9          7           0        3.300000    2.000000    1.982317
     10          7           0        3.300000    4.385083    2.385083
     11          7           0        3.300000   -0.385083    2.385083
     12          1           0        3.300000    0.767470    7.503704
     13          1           0        3.300000    3.232530    7.503704
     14          1           0        3.300000   -0.509174    5.355287
     15          1           0        3.300000    4.509174    5.355287
     16          6           0        3.300000   -4.555074   -0.702825
     17          6           0        3.300000   -4.555074    0.702825
     18          6           0        3.300000   -3.364764   -1.423858
     19          6           0        3.300000   -2.172041   -0.703557
     20          6           0        3.300000   -2.172041    0.703557
     21          6           0        3.300000   -3.364764    1.423858
     22          6           0        3.300000   -0.774321   -1.116363
     23          6           0        3.300000   -0.774321    1.116363
     24          7           0        3.300000    0.017683    0.000000
     25          7           0        3.300000   -0.385083   -2.385083
     26          1           0        3.300000   -5.503704   -1.232530
     27          1           0        3.300000   -5.503704    1.232530
     28          1           0        3.300000   -3.355287   -2.509174
     29          1           0        3.300000   -3.355287    2.509174
     30          6           0        3.300000    8.555074    0.702825
     31          6           0        3.300000    8.555074   -0.702825
     32          6           0        3.300000    7.364764    1.423858
     33          6           0        3.300000    6.172041    0.703557
     34          6           0        3.300000    6.172041   -0.703557
     35          6           0        3.300000    7.364764   -1.423858
     36          6           0        3.300000    4.774321    1.116363
     37          6           0        3.300000    4.774321   -1.116363
     38          7           0        3.300000    3.982317    0.000000
     39          7           0        3.300000    4.385083   -2.385083
     40          1           0        3.300000    9.503704    1.232530
     41          1           0        3.300000    9.503704   -1.232530
     42          1           0        3.300000    7.355287    2.509174
     43          1           0        3.300000    7.355287   -2.509174
     44          6           0        3.300000    2.702825   -6.555074
     45          6           0        3.300000    1.297175   -6.555074
     46          6           0        3.300000    3.423858   -5.364764
     47          6           0        3.300000    2.703557   -4.172041
     48          6           0        3.300000    1.296443   -4.172041
     49          6           0        3.300000    0.576142   -5.364764
     50          6           0        3.300000    3.116363   -2.774321
     51          6           0        3.300000    0.883637   -2.774321
     52          7           0        3.300000    2.000000   -1.982317
     53          1           0        3.300000    3.232530   -7.503704
     54          1           0        3.300000    0.767470   -7.503704
     55          1           0        3.300000    4.509174   -5.355287
     56          1           0        3.300000   -0.509174   -5.355287
     57         30           0        3.300000    2.000000    0.000000
     58          6           0        0.000000   -0.702825    6.555074
     59          6           0        0.000000    0.702825    6.555074
     60          6           0        0.000000   -1.423858    5.364764
     61          6           0        0.000000   -0.703557    4.172041
     62          6           0        0.000000    0.703557    4.172041
     63          6           0        0.000000    1.423858    5.364764
     64          6           0        0.000000   -1.116363    2.774321
     65          6           0        0.000000    1.116363    2.774321
     66          7           0        0.000000    0.000000    1.982317
     67          7           0       -0.000000    2.385083    2.385083
     68          7           0       -0.000000   -2.385083    2.385083
     69          1           0        0.000000   -1.232530    7.503704
     70          1           0        0.000000    1.232530    7.503704
     71          1           0        0.000000   -2.509174    5.355287
     72          1           0        0.000000    2.509174    5.355287
     73          6           0        0.000000   -6.555074   -0.702825
     74          6           0        0.000000   -6.555074    0.702825
     75          6           0        0.000000   -5.364764   -1.423858
     76          6           0        0.000000   -4.172041   -0.703557
     77          6           0        0.000000   -4.172041    0.703557
     78          6           0        0.000000   -5.364764    1.423858
     79          6           0        0.000000   -2.774321   -1.116363
     80          6           0        0.000000   -2.774321    1.116363
     81          7           0        0.000000   -1.982317   -0.000000
     82          7           0       -0.000000   -2.385083   -2.385083
     83          1           0        0.000000   -7.503704   -1.232530
     84          1           0        0.000000   -7.503704    1.232530
     85          1           0        0.000000   -5.355287   -2.509174
     86          1           0        0.000000   -5.355287    2.509174
     87          6           0        0.000000    6.555074    0.702825
     88          6           0        0.000000    6.555074   -0.702825
     89          6           0        0.000000    5.364764    1.423858
     90          6           0        0.000000    4.172041    0.703557
     91          6           0        0.000000    4.172041   -0.703557
     92          6           0        0.000000    5.364764   -1.423858
     93          6           0        0.000000    2.774321    1.116363
     94          6           0        0.000000    2.774321   -1.116363
     95          7           0        0.000000    1.982317   -0.000000
     96          7           0       -0.000000    2.385083   -2.385083
     97          1           0        0.000000    7.503704    1.232530
     98          1           0        0.000000    7.503704   -1.232530
     99          1           0        0.000000    5.355287    2.509174
    100          1           0        0.000000    5.355287   -2.509174
    101          6           0        0.000000    0.702825   -6.555074
    102          6           0        0.000000   -0.702825   -6.555074
    103          6           0        0.000000    1.423858   -5.364764
    104          6           0        0.000000    0.703557   -4.172041
    105          6           0        0.000000   -0.703557   -4.172041
    106          6           0        0.000000   -1.423858   -5.364764
    107          6           0        0.000000    1.116363   -2.774321
    108          6           0        0.000000   -1.116363   -2.774321
    109          7           0        0.000000    0.000000   -1.982317
    110          1           0        0.000000    1.232530   -7.503704
    111          1           0        0.000000   -1.232530   -7.503704
    112          1           0        0.000000    2.509174   -5.355287
    113          1           0        0.000000   -2.509174   -5.355287
    114         30           0        0.000000    0.000000    0.000000
    115          6           0       -3.300000   -2.702825    6.555074
    116          6           0       -3.300000   -1.297175    6.555074
    117          6           0       -3.300000   -3.423858    5.364764
    118          6           0       -3.300000   -2.703557    4.172041
    119          6           0       -3.300000   -1.296443    4.172041
    120          6           0       -3.300000   -0.576142    5.364764
    121          6           0       -3.300000   -3.116363    2.774321
    122          6           0       -3.300000   -0.883637    2.774321
    123          7           0       -3.300000   -2.000000    1.982317
    124          7           0       -3.300000    0.385083    2.385083
    125          7           0       -3.300000   -4.385083    2.385083
    126          1           0       -3.300000   -3.232530    7.503704
    127          1           0       -3.300000   -0.767470    7.503704
    128          1           0       -3.300000   -4.509174    5.355287
    129          1           0       -3.300000    0.509174    5.355287
    130          6           0       -3.300000   -8.555074   -0.702825
    131          6           0       -3.300000   -8.555074    0.702825
    132          6           0       -3.300000   -7.364764   -1.423858
    133          6           0       -3.300000   -6.172041   -0.703557
    134          6           0       -3.300000   -6.172041    0.703557
    135          6           0       -3.300000   -7.364764    1.423858
    136          6           0       -3.300000   -4.774321   -1.116363
    137          6           0       -3.300000   -4.774321    1.116363
    138          7           0       -3.300000   -3.982317    0.000000
    139          7           0       -3.300000   -4.385083   -2.385083
    140          1           0       -3.300000   -9.503704   -1.232530
    141          1           0       -3.300000   -9.503704    1.232530
    142          1           0       -3.300000   -7.355287   -2.509174
    143          1           0       -3.300000   -7.355287    2.509174
    144          6           0       -3.300000    4.555074    0.702825
    145          6           0       -3.300000    4.555074   -0.702825
    146          6           0       -3.300000    3.364764    1.423858
    147          6           0       -3.300000    2.172041    0.703557
    148          6           0       -3.300000    2.172041   -0.703557
    149          6           0       -3.300000    3.364764   -1.423858
    150          6           0       -3.300000    0.774321    1.116363
    151          6           0       -3.300000    0.774321   -1.116363
    152          7           0       -3.300000   -0.017683    0.000000
    153          7           0       -3.300000    0.385083   -2.385083
    154          1           0       -3.300000    5.503704    1.232530
    155          1           0       -3.300000    5.503704   -1.232530
    156          1           0       -3.300000    3.355287    2.509174
    157          1           0       -3.300000    3.355287   -2.509174
    158          6           0       -3.300000   -1.297175   -6.555074
    159          6           0       -3.300000   -2.702825   -6.555074
    160          6           0       -3.300000   -0.576142   -5.364764
    161          6           0       -3.300000   -1.296443   -4.172041
    162          6           0       -3.300000   -2.703557   -4.172041
    163          6           0       -3.300000   -3.423858   -5.364764
    164          6           0       -3.300000   -0.883637   -2.774321
    165          6           0       -3.300000   -3.116363   -2.774321
    166          7           0       -3.300000   -2.000000   -1.982317
    167          1           0       -3.300000   -0.767470   -7.503704
    168          1           0       -3.300000   -3.232530   -7.503704
    169          1           0       -3.300000    0.509174   -5.355287
    170          1           0       -3.300000   -4.509174   -5.355287
    171         30           0       -3.300000   -2.000000    0.000000
 ---------------------------------------------------------------------
 Rotational constants (GHZ):      0.0200647      0.0148098      0.0117873
 Leave Link  202 at Wed Oct 22 06:53:02 2025, MaxMem=  2147483648 cpu:         0.0
 (Enter /opt/g09/l301.exe)
 Standard basis: def2SVP (5D, 7F)
 Ernie: Thresh=  0.10000D-02 Tol=  0.10000D-05 Strict=F.
 There are   560 symmetry adapted cartesian basis functions of AG  symmetry.
 There are   513 symmetry adapted cartesian basis functions of BG  symmetry.
 There are   519 symmetry adapted cartesian basis functions of AU  symmetry.
 There are   556 symmetry adapted cartesian basis functions of BU  symmetry.
 There are   522 symmetry adapted basis functions of AG  symmetry.
 There are   484 symmetry adapted basis functions of BG  symmetry.
 There are   488 symmetry adapted basis functions of AU  symmetry.
 There are   519 symmetry adapted basis functions of BU  symmetry.
  2013 basis functions,  3579 primitive gaussians,  2148 cartesian basis functions
   441 alpha electrons      441 beta electrons
       nuclear repulsion energy     34916.9036069114 Hartrees.
 IExCor=10402 DFT=T Ex=LC-B+HF Corr=LYP ExCW=0 ScaHFX=  1.000000
 ScaDFX=  1.000000  1.000000  1.000000  1.000000 ScalE2=  1.000000  1.000000
 IRadAn=      0 IRanWt=     -1 IRanGd=            0 ICorTp=0 IEmpDi=  4
  HFx wShort=  0.000000 wLong=  0.400000 cFull=  0.000000 cShort=  0.000000 cLong=  1.000000
  DFx wShort=  0.000000 wLong=  0.400000 cFull=  0.000000 cShort=  0.000000 cLong=  1.000000
 NAtoms=  171 NActive=  171 NUniq=   46 SFac= 4.00D+00 NAtFMM=   60 NAOKFM=T Big=F
 Integral buffers will be    131072 words long.
 Raffenetti 2 integral format.
 Two-electron integral symmetry is turned on.
 Leave Link  301 at Wed Oct 22 06:53:02 2025, MaxMem=  2147483648 cpu:         0.2
 (Enter /opt/g09/l302.exe)
 NPDir=0 NMtPBC=     1 NCelOv=     1 NCel=       1 NClECP=     1 NCelD=      1
         NCelK=      1 NCelE2=     1 NClLst=     1 CellRange=     0.0.
 One-electron integrals computed using PRISM.
 One-electron integral symmetry used in STVInt
   4 Symmetry operations used in ECPInt.
 ECPInt:  NShTT=  402753 NPrTT= 1563852 LenC2=  274008 LenP2D=  607838.
 LDataN:  DoStor=T MaxTD1= 6 Len=  172
 NBasis=  2013 RedAO= T EigKep=  9.75D-05  NBF=   522   484   488   519
 NBsUse=  2013 1.00D-06 EigRej= -1.00D+00 NBFU=   522   484   488   519
 Precomputing XC quadrature grid using
 IXCGrd= 4 IRadAn=           0 IRanWt=          -1 IRanGd=           0 AccXCQ= 0.00D+00.
 Generated NRdTot=       0 NPtTot=           0 NUsed=           0 NTot=          32
 NSgBfM=  1647  1652  1653  1653  1653 MxSgAt=   171 MxSgA2=   171.
 Leave Link  302 at Wed Oct 22 06:53:05 2025, MaxMem=  2147483648 cpu:        30.0
 (Enter /opt/g09/l303.exe)
 DipDrv:  MaxL=1.
 Leave Link  303 at Wed Oct 22 06:53:06 2025, MaxMem=  2147483648 cpu:         3.4
 (Enter /opt/g09/l401.exe)
 ExpMin= 4.23D-02 ExpMax= 8.20D+04 ExpMxC= 1.23D+04 IAcc=2 IRadAn=         4 AccDes= 0.00D+00
 Harris functional with IExCor=10402 and IRadAn=       4 diagonalized for initial guess.
 HarFok:  IExCor=10402 AccDes= 0.00D+00 IRadAn=         4 IDoV= 1 UseB2=F ITyADJ=14
 ICtDFT=  3500011 ScaDFX=  1.000000  1.000000  1.000000  1.000000
 FoFCou: FMM=F IPFlag=           0 FMFlag=      100000 FMFlg1=        2000
         NFxFlg=           0 DoJE=T BraDBF=F KetDBF=T FulRan=T
         wScrn=  0.000000 ICntrl=     500 IOpCl=  0 I1Cent=   200000004 NGrid=           0
         NMat0=    1 NMatS0=      1 NMatT0=    0 NMatD0=    1 NMtDS0=    0 NMtDT0=    0
 Petite list used in FoFCou.
 Harris En= -10145.0169694562    
 JPrj=0 DoOrth=F DoCkMO=F.
 Initial guess orbital symmetries:
       Occupied  (AG) (AG) (BU) (AG) (AG) (BU) (AU) (BU) (BU) (AG)
                 (BG) (AU) (BU) (AG) (BU) (BU) (AG) (BU) (AG) (AU)
                 (AG) (BU) (AG) (BG) (AU) (BU) (AG) (BG) (AG) (AU)
                 (BU) (AG) (BU) (AU) (BG) (AU) (BG) (AG) (BU) (BG)
                 (AU) (BU) (BG) (AU) (AG) (BG) (AU) (BG) (BU) (AG)
                 (BU) (AU) (BG) (AG) (AU) (BU) (AG) (BU) (AG) (BG)
                 (BU) (AU) (AG) (AG) (AU) (BU) (AG) (BG) (BU) (BU)
                 (AG) (AU) (BG) (BG) (AU) (AU) (AG) (BG) (BU) (BU)
                 (AG) (BG) (BU) (AU) (AG) (BG) (AU) (BU) (AG) (BG)
                 (AU) (AU) (AG) (AG) (BU) (BG) (BU) (BG) (AU) (BU)
                 (AG) (BG) (AU) (BG) (BU) (AU) (AG) (BG) (BU) (AU)
                 (AG) (AU) (BG) (AG) (BU) (BG) (AU) (AG) (BU) (BG)
                 (AU) (BU) (BG) (AG) (BU) (AU) (BG) (AG) (AU) (BU)
                 (AG) (BG) (AU) (BU) (AG) (AG) (AG) (BU) (BU) (AU)
                 (AG) (BU) (BG) (AU) (BU) (AG) (BU) (AG) (BU) (AG)
                 (BU) (AU) (AG) (BG) (BU) (AU) (AG) (BU) (AG) (BG)
                 (AU) (BG) (AU) (BU) (BG) (AG) (BU) (AU) (AG) (BU)
                 (AG) (AG) (BU) (AG) (BU) (AU) (AG) (BG) (BU) (AU)
                 (AG) (BU) (AG) (BG) (AU) (BG) (AU) (BU) (BG) (AG)
                 (AG) (BU) (AG) (BU) (AU) (BG) (AU) (BG) (BU) (AU)
                 (AG) (BG) (BU) (AU) (AG) (BU) (AG) (BG) (AU) (BG)
                 (BU) (AU) (AU) (BG) (AG) (BU) (AG) (AG) (BU) (BU)
                 (AU) (AG) (BG) (BU) (AU) (AG) (BU) (AG) (BG) (AU)
                 (BG) (AG) (BU) (AG) (AU) (BU) (BG) (AG) (BU) (AU)
                 (BG) (AU) (BG) (BG) (AU) (BG) (AG) (BU) (AG) (AU)
                 (BU) (BG) (AG) (BU) (AU) (AG) (BU) (AG) (AU) (BU)
                 (BG) (AU) (AG) (BU) (AG) (BU) (AG) (BG) (BU) (BG)
                 (AU) (AU) (BG) (AG) (BG) (AU) (BU) (AU) (AG) (BG)
                 (BU) (AG) (BU) (AU) (BG) (AG) (AU) (BU) (BU) (AG)
                 (AG) (BU) (BG) (BG) (AU) (AG) (AU) (BG) (BU) (BG)
                 (BU) (AG) (BG) (AU) (AU) (BG) (AG) (AG) (BU) (AG)
                 (BU) (AU) (AG) (BG) (AU) (BU) (BG) (AU) (BG) (BU)
                 (AU) (BU) (AG) (BU) (AG) (BU) (AG) (BG) (AG) (BU)
                 (BG) (BG) (AU) (BG) (BU) (AU) (BU) (AU) (BG) (AG)
                 (BU) (AG) (AG) (BU) (AG) (BG) (AU) (BG) (AU) (AG)
                 (BU) (AG) (BU) (AG) (AU) (BU) (AU) (AG) (BG) (BU)
                 (AU) (AG) (BU) (BG) (BU) (AU) (BG) (AG) (BU) (AG)
                 (AG) (BU) (AG) (AU) (BU) (BG) (AU) (BU) (BG) (AG)
                 (AG) (AU) (BU) (BG) (AU) (BG) (AG) (AG) (BU) (AU)
                 (BG) (AG) (AU) (BU) (BG) (BU) (AG) (BG) (AU) (BG)
                 (BU) (AG) (BG) (AU) (AU) (BG) (AG) (BU) (AU) (AG)
                 (BG) (BU) (AG) (AU) (BU) (AU) (AG) (BG) (BU) (AG)
                 (BU) (AG) (BU) (AG) (BU) (BU) (BG) (AG) (AU) (BG)
                 (BG) (AU) (BU) (BG) (AG) (AU) (BG) (AU) (AG) (BU)
                 (AG)
       Virtual   (AG) (BG) (BU) (AU) (BG) (AG) (AU) (BU) (BU) (BG)
                 (AG) (AG) (AG) (BU) (BU) (BG) (AU) (BU) (AU) (BG)
                 (AG) (AU) (BG) (AG) (BG) (AU) (BU) (AU) (BG) (AG)
                 (AG) (BU) (AG) (AU) (AU) (BU) (BU) (BG) (AG) (AG)
                 (BU) (AU) (AG) (BU) (BG) (BU) (AG) (BG) (AU) (BU)
                 (BU) (AG) (AU) (BU) (BU) (AU) (AG) (BG) (AG) (AG)
                 (AG) (BG) (AG) (BU) (BG) (BU) (AU) (BG) (BG) (AU)
                 (BU) (AG) (AU) (BU) (BG) (AU) (AG) (BG) (AG) (AU)
                 (BG) (BU) (BU) (AU) (AG) (AU) (AU) (BG) (AG) (BG)
                 (AU) (BU) (AU) (BG) (AG) (BU) (AG) (BU) (BG) (AU)
                 (AG) (BU) (AU) (BU) (BG) (BG) (AG) (AU) (BU) (AG)
                 (BG) (AU) (AU) (BG) (AG) (BG) (BU) (AU) (BG) (AU)
                 (BG) (AG) (BU) (AG) (BU) (AU) (AG) (BG) (BU) (AU)
                 (AG) (AU) (AG) (BG) (BG) (BU) (AU) (AG) (BU) (BG)
                 (AU) (BG) (BU) (AG) (BU) (BG) (AU) (AU) (AG) (BG)
                 (AG) (BU) (BG) (AU) (AU) (BU) (AG) (BG) (AU) (BU)
                 (BG) (BU) (BG) (AG) (AU) (AG) (AU) (BU) (BG) (BU)
                 (AG) (BU) (AU) (AG) (AG) (BU) (BU) (AG) (AU) (BG)
                 (AG) (AG) (BU) (BG) (BU) (AG) (AU) (BU) (AG) (BU)
                 (AG) (AU) (BU) (BG) (AG) (AG) (AU) (BU) (AG) (AU)
                 (BG) (AG) (BU) (BU) (AU) (AU) (BG) (AG) (BU) (BG)
                 (BU) (BG) (AG) (BG) (AU) (AG) (BU) (AG) (BU) (AU)
                 (BG) (AG) (BG) (AU) (BU) (AU) (AG) (BG) (AU) (AG)
                 (BU) (AU) (BU) (BG) (AG) (AU) (BU) (BG) (AG) (AU)
                 (BU) (BG) (BG) (AG) (BU) (AG) (BU) (AU) (BG) (AU)
                 (BU) (BG) (AG) (AG) (AU) (BU) (BG) (AG) (AU) (BG)
                 (BG) (BU) (AG) (AU) (BG) (BU) (AG) (BU) (BG) (AU)
                 (AG) (BU) (AU) (AU) (AG) (BG) (BU) (AG) (AU) (BG)
                 (BU) (BU) (BG) (BU) (AG) (AU) (AU) (AG) (BG) (AU)
                 (BG) (BU) (BU) (BG) (AG) (AU) (BU) (BG) (AU) (AG)
                 (AG) (BU) (BG) (AU) (AU) (AG) (BG) (BU) (BU) (AU)
                 (AG) (BG) (AG) (AU) (BG) (AU) (BU) (BG) (AG) (BU)
                 (BG) (AG) (BU) (AU) (BG) (AU) (AG) (BU) (BG) (BG)
                 (AG) (BU) (AU) (AG) (BG) (BU) (AU) (AU) (BU) (BG)
                 (AG) (BU) (BG) (BG) (AU) (AU) (AG) (BG) (AU) (AG)
                 (BU) (AU) (BU) (BG) (AU) (BU) (AG) (BG) (AG) (BU)
                 (AU) (AG) (BG) (BG) (AU) (BU) (AU) (AG) (BU) (AG)
                 (AU) (BG) (BU) (AG) (BG) (BG) (BU) (AG) (BU) (BU)
                 (AU) (BG) (AU) (AG) (BG) (AU) (BG) (BU) (AG) (AU)
                 (AU) (BU) (BG) (AG) (BU) (AG) (AU) (BU) (AG) (AU)
                 (AG) (BG) (BG) (BU) (BG) (BU) (AG) (BU) (AU) (AG)
                 (AU) (BG) (AG) (BG) (BG) (BU) (AG) (AU) (AU) (BU)
                 (AU) (BG) (AG) (BU) (BG) (AG) (AU) (BG) (BU) (AG)
                 (AU) (BU) (AG) (AU) (AU) (AG) (BU) (BG) (BG) (BU)
                 (BU) (AG) (BG) (AU) (AG) (BU) (AG) (BG) (AU) (BU)
                 (AU) (AG) (AG) (BG) (AU) (BU) (BU) (BG) (AU) (AU)
                 (AG) (BU) (BG) (AG) (BG) (AG) (BU) (AU) (BG) (AG)
                 (AU) (BU) (BG) (AU) (BU) (BG) (AU) (BG) (AG) (AU)
                 (BU) (AG) (BG) (AU) (BG) (BU) (BG) (BU) (AU) (AG)
                 (AG) (AU) (BG) (BU) (BU) (AG) (BG) (BU) (BG) (AU)
                 (AU) (BG) (AU) (BG) (AG) (AG) (BG) (AG) (BU) (AU)
                 (BU) (AU) (BU) (BG) (AG) (AU) (BG) (BG) (BU) (AU)
                 (AG) (BU) (AG) (AU) (BG) (AU) (BU) (AG) (BU) (AU)
                 (AG) (AG) (BG) (AG) (BU) (AU) (AG) (BG) (AU) (BU)
                 (BG) (BU) (AU) (BG) (AG) (AG) (AU) (BU) (BU) (AU)
                 (AG) (BG) (BU) (AG) (AG) (BG) (BU) (AU) (BG) (AG)
                 (AU) (BG) (AU) (BU) (BG) (BU) (BU) (BG) (AU) (AG)
                 (AU) (AG) (BU) (BG) (AU) (AG) (BG) (BU) (AU) (AG)
                 (AU) (BG) (AU) (BG) (BG) (BU) (AG) (AU) (BG) (AU)
                 (BG) (BU) (AG) (BU) (AG) (BG) (AU) (BU) (BU) (AG)
                 (AU) (BG) (AG) (BG) (BU) (BG) (BU) (AG) (AU) (BG)
                 (AG) (BU) (AU) (AG) (BU) (AG) (AG) (BU) (AU) (BU)
                 (AG) (AU) (BG) (AU) (BU) (BG) (AU) (AG) (BU) (AG)
                 (BU) (BG) (AU) (AU) (BG) (AG) (BG) (AU) (BU) (BG)
                 (AG) (BU) (BG) (AU) (BU) (AG) (AG) (BU) (BG) (BU)
                 (AU) (BG) (AG) (BU) (AG) (AU) (AU) (BU) (AU) (BG)
                 (BU) (AG) (BG) (AG) (BU) (BG) (AG) (AU) (BU) (BG)
                 (BU) (BG) (AG) (AU) (AG) (BG) (BU) (AU) (AG) (BG)
                 (AU) (BG) (BU) (AG) (AU) (BU) (BG) (AG) (AG) (BU)
                 (AU) (BU) (BG) (AG) (AU) (BG) (BU) (BU) (AG) (AU)
                 (BG) (AG) (BU) (AU) (AG) (BU) (AG) (BU) (AU) (AG)
                 (BG) (BU) (BG) (AG) (BU) (AU) (BU) (BG) (AG) (AG)
                 (AG) (BU) (AU) (AG) (BG) (BU) (AG) (BU) (AG) (BU)
                 (AU) (AU) (BU) (BG) (BG) (AG) (BG) (AU) (BU) (AG)
                 (BU) (AG) (BG) (BU) (BG) (AU) (AG) (BU) (BG) (AU)
                 (BU) (AG) (BU) (AU) (AG) (BU) (BG) (AU) (BG) (AG)
                 (AG) (AU) (BU) (BG) (BU) (AG) (AU) (BG) (BU) (BG)
                 (AG) (AU) (AG) (AU) (BU) (BG) (AG) (AU) (AU) (AG)
                 (BG) (AU) (BG) (BU) (AG) (AU) (BG) (BU) (AU) (AG)
                 (BG) (BU) (AU) (AG) (AG) (BU) (BG) (AU) (AG) (BU)
                 (BG) (BU) (AG) (BG) (BU) (AU) (BG) (AG) (AG) (BU)
                 (AU) (BG) (AU) (BU) (AG) (AU) (AG) (BG) (AU) (BG)
                 (AU) (BU) (BG) (AU) (BG) (AG) (BG) (BU) (AU) (BG)
                 (AG) (BU) (BG) (BU) (AU) (BG) (AG) (BU) (BU) (AU)
                 (BG) (BU) (AG) (AG) (AU) (BU) (AU) (AG) (BG) (BU)
                 (BG) (AG) (BU) (AU) (BU) (BG) (AU) (BU) (BG) (AG)
                 (AU) (BU) (AU) (BG) (AU) (AG) (BU) (BG) (AG) (AU)
                 (AG) (BG) (BU) (BG) (AG) (AU) (BG) (BU) (AG) (AU)
                 (BU) (BG) (AG) (AU) (AG) (AU) (AG) (BU) (AU) (AG)
                 (AG) (AU) (BU) (AG) (BU) (BG) (BU) (AG) (BU) (AG)
                 (AG) (BG) (BU) (AU) (BU) (BG) (AG) (BU) (BU) (AU)
                 (BG) (AG) (AU) (BG) (AG) (AU) (BG) (BU) (BG) (AU)
                 (AG) (BG) (BU) (AG) (BG) (AU) (AU) (AG) (BU) (AU)
                 (AG) (AG) (BG) (AU) (BU) (BG) (BU) (AG) (BG) (AU)
                 (BU) (AU) (BU) (AG) (BU) (BG) (AG) (AU) (AG) (AU)
                 (BG) (BU) (BG) (AG) (BU) (AU) (BU) (AU) (AG) (BG)
                 (AU) (BG) (AG) (BU) (AU) (AG) (BU) (AG) (AU) (BG)
                 (BG) (AG) (AG) (BU) (AU) (BU) (BG) (BG) (AG) (BU)
                 (AU) (BG) (BU) (AG) (BU) (BG) (AU) (AG) (BU) (AU)
                 (BG) (AG) (BU) (AU) (AG) (BG) (BU) (AG) (AU) (AG)
                 (BG) (AG) (BU) (AU) (BU) (BG) (AU) (AU) (AG) (BG)
                 (AU) (BG) (BU) (AG) (BU) (AG) (AU) (BU) (AG) (BG)
                 (BU) (AU) (AG) (BG) (AU) (BG) (AU) (BU) (BG) (AU)
                 (BU) (AG) (BG) (AG) (AU) (BG) (AU) (BG) (BU) (BU)
                 (AG) (AU) (BU) (BG) (AG) (BU) (AG) (AG) (BU) (AG)
                 (AU) (AU) (BG) (BG) (AG) (BU) (AG) (BG) (BU) (AU)
                 (AG) (BU) (AU) (BG) (BU) (AG) (BG) (BU) (BU) (AG)
                 (AU) (AG) (BU) (AU) (AG) (BU) (BU) (AU) (AG) (AU)
                 (BG) (AG) (BG) (BU) (BG) (AG) (AU) (BG) (AU) (BG)
                 (BU) (AG) (BG) (AG) (BU) (BU) (AU) (AG) (AG) (BU)
                 (BG) (AU) (AU) (BU) (AG) (BG) (AG) (AG) (BU) (BG)
                 (AU) (BU) (BG) (BU) (AU) (BG) (AG) (AU) (BU) (BG)
                 (AG) (BG) (AU) (AU) (BU) (BG) (BU) (AG) (BG) (BU)
                 (AU) (AG) (AU) (BG) (AG) (BG) (BU) (AU) (AG) (BU)
                 (BG) (AU) (AG) (BU) (AU) (BG) (AU) (BU) (BG) (BG)
                 (BU) (AU) (BG) (AG) (AU) (AG) (BG) (BU) (BU) (BG)
                 (AU) (AG) (BU) (AU) (AG) (AU) (BU) (AG) (BG) (AG)
                 (AU) (BG) (BU) (BG) (AU) (BG) (BU) (AG) (AU) (AU)
                 (BG) (AG) (AU) (BU) (AU) (BG) (BU) (AU) (BG) (AG)
                 (BU) (AG) (BG) (AG) (AU) (AG) (BU) (BG) (BU) (AU)
                 (BG) (AU) (BU) (AG) (BG) (BG) (AG) (BU) (AU) (AU)
                 (BG) (BG) (AU) (AG) (BU) (AG) (AU) (BU) (AG) (BG)
                 (AU) (AG) (BU) (BG) (AU) (AU) (BG) (BU) (AG) (AU)
                 (AG) (BG) (BG) (BU) (AU) (BU) (AG) (AG) (BU) (BU)
                 (BG) (BG) (AU) (BU) (AG) (AU) (AG) (BU) (BG) (AG)
                 (BG) (BU) (AU) (AG) (AU) (BG) (BU) (AG) (BG) (BU)
                 (BU) (AU) (BG) (AG) (BG) (BU) (AG) (AU) (BU) (AG)
                 (AG) (BG) (BU) (AG) (AU) (BG) (AU) (AU) (BG) (BU)
                 (AU) (BG) (BU) (AG) (AG) (AG) (BU) (AU) (BG) (AU)
                 (BU) (AG) (BG) (AG) (AU) (BG) (BU) (AU) (BG) (AU)
                 (AU) (BU) (BG) (BU) (AG) (AG) (AU) (BG) (BG) (AG)
                 (BU) (AG) (BG) (BU) (AU) (AG) (AU) (BG) (AU) (AU)
                 (AG) (BG) (AU) (AG) (BU) (BG) (AG) (BU) (BU) (AU)
                 (AG) (AU) (BU) (AG) (BG) (BG) (AU) (AU) (BU) (AG)
                 (AU) (BG) (AG) (BG) (AU) (BU) (BG) (AU) (AG) (BU)
                 (BG) (AU) (AU) (BG) (BG) (AG) (BG) (AU) (BU) (AU)
                 (BU) (BG) (AG) (BU) (AG) (AG) (AU) (BU) (BG) (AU)
                 (BU) (BG) (AG) (BU) (AU) (AG) (BG) (BG) (AG) (BU)
                 (AU) (BU) (BG) (BU) (AG) (AU) (BG) (AG) (AU) (AG)
                 (AU) (BG) (AG) (AU) (BU) (AG) (BU) (AU) (BU) (AG)
                 (BG) (AG) (BU) (AG) (BU) (BU) (AU) (AG) (BG) (AU)
                 (BG) (AG) (BG) (AU) (BU) (BU) (AU) (BG) (AG) (AU)
                 (AU) (BU) (BG) (AG) (BG) (AU) (BU) (AU) (BG) (AU)
                 (BU) (AG) (BG) (AU) (BG) (AG) (BU) (AU) (BG) (AG)
                 (BG) (BU) (AG) (AU) (BG) (AG) (BU) (AG) (BU) (BG)
                 (AU) (BU) (AG) (BG) (AU) (BG) (BU) (AU) (AG) (BG)
                 (AU) (BG) (AU) (AU) (BU) (BG) (AG) (BU) (BG) (AG)
                 (BU) (AU) (AG) (BG) (AU) (BU) (BG) (AU) (BU) (BG)
                 (AG) (BU) (BG) (AG) (AU) (BU) (AG) (AU) (BU) (AG)
                 (AG) (AU) (BG) (BG) (BU) (AG) (BG) (AU) (BU) (AG)
                 (AG) (BU) (AU) (BG) (AU) (BU) (AG) (AU) (BG) (BU)
                 (AU) (BG) (BG) (AU) (BG) (BU) (BG) (AU) (AG) (AU)
                 (BU) (BU) (AG) (AG) (BG) (AU) (BU) (AG) (BG) (AG)
                 (BG) (AU) (BU) (AU) (AG) (BG) (BG) (BU) (AU) (AU)
                 (BG) (BG) (BU) (AG) (AU) (BG) (BU) (AU) (AU) (BG)
                 (BG) (AU) (BG) (AU) (BU) (BU) (AG) (BU) (AG) (BU)
                 (AU) (BU) (AG) (BG) (BU) (AU) (AU) (AG) (BU) (BG)
                 (BU) (AU)
 The electronic state of the initial guess is 1-AG.
 Leave Link  401 at Wed Oct 22 06:53:11 2025, MaxMem=  2147483648 cpu:        41.5
 (Enter /opt/g09/l502.exe)
 Closed shell SCF:
 Using DIIS extrapolation, IDIIS=  1040.
 Integral symmetry usage will be decided dynamically.
 IVT=    13902328 IEndB=    13902328 NGot=  2147483648 MDV=  2138214013
 LenX=  2138214013 LenY=  2133597961
 Requested convergence on RMS density matrix=1.00D-08 within 128 cycles.
 Requested convergence on MAX density matrix=1.00D-06.
 Requested convergence on             energy=1.00D-06.
 No special actions if energy rises.
 Fock matrices will be formed incrementally for  20 cycles.

 Cycle   1  Pass 1  IDiag  1:
 FoFJK:  IHMeth= 1 ICntrl=       0 DoSepK=T KAlg= 0 I1Cent=   0 FoldK=F
 IRaf=         1 NMat=   1 IRICut=       1 DoRegI=T DoRafI=F ISym2E= 1.
 FoFCou: FMM=F IPFlag=           0 FMFlag=      100000 FMFlg1=        2000
         NFxFlg=           0 DoJE=T BraDBF=F KetDBF=F FulRan=T
         wScrn=  0.000000 ICntrl=     500 IOpCl=  0 I1Cent=           0 NGrid=           0
         NMat0=    1 NMatS0=      1 NMatT0=    0 NMatD0=    1 NMtDS0=    0 NMtDT0=    0
 Petite list used in FoFCou.
 E= -10319.6455900913    
 DIIS: error= 6.80D-02 at cycle   1 NSaved=   1.
 NSaved= 1 IEnMin= 1 EnMin= -10319.6455900913     IErMin= 1 ErrMin= 6.80D-02
 ErrMax= 6.80D-02  0.00D+00 EMaxC= 1.00D-01 BMatC= 2.00D+00 BMatP= 2.00D+00
 IDIUse=3 WtCom= 3.20D-01 WtEn= 6.80D-01
 Coeff-Com:  0.100D+01
 Coeff-En:   0.100D+01
 Coeff:      0.100D+01
 Gap=     0.153 Goal=   None    Shift=    0.000
 GapD=    0.153 DampG=1.000 DampE=0.250 DampFc=0.2500 IDamp=-1.
 Damping current iteration by 2.50D-01
 RMSDP=2.55D-03 MaxDP=2.72D-01              OVMax= 1.78D-01

 Cycle   2  Pass 1  IDiag  1:
 RMSU=  5.67D-04    CP:  9.71D-01
 E= -10320.1632446931     Delta-E=       -0.517654601797 Rises=F Damp=T
 DIIS: error= 2.92D-02 at cycle   2 NSaved=   2.
 NSaved= 2 IEnMin= 2 EnMin= -10320.1632446931     IErMin= 2 ErrMin= 2.92D-02
 ErrMax= 2.92D-02  0.00D+00 EMaxC= 1.00D-01 BMatC= 5.11D-01 BMatP= 2.00D+00
 IDIUse=3 WtCom= 7.08D-01 WtEn= 2.92D-01
 Coeff-Com: -0.875D+00 0.187D+01
 Coeff-En:   0.000D+00 0.100D+01
 Coeff:     -0.619D+00 0.162D+01
 Gap=     0.177 Goal=   None    Shift=    0.000
 RMSDP=1.67D-03 MaxDP=2.44D-01 DE=-5.18D-01 OVMax= 8.77D-02

 Cycle   3  Pass 1  IDiag  1:
 RMSU=  6.56D-04    CP:  8.83D-01  3.00D+00
 E= -10321.0652620705     Delta-E=       -0.902017377462 Rises=F Damp=F
 DIIS: error= 1.20D-02 at cycle   3 NSaved=   3.
 NSaved= 3 IEnMin= 3 EnMin= -10321.0652620705     IErMin= 3 ErrMin= 1.20D-02
 ErrMax= 1.20D-02  0.00D+00 EMaxC= 1.00D-01 BMatC= 7.05D-02 BMatP= 5.11D-01
 IDIUse=3 WtCom= 8.80D-01 WtEn= 1.20D-01
 Coeff-Com:  0.112D+00 0.541D-01 0.834D+00
 Coeff-En:   0.000D+00 0.000D+00 0.100D+01
 Coeff:      0.982D-01 0.476D-01 0.854D+00
 Gap=     0.160 Goal=   None    Shift=    0.000
 RMSDP=2.37D-04 MaxDP=3.69D-02 DE=-9.02D-01 OVMax= 4.45D-02

 Cycle   4  Pass 1  IDiag  1:
 RMSU=  2.33D-04    CP:  8.81D-01  3.00D+00  1.06D+00
 E= -10321.0989265734     Delta-E=       -0.033664502858 Rises=F Damp=F
 DIIS: error= 2.94D-03 at cycle   4 NSaved=   4.
 NSaved= 4 IEnMin= 4 EnMin= -10321.0989265734     IErMin= 4 ErrMin= 2.94D-03
 ErrMax= 2.94D-03  0.00D+00 EMaxC= 1.00D-01 BMatC= 1.79D-02 BMatP= 7.05D-02
 IDIUse=3 WtCom= 9.71D-01 WtEn= 2.94D-02
 Coeff-Com:  0.166D+00-0.201D+00 0.494D+00 0.541D+00
 Coeff-En:   0.000D+00 0.000D+00 0.132D+00 0.868D+00
 Coeff:      0.161D+00-0.195D+00 0.484D+00 0.550D+00
 Gap=     0.161 Goal=   None    Shift=    0.000
 RMSDP=1.18D-04 MaxDP=9.08D-03 DE=-3.37D-02 OVMax= 3.19D-02

 Cycle   5  Pass 1  IDiag  1:
 RMSU=  6.26D-05    CP:  8.78D-01  3.00D+00  1.15D+00  6.71D-01
 E= -10321.1149633144     Delta-E=       -0.016036741035 Rises=F Damp=F
 DIIS: error= 7.15D-04 at cycle   5 NSaved=   5.
 NSaved= 5 IEnMin= 5 EnMin= -10321.1149633144     IErMin= 5 ErrMin= 7.15D-04
 ErrMax= 7.15D-04  0.00D+00 EMaxC= 1.00D-01 BMatC= 1.08D-03 BMatP= 1.79D-02
 IDIUse=3 WtCom= 9.93D-01 WtEn= 7.15D-03
 Coeff-Com:  0.393D-01-0.758D-01 0.586D-01 0.218D+00 0.760D+00
 Coeff-En:   0.000D+00 0.000D+00 0.000D+00 0.000D+00 0.100D+01
 Coeff:      0.390D-01-0.753D-01 0.581D-01 0.217D+00 0.762D+00
 Gap=     0.161 Goal=   None    Shift=    0.000
 RMSDP=3.58D-05 MaxDP=3.35D-03 DE=-1.60D-02 OVMax= 1.03D-02

 Cycle   6  Pass 1  IDiag  1:
 RMSU=  2.85D-05    CP:  8.77D-01  3.00D+00  1.16D+00  7.41D-01  9.00D-01
 E= -10321.1161218325     Delta-E=       -0.001158518055 Rises=F Damp=F
 DIIS: error= 2.99D-04 at cycle   6 NSaved=   6.
 NSaved= 6 IEnMin= 6 EnMin= -10321.1161218325     IErMin= 6 ErrMin= 2.99D-04
 ErrMax= 2.99D-04  0.00D+00 EMaxC= 1.00D-01 BMatC= 1.25D-04 BMatP= 1.08D-03
 IDIUse=3 WtCom= 9.97D-01 WtEn= 2.99D-03
 Coeff-Com: -0.511D-02-0.230D-02-0.208D-01 0.387D-01 0.321D+00 0.669D+00
 Coeff-En:   0.000D+00 0.000D+00 0.000D+00 0.000D+00 0.000D+00 0.100D+01
 Coeff:     -0.510D-02-0.230D-02-0.207D-01 0.385D-01 0.320D+00 0.670D+00
 Gap=     0.161 Goal=   None    Shift=    0.000
 RMSDP=1.15D-05 MaxDP=1.08D-03 DE=-1.16D-03 OVMax= 3.07D-03

 Cycle   7  Pass 1  IDiag  1:
 RMSU=  9.61D-06    CP:  8.77D-01  3.00D+00  1.16D+00  7.45D-01  9.92D-01
                    CP:  9.33D-01
 E= -10321.1162545650     Delta-E=       -0.000132732501 Rises=F Damp=F
 DIIS: error= 9.17D-05 at cycle   7 NSaved=   7.
 NSaved= 7 IEnMin= 7 EnMin= -10321.1162545650     IErMin= 7 ErrMin= 9.17D-05
 ErrMax= 9.17D-05  0.00D+00 EMaxC= 1.00D-01 BMatC= 1.63D-05 BMatP= 1.25D-04
 IDIUse=1 WtCom= 1.00D+00 WtEn= 0.00D+00
 Coeff-Com: -0.822D-02 0.101D-01-0.184D-01-0.112D-01 0.423D-01 0.290D+00
 Coeff-Com:  0.696D+00
 Coeff:     -0.822D-02 0.101D-01-0.184D-01-0.112D-01 0.423D-01 0.290D+00
 Coeff:      0.696D+00
 Gap=     0.161 Goal=   None    Shift=    0.000
 RMSDP=4.27D-06 MaxDP=3.86D-04 DE=-1.33D-04 OVMax= 1.41D-03

 Cycle   8  Pass 1  IDiag  1:
 RMSU=  3.47D-06    CP:  8.77D-01  3.00D+00  1.16D+00  7.50D-01  9.95D-01
                    CP:  1.00D+00  9.19D-01
 E= -10321.1162800113     Delta-E=       -0.000025446323 Rises=F Damp=F
 DIIS: error= 5.73D-05 at cycle   8 NSaved=   8.
 NSaved= 8 IEnMin= 8 EnMin= -10321.1162800113     IErMin= 8 ErrMin= 5.73D-05
 ErrMax= 5.73D-05  0.00D+00 EMaxC= 1.00D-01 BMatC= 3.24D-06 BMatP= 1.63D-05
 IDIUse=1 WtCom= 1.00D+00 WtEn= 0.00D+00
 Coeff-Com: -0.119D-02 0.251D-02-0.381D-02-0.104D-01-0.434D-01-0.167D-01
 Coeff-Com:  0.295D+00 0.778D+00
 Coeff:     -0.119D-02 0.251D-02-0.381D-02-0.104D-01-0.434D-01-0.167D-01
 Coeff:      0.295D+00 0.778D+00
 Gap=     0.161 Goal=   None    Shift=    0.000
 RMSDP=2.07D-06 MaxDP=1.66D-04 DE=-2.54D-05 OVMax= 5.26D-04

 Cycle   9  Pass 1  IDiag  1:
 RMSU=  1.51D-06    CP:  8.77D-01  3.00D+00  1.16D+00  7.51D-01  1.01D+00
                    CP:  1.02D+00  1.02D+00  9.83D-01
 E= -10321.1162861124     Delta-E=       -0.000006101109 Rises=F Damp=F
 DIIS: error= 1.32D-05 at cycle   9 NSaved=   9.
 NSaved= 9 IEnMin= 9 EnMin= -10321.1162861124     IErMin= 9 ErrMin= 1.32D-05
 ErrMax= 1.32D-05  0.00D+00 EMaxC= 1.00D-01 BMatC= 4.17D-07 BMatP= 3.24D-06
 IDIUse=1 WtCom= 1.00D+00 WtEn= 0.00D+00
 Coeff-Com:  0.866D-03-0.585D-03 0.139D-02-0.190D-02-0.238D-01-0.596D-01
 Coeff-Com:  0.119D-02 0.267D+00 0.816D+00
 Coeff:      0.866D-03-0.585D-03 0.139D-02-0.190D-02-0.238D-01-0.596D-01
 Coeff:      0.119D-02 0.267D+00 0.816D+00
 Gap=     0.162 Goal=   None    Shift=    0.000
 RMSDP=8.85D-07 MaxDP=5.41D-05 DE=-6.10D-06 OVMax= 2.56D-04

 Cycle  10  Pass 1  IDiag  1:
 RMSU=  6.25D-07    CP:  8.77D-01  3.00D+00  1.16D+00  7.52D-01  1.01D+00
                    CP:  1.03D+00  1.04D+00  1.11D+00  1.22D+00
 E= -10321.1162873239     Delta-E=       -0.000001211527 Rises=F Damp=F
 DIIS: error= 1.10D-05 at cycle  10 NSaved=  10.
 NSaved=10 IEnMin=10 EnMin= -10321.1162873239     IErMin=10 ErrMin= 1.10D-05
 ErrMax= 1.10D-05  0.00D+00 EMaxC= 1.00D-01 BMatC= 8.27D-08 BMatP= 4.17D-07
 IDIUse=1 WtCom= 1.00D+00 WtEn= 0.00D+00
 Coeff-Com:  0.311D-03-0.374D-03 0.108D-02 0.167D-02 0.226D-02-0.172D-01
 Coeff-Com: -0.503D-01-0.668D-01 0.232D+00 0.898D+00
 Coeff:      0.311D-03-0.374D-03 0.108D-02 0.167D-02 0.226D-02-0.172D-01
 Coeff:     -0.503D-01-0.668D-01 0.232D+00 0.898D+00
 Gap=     0.162 Goal=   None    Shift=    0.000
 RMSDP=4.50D-07 MaxDP=2.73D-05 DE=-1.21D-06 OVMax= 1.77D-04

 Cycle  11  Pass 1  IDiag  1:
 RMSU=  3.12D-07    CP:  8.77D-01  3.00D+00  1.16D+00  7.52D-01  1.01D+00
                    CP:  1.02D+00  1.05D+00  1.15D+00  1.38D+00  1.12D+00
 E= -10321.1162876422     Delta-E=       -0.000000318272 Rises=F Damp=F
 DIIS: error= 4.87D-06 at cycle  11 NSaved=  11.
 NSaved=11 IEnMin=11 EnMin= -10321.1162876422     IErMin=11 ErrMin= 4.87D-06
 ErrMax= 4.87D-06  0.00D+00 EMaxC= 1.00D-01 BMatC= 2.90D-08 BMatP= 8.27D-08
 IDIUse=1 WtCom= 1.00D+00 WtEn= 0.00D+00
 Coeff-Com: -0.388D-05-0.120D-03 0.314D-03 0.136D-02 0.674D-02 0.287D-02
 Coeff-Com: -0.232D-01-0.886D-01-0.787D-01 0.415D+00 0.764D+00
 Coeff:     -0.388D-05-0.120D-03 0.314D-03 0.136D-02 0.674D-02 0.287D-02
 Coeff:     -0.232D-01-0.886D-01-0.787D-01 0.415D+00 0.764D+00
 Gap=     0.162 Goal=   None    Shift=    0.000
 RMSDP=2.58D-07 MaxDP=1.58D-05 DE=-3.18D-07 OVMax= 1.10D-04

 Cycle  12  Pass 1  IDiag  1:
 RMSU=  1.73D-07    CP:  8.77D-01  3.00D+00  1.16D+00  7.52D-01  1.01D+00
                    CP:  1.02D+00  1.06D+00  1.17D+00  1.44D+00  1.32D+00
                    CP:  1.21D+00
 E= -10321.1162877466     Delta-E=       -0.000000104446 Rises=F Damp=F
 DIIS: error= 2.32D-06 at cycle  12 NSaved=  12.
 NSaved=12 IEnMin=12 EnMin= -10321.1162877466     IErMin=12 ErrMin= 2.32D-06
 ErrMax= 2.32D-06  0.00D+00 EMaxC= 1.00D-01 BMatC= 5.46D-09 BMatP= 2.90D-08
 IDIUse=1 WtCom= 1.00D+00 WtEn= 0.00D+00
 Coeff-Com: -0.498D-04 0.315D-04-0.119D-03-0.184D-03 0.108D-02 0.328D-02
 Coeff-Com:  0.598D-02-0.615D-02-0.610D-01-0.106D+00 0.123D+00 0.104D+01
 Coeff:     -0.498D-04 0.315D-04-0.119D-03-0.184D-03 0.108D-02 0.328D-02
 Coeff:      0.598D-02-0.615D-02-0.610D-01-0.106D+00 0.123D+00 0.104D+01
 Gap=     0.162 Goal=   None    Shift=    0.000
 RMSDP=1.71D-07 MaxDP=1.16D-05 DE=-1.04D-07 OVMax= 1.16D-04

 Cycle  13  Pass 1  IDiag  1:
 RMSU=  8.13D-08    CP:  8.77D-01  3.00D+00  1.16D+00  7.52D-01  1.01D+00
                    CP:  1.02D+00  1.06D+00  1.18D+00  1.46D+00  1.41D+00
                    CP:  1.56D+00  1.39D+00
 E= -10321.1162877844     Delta-E=       -0.000000037733 Rises=F Damp=F
 DIIS: error= 1.59D-06 at cycle  13 NSaved=  13.
 NSaved=13 IEnMin=13 EnMin= -10321.1162877844     IErMin=13 ErrMin= 1.59D-06
 ErrMax= 1.59D-06  0.00D+00 EMaxC= 1.00D-01 BMatC= 2.86D-09 BMatP= 5.46D-09
 IDIUse=1 WtCom= 1.00D+00 WtEn= 0.00D+00
 Coeff-Com: -0.549D-05 0.300D-04-0.149D-03-0.638D-03-0.161D-02 0.529D-03
 Coeff-Com:  0.111D-01 0.241D-01 0.182D-02-0.178D+00-0.205D+00 0.506D+00
 Coeff-Com:  0.842D+00
 Coeff:     -0.549D-05 0.300D-04-0.149D-03-0.638D-03-0.161D-02 0.529D-03
 Coeff:      0.111D-01 0.241D-01 0.182D-02-0.178D+00-0.205D+00 0.506D+00
 Coeff:      0.842D+00
 Gap=     0.162 Goal=   None    Shift=    0.000
 RMSDP=1.14D-07 MaxDP=8.94D-06 DE=-3.77D-08 OVMax= 8.40D-05

 Cycle  14  Pass 1  IDiag  1:
 RMSU=  5.09D-08    CP:  8.77D-01  3.00D+00  1.16D+00  7.52D-01  1.01D+00
                    CP:  1.02D+00  1.06D+00  1.18D+00  1.47D+00  1.46D+00
                    CP:  1.74D+00  1.75D+00  1.49D+00
 E= -10321.1162878014     Delta-E=       -0.000000016982 Rises=F Damp=F
 DIIS: error= 1.21D-06 at cycle  14 NSaved=  14.
 NSaved=14 IEnMin=14 EnMin= -10321.1162878014     IErMin=14 ErrMin= 1.21D-06
 ErrMax= 1.21D-06  0.00D+00 EMaxC= 1.00D-01 BMatC= 8.30D-10 BMatP= 2.86D-09
 IDIUse=1 WtCom= 1.00D+00 WtEn= 0.00D+00
 Coeff-Com:  0.383D-04-0.443D-04 0.497D-04-0.376D-04-0.202D-03-0.980D-03
 Coeff-Com: -0.697D-03-0.591D-03 0.213D-01 0.295D-01-0.553D-01-0.253D+00
 Coeff-Com: -0.212D-01 0.128D+01
 Coeff:      0.383D-04-0.443D-04 0.497D-04-0.376D-04-0.202D-03-0.980D-03
 Coeff:     -0.697D-03-0.591D-03 0.213D-01 0.295D-01-0.553D-01-0.253D+00
 Coeff:     -0.212D-01 0.128D+01
 Gap=     0.162 Goal=   None    Shift=    0.000
 RMSDP=9.51D-08 MaxDP=8.17D-06 DE=-1.70D-08 OVMax= 7.85D-05

 Cycle  15  Pass 1  IDiag  1:
 RMSU=  2.65D-08    CP:  8.77D-01  3.00D+00  1.16D+00  7.52D-01  1.01D+00
                    CP:  1.02D+00  1.06D+00  1.19D+00  1.48D+00  1.48D+00
                    CP:  1.86D+00  1.98D+00  2.15D+00  1.85D+00
 E= -10321.1162878087     Delta-E=       -0.000000007356 Rises=F Damp=F
 DIIS: error= 7.80D-07 at cycle  15 NSaved=  15.
 NSaved=15 IEnMin=15 EnMin= -10321.1162878087     IErMin=15 ErrMin= 7.80D-07
 ErrMax= 7.80D-07  0.00D+00 EMaxC= 1.00D-01 BMatC= 3.78D-10 BMatP= 8.30D-10
 IDIUse=1 WtCom= 1.00D+00 WtEn= 0.00D+00
 Coeff-Com:  0.646D-05-0.143D-04 0.744D-04 0.221D-03 0.766D-03-0.487D-03
 Coeff-Com: -0.415D-02-0.123D-01 0.524D-02 0.840D-01 0.669D-01-0.275D+00
 Coeff-Com: -0.397D+00 0.475D+00 0.106D+01
 Coeff:      0.646D-05-0.143D-04 0.744D-04 0.221D-03 0.766D-03-0.487D-03
 Coeff:     -0.415D-02-0.123D-01 0.524D-02 0.840D-01 0.669D-01-0.275D+00
 Coeff:     -0.397D+00 0.475D+00 0.106D+01
 Gap=     0.162 Goal=   None    Shift=    0.000
 RMSDP=7.42D-08 MaxDP=6.34D-06 DE=-7.36D-09 OVMax= 6.29D-05

 Cycle  16  Pass 1  IDiag  1:
 RMSU=  1.78D-08    CP:  8.77D-01  3.00D+00  1.16D+00  7.52D-01  1.01D+00
                    CP:  1.02D+00  1.06D+00  1.19D+00  1.49D+00  1.50D+00
                    CP:  1.94D+00  2.15D+00  2.65D+00  2.57D+00  1.68D+00
 E= -10321.1162878141     Delta-E=       -0.000000005355 Rises=F Damp=F
 DIIS: error= 4.58D-07 at cycle  16 NSaved=  16.
 NSaved=16 IEnMin=16 EnMin= -10321.1162878141     IErMin=16 ErrMin= 4.58D-07
 ErrMax= 4.58D-07  0.00D+00 EMaxC= 1.00D-01 BMatC= 1.17D-10 BMatP= 3.78D-10
 IDIUse=1 WtCom= 1.00D+00 WtEn= 0.00D+00
 Coeff-Com: -0.139D-04 0.150D-04-0.372D-05 0.432D-04 0.226D-03 0.445D-04
 Coeff-Com:  0.708D-04-0.239D-02-0.663D-02 0.225D-02 0.328D-01 0.677D-01
 Coeff-Com: -0.844D-01-0.440D+00 0.881D-01 0.134D+01
 Coeff:     -0.139D-04 0.150D-04-0.372D-05 0.432D-04 0.226D-03 0.445D-04
 Coeff:      0.708D-04-0.239D-02-0.663D-02 0.225D-02 0.328D-01 0.677D-01
 Coeff:     -0.844D-01-0.440D+00 0.881D-01 0.134D+01
 Gap=     0.162 Goal=   None    Shift=    0.000
 RMSDP=6.05D-08 MaxDP=5.33D-06 DE=-5.36D-09 OVMax= 5.20D-05

 Cycle  17  Pass 1  IDiag  1:
 RMSU=  1.18D-08    CP:  8.77D-01  3.00D+00  1.16D+00  7.52D-01  1.01D+00
                    CP:  1.02D+00  1.06D+00  1.19D+00  1.49D+00  1.51D+00
                    CP:  2.00D+00  2.29D+00  3.00D+00  3.00D+00  2.55D+00
                    CP:  1.84D+00
 E= -10321.1162878161     Delta-E=       -0.000000002074 Rises=F Damp=F
 DIIS: error= 1.78D-07 at cycle  17 NSaved=  17.
 NSaved=17 IEnMin=17 EnMin= -10321.1162878161     IErMin=17 ErrMin= 1.78D-07
 ErrMax= 1.78D-07  0.00D+00 EMaxC= 1.00D-01 BMatC= 3.62D-11 BMatP= 1.17D-10
 IDIUse=1 WtCom= 1.00D+00 WtEn= 0.00D+00
 Coeff-Com: -0.418D-05 0.559D-05-0.217D-04-0.498D-04-0.159D-03 0.581D-04
 Coeff-Com:  0.146D-02 0.256D-02-0.385D-02-0.244D-01-0.993D-02 0.111D+00
 Coeff-Com:  0.892D-01-0.294D+00-0.347D+00 0.511D+00 0.963D+00
 Coeff:     -0.418D-05 0.559D-05-0.217D-04-0.498D-04-0.159D-03 0.581D-04
 Coeff:      0.146D-02 0.256D-02-0.385D-02-0.244D-01-0.993D-02 0.111D+00
 Coeff:      0.892D-01-0.294D+00-0.347D+00 0.511D+00 0.963D+00
 Gap=     0.162 Goal=   None    Shift=    0.000
 RMSDP=2.92D-08 MaxDP=2.43D-06 DE=-2.07D-09 OVMax= 2.48D-05

 Cycle  18  Pass 1  IDiag  1:
 RMSU=  1.47D-08    CP:  8.77D-01  3.00D+00  1.16D+00  7.52D-01  1.01D+00
                    CP:  1.02D+00  1.06D+00  1.19D+00  1.49D+00  1.52D+00
                    CP:  2.03D+00  2.35D+00  3.00D+00  3.00D+00  3.00D+00
                    CP:  2.37D+00  2.05D+00
 E= -10321.1162878163     Delta-E=       -0.000000000204 Rises=F Damp=F
 DIIS: error= 6.51D-08 at cycle  18 NSaved=  18.
 NSaved=18 IEnMin=18 EnMin= -10321.1162878163     IErMin=18 ErrMin= 6.51D-08
 ErrMax= 6.51D-08  0.00D+00 EMaxC= 1.00D-01 BMatC= 5.54D-12 BMatP= 3.62D-11
 IDIUse=1 WtCom= 1.00D+00 WtEn= 0.00D+00
 Coeff-Com:  0.267D-05-0.267D-05-0.603D-05-0.250D-04-0.115D-03-0.257D-04
 Coeff-Com:  0.583D-03 0.141D-02 0.531D-03-0.788D-02-0.119D-01 0.184D-01
 Coeff-Com:  0.518D-01 0.233D-01-0.154D+00-0.169D+00 0.323D+00 0.925D+00
 Coeff:      0.267D-05-0.267D-05-0.603D-05-0.250D-04-0.115D-03-0.257D-04
 Coeff:      0.583D-03 0.141D-02 0.531D-03-0.788D-02-0.119D-01 0.184D-01
 Coeff:      0.518D-01 0.233D-01-0.154D+00-0.169D+00 0.323D+00 0.925D+00
 Gap=     0.162 Goal=   None    Shift=    0.000
 RMSDP=9.58D-09 MaxDP=8.33D-07 DE=-2.04D-10 OVMax= 7.95D-06

 SCF Done:  E(RLC-B+HF-LYP) =  -10321.1162878     A.U. after   18 cycles
            NFock= 18  Conv=0.96D-08     -V/T= 2.0056
 KE= 1.026336187652D+04 PE=-9.418875362978D+04 EE= 3.868737185853D+04
 Leave Link  502 at Wed Oct 22 07:14:16 2025, MaxMem=  2147483648 cpu:     10113.7
 (Enter /opt/g09/l601.exe)
 Copying SCF densities to generalized density rwf, IOpCl= 0 IROHF=0.
 Hyperfine terms turned off by default for NAtoms > 100.

 **********************************************************************

            Population analysis using the SCF density.

 **********************************************************************

 Orbital symmetries:
       Occupied  (AG) (AG) (BU) (AG) (BU) (AG) (AG) (BU) (BU) (AG)
                 (BU) (BG) (AU) (BU) (AU) (AG) (BU) (BU) (AG) (BG)
                 (AU) (BU) (AG) (AG) (BU) (AU) (AG) (AG) (BU) (BG)
                 (AU) (BU) (AG) (AU) (BG) (AG) (BG) (AU) (BU) (BG)
                 (AU) (BU) (AG) (AU) (BG) (AG) (BU) (AU) (BG) (AG)
                 (BU) (AU) (BG) (AG) (BU) (AU) (BG) (AG) (BU) (BG)
                 (BU) (AG) (AU) (AU) (BG) (BU) (AG) (BU) (AG) (BG)
                 (AU) (BG) (AU) (BU) (AG) (BU) (AG) (BG) (AU) (BG)
                 (AU) (AG) (BU) (AU) (AG) (BG) (BU) (AU) (AG) (BG)
                 (BU) (AU) (AG) (BG) (BU) (BU) (AG) (BG) (BU) (AU)
                 (AG) (BG) (AU) (AU) (AG) (AU) (BG) (BG) (BU) (BU)
                 (AG) (AU) (AG) (BG) (BU) (AU) (AG) (BG) (BU) (BU)
                 (AG) (BG) (AU) (AG) (BU) (BG) (AU) (AU) (AG) (BU)
                 (AG) (BG) (BU) (AU) (BG) (AG) (BU) (AG) (BU) (AG)
                 (BU) (BU) (AG) (AU) (BG) (BU) (AU) (AG) (BU) (AG)
                 (BU) (AU) (AG) (BG) (BU) (AU) (AG) (BU) (AG) (BG)
                 (AU) (BG) (BU) (AG) (AU) (BG) (BU) (AU) (AG) (BU)
                 (AG) (BU) (AG) (AU) (AG) (BU) (BG) (AG) (BU) (BU)
                 (AG) (AU) (AG) (BG) (AU) (BG) (AG) (BU) (AG) (AU)
                 (BU) (BG) (AG) (AU) (BU) (BG) (BU) (AU) (AG) (BU)
                 (AG) (AU) (BU) (AG) (BG) (AU) (BG) (BG) (AU) (BG)
                 (BU) (AU) (BG) (AG) (AU) (BU) (AG) (AG) (BU) (BU)
                 (AG) (AG) (BU) (AU) (AG) (BG) (BU) (AU) (BG) (AU)
                 (AG) (BU) (BG) (AG) (AU) (BG) (BG) (BU) (AU) (AG)
                 (BG) (AU) (BU) (BG) (AU) (BG) (AG) (BU) (AG) (BU)
                 (AU) (BG) (AG) (BU) (AU) (BU) (AG) (AG) (BG) (AU)
                 (BU) (AG) (AU) (BU) (BU) (BG) (AU) (BG) (BG) (AG)
                 (AU) (BU) (AG) (BG) (BU) (AG) (AG) (AG) (BG) (AG)
                 (BU) (AU) (AU) (BU) (BG) (AG) (AG) (AU) (BU) (BG)
                 (BU) (AG) (AU) (BG) (BU) (AU) (BU) (AG) (AG) (BG)
                 (BU) (AG) (BG) (AU) (BG) (BU) (AG) (AU) (BG) (BU)
                 (AG) (AU) (BG) (BU) (AG) (BU) (AG) (AG) (AU) (BG)
                 (BG) (AG) (BU) (AU) (BU) (AU) (BG) (BG) (AG) (BG)
                 (AU) (BG) (BU) (AG) (BG) (AU) (BU) (AU) (BU) (AG)
                 (BU) (AG) (AG) (BU) (AU) (AG) (BG) (BG) (BU) (AU)
                 (AG) (AU) (BU) (AG) (BG) (AU) (AG) (BG) (BU) (AG)
                 (AU) (BG) (BU) (AU) (BU) (BU) (BU) (AG) (AU) (BG)
                 (BG) (AU) (BG) (BU) (BG) (AU) (AG) (BU) (AG) (AG)
                 (BU) (AG) (BU) (AU) (BG) (BU) (AU) (AG) (BU) (AG)
                 (BG) (AG) (AU) (AG) (BU) (BG) (BU) (AG) (AG) (AU)
                 (BU) (BG) (AG) (AU) (BU) (AU) (BG) (AU) (BG) (AU)
                 (BG) (BU) (BG) (BU) (AG) (AG) (AU) (BG) (AG) (AU)
                 (BU) (AG) (BU) (AG) (BG) (AU) (BU) (AG) (BU) (AU)
                 (AG) (BG) (BU) (AG) (BG) (AG) (BU) (BU) (AU) (BG)
                 (AU)
       Virtual   (AG) (BG) (AU) (BU) (BG) (AG) (AU) (BG) (BU) (BU)
                 (AU) (AG) (AG) (AG) (BU) (BU) (BG) (AU) (BU) (BG)
                 (AG) (AU) (AG) (BG) (BU) (AG) (BG) (AU) (BU) (AU)
                 (AG) (BG) (AG) (AU) (BU) (AG) (AG) (BU) (BU) (AG)
                 (BG) (BU) (BU) (AU) (AG) (BG) (BU) (AU) (BG) (AU)
                 (AG) (BU) (AU) (BU) (AG) (BU) (AU) (BG) (AG) (AG)
                 (BU) (BG) (AU) (AG) (BG) (BU) (AU) (BG) (AG) (BU)
                 (AU) (BG) (AG) (BG) (AU) (AG) (BU) (AU) (BG) (BU)
                 (AG) (BG) (AU) (BG) (BU) (AG) (AU) (AG) (BU) (AG)
                 (AU) (BG) (BU) (AG) (BU) (BU) (AU) (AG) (BG) (BG)
                 (BG) (AU) (AG) (BU) (AU) (AU) (BG) (AG) (BU) (BG)
                 (AU) (AU) (BG) (BU) (AU) (AG) (BG) (AG) (AU) (BG)
                 (BG) (AU) (BU) (BU) (AG) (AG) (AU) (BG) (AU) (BU)
                 (AG) (AU) (AG) (BG) (AG) (BU) (BU) (BG) (AU) (BG)
                 (BU) (AG) (BG) (AU) (BU) (BG) (AG) (AU) (AU) (BG)
                 (BU) (BG) (AG) (BU) (AU) (AG) (BG) (AU) (BU) (BU)
                 (AU) (BG) (AG) (BU) (AU) (BG) (BG) (AG) (BU) (BU)
                 (AG) (AU) (AG) (AU) (BU) (AU) (AG) (BG) (AG) (BU)
                 (BU) (AU) (AG) (BG) (AG) (BU) (BU) (AG) (BG) (AG)
                 (AU) (BU) (BU) (AG) (AU) (AG) (BG) (AG) (AG) (BU)
                 (AU) (BU) (AG) (AU) (BG) (AG) (AU) (BU) (BU) (BG)
                 (BU) (BG) (AG) (BG) (AG) (BU) (AU) (AU) (AG) (AU)
                 (BU) (AG) (BG) (AG) (BG) (BU) (BU) (AG) (AU) (AU)
                 (BG) (BU) (AU) (BG) (BU) (AG) (AU) (BG) (AU) (AG)
                 (BG) (BU) (AG) (AG) (AU) (BG) (BU) (BU) (BG) (AU)
                 (BU) (BG) (AG) (AG) (AU) (BG) (AG) (BU) (BU) (AG)
                 (AU) (BU) (BG) (AG) (BU) (BG) (BG) (AU) (BU) (AU)
                 (AG) (BG) (AU) (AG) (BU) (AU) (BG) (AG) (AU) (BG)
                 (BU) (AG) (BU) (AG) (BG) (AU) (BU) (AG) (BG) (AU)
                 (BU) (BG) (BU) (AU) (AG) (BG) (BU) (AU) (AU) (AG)
                 (BG) (BU) (AG) (BG) (AU) (AU) (BU) (BG) (BU) (AG)
                 (AG) (AU) (BU) (BG) (AU) (BG) (BU) (AG) (AG) (BG)
                 (BU) (AU) (AG) (AU) (BG) (AG) (BU) (BG) (AU) (BU)
                 (BG) (BG) (AU) (AG) (BU) (AU) (BG) (AU) (BG) (BU)
                 (AG) (BU) (AG) (AU) (BG) (AG) (BU) (AU) (BG) (AU)
                 (BU) (BG) (AU) (BU) (BU) (AU) (AG) (BG) (AG) (AG)
                 (BG) (AU) (BG) (AU) (BU) (BG) (AG) (AG) (AU) (BU)
                 (BU) (AG) (BG) (AU) (BU) (BG) (BG) (BU) (BU) (AG)
                 (AU) (BG) (AU) (AG) (BG) (AG) (AU) (AU) (BU) (BG)
                 (AG) (BU) (BU) (AU) (AG) (BG) (AG) (BG) (BU) (AU)
                 (AG) (AU) (BU) (BG) (AG) (BG) (AG) (AU) (BU) (BU)
                 (AU) (BG) (AG) (BU) (BG) (AU) (AG) (AU) (BG) (AG)
                 (BU) (AU) (BG) (AU) (BG) (BU) (BU) (AG) (BU) (AG)
                 (BG) (AU) (BU) (AG) (AU) (BG) (BU) (AG) (AU) (AG)
                 (BU) (AU) (BG) (AG) (BU) (BG) (AG) (AU) (BG) (AU)
                 (AG) (BU) (BG) (AG) (BU) (BG) (AU) (AG) (BU) (BG)
                 (AU) (AU) (BG) (AG) (BU) (AG) (AU) (AU) (BG) (BU)
                 (BG) (BU) (AU) (AG) (AG) (BG) (BU) (AU) (AU) (AG)
                 (BU) (BG) (BG) (BU) (AU) (AG) (AG) (AG) (BG) (BU)
                 (AU) (BU) (BU) (AG) (BG) (AU) (BG) (BU) (AU) (BG)
                 (BU) (AG) (AU) (BG) (BG) (AU) (AG) (AU) (BG) (AG)
                 (BU) (BG) (AU) (BU) (BG) (BU) (AU) (AG) (BG) (BU)
                 (AU) (BG) (AU) (AG) (AG) (AU) (BG) (BU) (BG) (AG)
                 (AG) (AU) (BU) (AG) (AU) (BU) (BU) (AU) (BG) (BU)
                 (AG) (BG) (AU) (AG) (BG) (AU) (AG) (BU) (BU) (AG)
                 (BG) (AU) (BU) (AG) (BG) (AG) (AU) (BU) (BG) (AG)
                 (BG) (AU) (AU) (BU) (BG) (BU) (BU) (AU) (AG) (BG)
                 (AU) (AG) (BG) (AG) (AU) (AU) (BG) (BU) (AU) (BG)
                 (BG) (AU) (BU) (BU) (AG) (BG) (AG) (BG) (AU) (AG)
                 (BU) (AU) (BG) (BU) (AG) (BG) (AU) (BU) (BU) (AG)
                 (BG) (BG) (AU) (AG) (BU) (BG) (BU) (AG) (BG) (AU)
                 (AG) (BU) (AU) (AG) (BU) (AG) (AG) (AG) (AU) (BU)
                 (AU) (BU) (AU) (BU) (BG) (BG) (AU) (AG) (BU) (AG)
                 (AU) (BG) (BU) (BG) (AU) (BU) (AU) (AG) (AG) (BG)
                 (BG) (BG) (BU) (AU) (AG) (BU) (AG) (BG) (BU) (BG)
                 (BU) (AG) (AU) (AG) (BU) (AU) (AU) (BG) (BU) (AU)
                 (BU) (AG) (BG) (BU) (AG) (BG) (AG) (AU) (BU) (BG)
                 (BU) (BG) (AU) (AG) (BG) (AG) (AU) (BG) (BU) (BG)
                 (AG) (AU) (AU) (BG) (BU) (AG) (BU) (AG) (AU) (AG)
                 (BU) (BG) (AU) (BU) (AG) (BG) (AU) (BU) (AG) (BG)
                 (BU) (BU) (AG) (AU) (AG) (BU) (AG) (AU) (BG) (BG)
                 (AG) (BU) (AG) (BU) (AG) (BU) (AU) (BG) (AU) (AG)
                 (BU) (AG) (AG) (AU) (BU) (AG) (BU) (AG) (BU) (BG)
                 (BU) (BG) (AU) (AG) (BG) (BU) (BU) (BU) (AU) (AG)
                 (BG) (BU) (BG) (AG) (AG) (BU) (AU) (BG) (AG) (BG)
                 (AU) (BU) (BU) (AG) (AU) (BU) (BG) (AU) (AG) (AU)
                 (BG) (BU) (AG) (AU) (AG) (BG) (AG) (BG) (BU) (BG)
                 (BU) (AG) (AU) (BU) (BG) (AU) (AG) (AU) (AG) (BG)
                 (AG) (AU) (AU) (BG) (BU) (BG) (BU) (AU) (AU) (BG)
                 (AG) (AU) (AG) (BU) (BG) (AG) (BU) (BG) (AU) (AG)
                 (BG) (BU) (BU) (AG) (BU) (AU) (AG) (BG) (AG) (BG)
                 (BU) (AU) (AU) (AU) (AG) (BG) (AG) (BU) (AU) (AU)
                 (BG) (BG) (BU) (AU) (BG) (AG) (BG) (BU) (AU) (BG)
                 (AG) (BU) (BG) (AU) (BU) (BG) (AG) (BU) (BU) (AU)
                 (BG) (AG) (BU) (AU) (BU) (AG) (AG) (AU) (BG) (BG)
                 (BU) (AG) (BU) (AU) (BU) (BG) (AU) (BU) (BG) (AG)
                 (BU) (AU) (BG) (AU) (AG) (AU) (AG) (BG) (BU) (AG)
                 (AU) (BG) (BG) (AU) (BU) (AG) (BG) (AU) (BG) (BU)
                 (AG) (AU) (AU) (AG) (BU) (AG) (AG) (BU) (AU) (BU)
                 (AG) (AG) (BU) (AU) (AG) (AG) (BU) (BG) (AU) (BG)
                 (BU) (AG) (BG) (BU) (BG) (BU) (AG) (AG) (BU) (AU)
                 (AG) (BU) (AU) (BG) (AU) (BG) (BU) (AG) (BG) (AU)
                 (AG) (AG) (AG) (AU) (BG) (AU) (BG) (AU) (BU) (BG)
                 (AG) (AG) (BG) (BU) (AU) (BU) (AG) (BG) (AU) (BU)
                 (BU) (AU) (BG) (AG) (BU) (AG) (BG) (AU) (BU) (AU)
                 (BG) (AG) (BU) (BG) (AU) (AU) (BU) (AG) (BG) (AU)
                 (AG) (BU) (BU) (AG) (BG) (AU) (AG) (BG) (BU) (AU)
                 (AG) (BG) (BU) (AG) (AU) (AG) (BG) (AG) (BU) (BU)
                 (AU) (BG) (BU) (AG) (AU) (BG) (AG) (BU) (BG) (BU)
                 (AU) (AU) (BU) (AG) (BG) (AG) (BU) (AG) (BG) (AU)
                 (AG) (AU) (AG) (BU) (BG) (BU) (AU) (BG) (AU) (AG)
                 (AU) (BG) (BG) (AU) (BU) (BG) (BU) (AG) (AU) (AG)
                 (BU) (AG) (BG) (BU) (AU) (AG) (BG) (AU) (BU) (BG)
                 (AG) (AU) (BU) (BG) (AU) (AG) (BG) (AU) (BU) (AG)
                 (BU) (AG) (AU) (BU) (BG) (AG) (BU) (AU) (BU) (AG)
                 (BG) (AG) (AU) (BG) (BU) (AG) (BG) (BU) (AG) (AU)
                 (AG) (BG) (BU) (BU) (AG) (AU) (BU) (BG) (AU) (BU)
                 (AG) (AG) (BU) (AU) (AG) (BU) (AU) (AG) (BG) (BU)
                 (BG) (AU) (BU) (AG) (BG) (AG) (AU) (BG) (AU) (BU)
                 (BG) (BG) (AG) (BU) (AG) (BU) (AG) (AU) (AG) (BU)
                 (AU) (BG) (BU) (AG) (AU) (AG) (BG) (AG) (BU) (BG)
                 (AU) (BU) (BG) (AU) (BU) (BG) (AG) (BU) (AG) (AU)
                 (BG) (AU) (BG) (AU) (BG) (BU) (BG) (BU) (AU) (AG)
                 (AU) (BG) (BU) (AG) (BG) (AU) (AG) (BU) (BG) (AU)
                 (AU) (BU) (AG) (BG) (AG) (BU) (AU) (BG) (AU) (BU)
                 (BG) (BU) (BG) (AG) (AG) (AU) (BU) (BG) (BG) (BU)
                 (AU) (AG) (BU) (AU) (AU) (AG) (BU) (AG) (BG) (AU)
                 (BU) (BG) (BG) (AG) (AU) (BG) (BG) (AG) (AU) (BU)
                 (AU) (AU) (BU) (BG) (AG) (AU) (BG) (AU) (BU) (AG)
                 (BU) (BG) (AU) (AG) (BG) (BG) (AU) (BU) (AG) (AG)
                 (BG) (BU) (AG) (AU) (BU) (AG) (AU) (BU) (BG) (BG)
                 (AG) (AU) (BU) (AU) (BG) (AG) (AU) (AG) (BU) (AG)
                 (AU) (AG) (BG) (BG) (BU) (BU) (AU) (BG) (AU) (AG)
                 (BU) (AG) (BG) (AU) (BG) (BU) (AU) (AG) (BU) (BU)
                 (AG) (BG) (BU) (AG) (AU) (BG) (BU) (AG) (AU) (BG)
                 (BU) (AG) (BG) (AU) (BG) (AU) (AG) (BU) (BU) (BG)
                 (BU) (AG) (AU) (AG) (BU) (BG) (BG) (BU) (AU) (AG)
                 (AG) (BG) (BU) (AG) (AU) (BU) (AG) (BG) (AU) (AU)
                 (BU) (BG) (AU) (BU) (BG) (AG) (AG) (AU) (AG) (AU)
                 (BG) (BU) (BG) (AG) (AU) (BU) (BG) (AU) (BG) (AU)
                 (AU) (BG) (BU) (AG) (AU) (BU) (AG) (BG) (BG) (AG)
                 (BG) (AU) (AU) (AG) (BG) (AU) (BU) (BU) (AG) (AU)
                 (BG) (BG) (AG) (BU) (AU) (AG) (BU) (AG) (AU) (BU)
                 (AG) (AU) (AG) (BU) (BG) (BU) (AG) (BG) (AU) (AU)
                 (BG) (AG) (AU) (BU) (BG) (BU) (AG) (AU) (AU) (BG)
                 (AG) (BG) (BU) (AU) (AU) (BG) (AU) (BG) (BG) (AU)
                 (BU) (BG) (BG) (AG) (BU) (AG) (AU) (BU) (BG) (AU)
                 (BU) (AG) (AG) (BG) (AU) (AG) (BU) (BG) (AU) (BG)
                 (BU) (AG) (AU) (BU) (BG) (AG) (AU) (BU) (AG) (AU)
                 (AG) (AG) (AU) (BG) (BU) (AG) (BU) (AU) (BU) (AG)
                 (BG) (BU) (AG) (AG) (BU) (AU) (BU) (AG) (BG) (AU)
                 (BG) (AG) (BU) (AU) (BG) (BU) (AU) (BG) (AG) (AG)
                 (AU) (BU) (AU) (BG) (AU) (BG) (AU) (BU) (BG) (AU)
                 (AG) (BU) (BU) (AU) (BG) (AG) (BG) (AG) (AG) (BU)
                 (BU) (AG) (BG) (AU) (BU) (BG) (AU) (AG) (BG) (AG)
                 (BG) (AU) (BU) (AU) (BG) (AG) (BU) (BG) (BU) (AU)
                 (AU) (BG) (AG) (BG) (AU) (AG) (AU) (BG) (BU) (BG)
                 (BU) (AU) (AG) (BG) (AU) (BU) (BG) (AU) (BG) (BU)
                 (AG) (AG) (BU) (AG) (BG) (AU) (BU) (AU) (BU) (AG)
                 (AU) (BG) (AG) (BG) (BU) (AG) (BG) (AU) (BU) (AG)
                 (BU) (AU) (AG) (BG) (AU) (BU) (AG) (AU) (BG) (BU)
                 (BG) (AU) (AU) (BG) (BG) (BU) (BG) (AU) (AG) (AU)
                 (BU) (AG) (BU) (AG) (BU) (AG) (BG) (AU) (AG) (BG)
                 (BG) (AU) (BG) (BU) (AU) (AG) (BG) (BU) (AU) (BG)
                 (AU) (BG) (BU) (AG) (AU) (BG) (BU) (AU) (AU) (BG)
                 (BG) (BU) (AG) (BU) (AU) (BG) (AU) (BU) (AG) (BU)
                 (AU) (BU) (AG) (BG) (BU) (AU) (AG) (BU) (AU) (BG)
                 (BU) (AU)
 The electronic state is 1-AG.
 Alpha  occ. eigenvalues -- -346.00175-346.00111-346.00110 -41.88236 -41.88234
 Alpha  occ. eigenvalues --  -41.88214 -36.97930 -36.97929 -36.97904 -36.97145
 Alpha  occ. eigenvalues --  -36.97144 -36.97143 -36.97143 -36.97132 -36.97132
 Alpha  occ. eigenvalues --  -14.23354 -14.23354 -14.23196 -14.23193 -14.23091
 Alpha  occ. eigenvalues --  -14.23090 -14.23087 -14.23087 -14.23073 -14.23073
 Alpha  occ. eigenvalues --  -14.22941 -14.22938 -14.22226 -14.22226 -14.22225
 Alpha  occ. eigenvalues --  -14.22225 -14.22176 -14.22176 -14.22176 -14.22176
 Alpha  occ. eigenvalues --  -14.22103 -14.22102 -14.22102 -14.22102 -10.19998
 Alpha  occ. eigenvalues --  -10.19998 -10.19986 -10.19986 -10.19947 -10.19947
 Alpha  occ. eigenvalues --  -10.19946 -10.19946 -10.19888 -10.19888 -10.19880
 Alpha  occ. eigenvalues --  -10.19878 -10.19865 -10.19865 -10.19864 -10.19864
 Alpha  occ. eigenvalues --  -10.19852 -10.19851 -10.19843 -10.19842 -10.19792
 Alpha  occ. eigenvalues --  -10.19792 -10.19781 -10.19781 -10.13367 -10.13367
 Alpha  occ. eigenvalues --  -10.13353 -10.13353 -10.13273 -10.13273 -10.13259
 Alpha  occ. eigenvalues --  -10.13259 -10.13096 -10.13096 -10.13096 -10.13096
 Alpha  occ. eigenvalues --  -10.12949 -10.12949 -10.12935 -10.12935 -10.12928
 Alpha  occ. eigenvalues --  -10.12928 -10.12918 -10.12918 -10.12916 -10.12916
 Alpha  occ. eigenvalues --  -10.12916 -10.12916 -10.12876 -10.12876 -10.12876
 Alpha  occ. eigenvalues --  -10.12876 -10.12839 -10.12839 -10.12838 -10.12838
 Alpha  occ. eigenvalues --  -10.12804 -10.12804 -10.12797 -10.12796 -10.12789
 Alpha  occ. eigenvalues --  -10.12788 -10.12788 -10.12788 -10.12745 -10.12745
 Alpha  occ. eigenvalues --  -10.12743 -10.12743 -10.12731 -10.12730 -10.12730
 Alpha  occ. eigenvalues --  -10.12730 -10.12729 -10.12729 -10.12729 -10.12729
 Alpha  occ. eigenvalues --  -10.12708 -10.12708 -10.12708 -10.12708 -10.12657
 Alpha  occ. eigenvalues --  -10.12657 -10.12639 -10.12639 -10.12622 -10.12621
 Alpha  occ. eigenvalues --  -10.12605 -10.12605 -10.12549 -10.12549 -10.12539
 Alpha  occ. eigenvalues --  -10.12539 -10.12532 -10.12532 -10.12523 -10.12523
 Alpha  occ. eigenvalues --   -4.80240  -4.80239  -4.80129  -3.24891  -3.24891
 Alpha  occ. eigenvalues --   -3.24777  -3.23589  -3.23589  -3.23581  -3.23581
 Alpha  occ. eigenvalues --   -3.23478  -3.23464  -1.14549  -1.14302  -1.13941
 Alpha  occ. eigenvalues --   -1.12968  -1.12954  -1.12827  -1.12746  -1.12628
 Alpha  occ. eigenvalues --   -1.12380  -1.10070  -1.09974  -1.09774  -1.07487
 Alpha  occ. eigenvalues --   -1.07438  -1.07280  -1.03307  -1.03270  -1.03254
 Alpha  occ. eigenvalues --   -1.03246  -1.03127  -1.03117  -1.00261  -1.00185
 Alpha  occ. eigenvalues --   -0.99989  -0.99261  -0.99259  -0.99167  -0.98987
 Alpha  occ. eigenvalues --   -0.98968  -0.98966  -0.98820  -0.98786  -0.98683
 Alpha  occ. eigenvalues --   -0.98627  -0.98570  -0.98499  -0.90696  -0.90648
 Alpha  occ. eigenvalues --   -0.90467  -0.89506  -0.89471  -0.89346  -0.89270
 Alpha  occ. eigenvalues --   -0.89169  -0.89103  -0.89051  -0.88925  -0.88874
 Alpha  occ. eigenvalues --   -0.88781  -0.88779  -0.88772  -0.88733  -0.88536
 Alpha  occ. eigenvalues --   -0.88472  -0.88464  -0.88454  -0.88351  -0.88322
 Alpha  occ. eigenvalues --   -0.88272  -0.88163  -0.84844  -0.84803  -0.84642
 Alpha  occ. eigenvalues --   -0.82155  -0.82108  -0.82101  -0.82073  -0.81991
 Alpha  occ. eigenvalues --   -0.81849  -0.76717  -0.76674  -0.76642  -0.76562
 Alpha  occ. eigenvalues --   -0.76401  -0.76313  -0.75764  -0.75711  -0.75669
 Alpha  occ. eigenvalues --   -0.75655  -0.75479  -0.75424  -0.74900  -0.74841
 Alpha  occ. eigenvalues --   -0.74741  -0.74737  -0.74645  -0.74608  -0.72284
 Alpha  occ. eigenvalues --   -0.72222  -0.72195  -0.72174  -0.72167  -0.72147
 Alpha  occ. eigenvalues --   -0.72035  -0.71980  -0.71974  -0.71009  -0.70931
 Alpha  occ. eigenvalues --   -0.70735  -0.68574  -0.68564  -0.68388  -0.67513
 Alpha  occ. eigenvalues --   -0.67512  -0.67506  -0.67505  -0.67357  -0.67347
 Alpha  occ. eigenvalues --   -0.66230  -0.66220  -0.66075  -0.65970  -0.65969
 Alpha  occ. eigenvalues --   -0.65932  -0.65919  -0.65850  -0.65814  -0.63029
 Alpha  occ. eigenvalues --   -0.62403  -0.62401  -0.62289  -0.62191  -0.62145
 Alpha  occ. eigenvalues --   -0.62127  -0.62073  -0.62047  -0.61917  -0.61865
 Alpha  occ. eigenvalues --   -0.61865  -0.61736  -0.61647  -0.61578  -0.60817
 Alpha  occ. eigenvalues --   -0.60573  -0.60431  -0.60063  -0.60038  -0.60021
 Alpha  occ. eigenvalues --   -0.60003  -0.59932  -0.59838  -0.59821  -0.59627
 Alpha  occ. eigenvalues --   -0.58876  -0.58863  -0.58829  -0.58772  -0.58702
 Alpha  occ. eigenvalues --   -0.58547  -0.58537  -0.58104  -0.57969  -0.57946
 Alpha  occ. eigenvalues --   -0.57906  -0.57700  -0.57691  -0.57675  -0.57515
 Alpha  occ. eigenvalues --   -0.57450  -0.57417  -0.57354  -0.57352  -0.57325
 Alpha  occ. eigenvalues --   -0.57295  -0.57229  -0.57228  -0.56659  -0.56592
 Alpha  occ. eigenvalues --   -0.56370  -0.56343  -0.56263  -0.55970  -0.55965
 Alpha  occ. eigenvalues --   -0.55854  -0.55740  -0.55720  -0.55645  -0.55570
 Alpha  occ. eigenvalues --   -0.55526  -0.55469  -0.55306  -0.55107  -0.54754
 Alpha  occ. eigenvalues --   -0.54749  -0.54566  -0.54560  -0.54523  -0.54460
 Alpha  occ. eigenvalues --   -0.54453  -0.54366  -0.54356  -0.53774  -0.53227
 Alpha  occ. eigenvalues --   -0.53226  -0.53100  -0.52322  -0.52169  -0.51934
 Alpha  occ. eigenvalues --   -0.51741  -0.51079  -0.51022  -0.50764  -0.50419
 Alpha  occ. eigenvalues --   -0.49952  -0.49282  -0.49197  -0.49057  -0.48398
 Alpha  occ. eigenvalues --   -0.48391  -0.48247  -0.48118  -0.48030  -0.47993
 Alpha  occ. eigenvalues --   -0.47917  -0.47913  -0.47881  -0.47859  -0.47796
 Alpha  occ. eigenvalues --   -0.47605  -0.47255  -0.47245  -0.47216  -0.47207
 Alpha  occ. eigenvalues --   -0.47157  -0.47134  -0.47119  -0.47003  -0.46974
 Alpha  occ. eigenvalues --   -0.46960  -0.46912  -0.46466  -0.46445  -0.46247
 Alpha  occ. eigenvalues --   -0.45870  -0.45322  -0.45316  -0.45201  -0.45174
 Alpha  occ. eigenvalues --   -0.45097  -0.45001  -0.44983  -0.44970  -0.44920
 Alpha  occ. eigenvalues --   -0.43726  -0.43327  -0.43174  -0.43089  -0.43078
 Alpha  occ. eigenvalues --   -0.42930  -0.41766  -0.41682  -0.41557  -0.39173
 Alpha  occ. eigenvalues --   -0.39037  -0.39013  -0.38979  -0.38953  -0.38857
 Alpha  occ. eigenvalues --   -0.38564  -0.38063  -0.37660  -0.37242  -0.37225
 Alpha  occ. eigenvalues --   -0.37116  -0.36775  -0.36405  -0.36377  -0.36214
 Alpha  occ. eigenvalues --   -0.36099  -0.35876  -0.35809  -0.35604  -0.35356
 Alpha  occ. eigenvalues --   -0.35331  -0.35288  -0.35259  -0.35188  -0.35159
 Alpha  occ. eigenvalues --   -0.34920  -0.34891  -0.34834  -0.34696  -0.34650
 Alpha  occ. eigenvalues --   -0.34603  -0.34529  -0.34452  -0.33692  -0.33409
 Alpha  occ. eigenvalues --   -0.33404  -0.32997  -0.32859  -0.24131  -0.23324
 Alpha  occ. eigenvalues --   -0.22637
 Alpha virt. eigenvalues --   -0.06484  -0.05611  -0.05158  -0.05140  -0.04833
 Alpha virt. eigenvalues --   -0.03699   0.02983   0.03794   0.04416   0.04575
 Alpha virt. eigenvalues --    0.04607   0.04714   0.05446   0.05661   0.05740
 Alpha virt. eigenvalues --    0.05894   0.05948   0.06121   0.06179   0.06404
 Alpha virt. eigenvalues --    0.06493   0.10208   0.10517   0.10611   0.10855
 Alpha virt. eigenvalues --    0.11038   0.11341   0.11634   0.11765   0.12363
 Alpha virt. eigenvalues --    0.12416   0.12485   0.13084   0.13441   0.13662
 Alpha virt. eigenvalues --    0.13975   0.14240   0.14332   0.14678   0.14686
 Alpha virt. eigenvalues --    0.14839   0.14887   0.14910   0.14985   0.15283
 Alpha virt. eigenvalues --    0.15377   0.15610   0.15864   0.15957   0.16435
 Alpha virt. eigenvalues --    0.16677   0.16732   0.16790   0.16921   0.17174
 Alpha virt. eigenvalues --    0.17359   0.17459   0.17593   0.17726   0.18478
 Alpha virt. eigenvalues --    0.18948   0.19060   0.19328   0.19389   0.19677
 Alpha virt. eigenvalues --    0.19794   0.20362   0.20503   0.20785   0.20810
 Alpha virt. eigenvalues --    0.21351   0.21426   0.21602   0.21673   0.21833
 Alpha virt. eigenvalues --    0.21947   0.22027   0.22072   0.22333   0.22509
 Alpha virt. eigenvalues --    0.22628   0.22669   0.23143   0.23215   0.23417
 Alpha virt. eigenvalues --    0.23423   0.23492   0.24325   0.24582   0.24908
 Alpha virt. eigenvalues --    0.25089   0.25229   0.25259   0.25275   0.25412
 Alpha virt. eigenvalues --    0.25574   0.25643   0.25784   0.25966   0.26234
 Alpha virt. eigenvalues --    0.26301   0.26343   0.26538   0.27388   0.28098
 Alpha virt. eigenvalues --    0.28288   0.28376   0.28545   0.28547   0.28578
 Alpha virt. eigenvalues --    0.28925   0.29152   0.29153   0.29276   0.29502
 Alpha virt. eigenvalues --    0.29925   0.29937   0.30084   0.30141   0.30387
 Alpha virt. eigenvalues --    0.30982   0.31111   0.31192   0.31500   0.31513
 Alpha virt. eigenvalues --    0.31877   0.31904   0.32020   0.32486   0.32500
 Alpha virt. eigenvalues --    0.32516   0.33017   0.33073   0.33195   0.33771
 Alpha virt. eigenvalues --    0.33822   0.34003   0.34258   0.34760   0.34791
 Alpha virt. eigenvalues --    0.34866   0.34905   0.35033   0.35121   0.35219
 Alpha virt. eigenvalues --    0.35387   0.35393   0.35547   0.35857   0.35895
 Alpha virt. eigenvalues --    0.35985   0.36229   0.36238   0.36340   0.36425
 Alpha virt. eigenvalues --    0.36616   0.36733   0.36744   0.36777   0.36832
 Alpha virt. eigenvalues --    0.37031   0.37127   0.37243   0.37475   0.37576
 Alpha virt. eigenvalues --    0.37704   0.37771   0.37857   0.37860   0.38188
 Alpha virt. eigenvalues --    0.38195   0.38233   0.38410   0.38549   0.38855
 Alpha virt. eigenvalues --    0.38886   0.39024   0.39171   0.39264   0.39387
 Alpha virt. eigenvalues --    0.39517   0.39636   0.39831   0.39958   0.40015
 Alpha virt. eigenvalues --    0.40033   0.40411   0.40569   0.40948   0.41117
 Alpha virt. eigenvalues --    0.41317   0.41483   0.41748   0.41763   0.41891
 Alpha virt. eigenvalues --    0.42116   0.42361   0.42493   0.42649   0.42690
 Alpha virt. eigenvalues --    0.42851   0.42958   0.43118   0.43267   0.43317
 Alpha virt. eigenvalues --    0.43327   0.43446   0.43664   0.43788   0.44270
 Alpha virt. eigenvalues --    0.44462   0.44555   0.44606   0.44947   0.45164
 Alpha virt. eigenvalues --    0.45333   0.45408   0.45723   0.45798   0.46127
 Alpha virt. eigenvalues --    0.46139   0.46320   0.46412   0.46647   0.46707
 Alpha virt. eigenvalues --    0.46718   0.47066   0.47081   0.47333   0.47364
 Alpha virt. eigenvalues --    0.47607   0.47717   0.47846   0.47850   0.48042
 Alpha virt. eigenvalues --    0.48111   0.48141   0.48501   0.48581   0.48692
 Alpha virt. eigenvalues --    0.49009   0.49305   0.49417   0.49748   0.49887
 Alpha virt. eigenvalues --    0.49947   0.49980   0.50149   0.50329   0.50414
 Alpha virt. eigenvalues --    0.50484   0.50854   0.51007   0.51347   0.51478
 Alpha virt. eigenvalues --    0.51809   0.51961   0.52029   0.52683   0.52750
 Alpha virt. eigenvalues --    0.52826   0.52923   0.52990   0.53177   0.53554
 Alpha virt. eigenvalues --    0.53608   0.53679   0.53990   0.54088   0.54210
 Alpha virt. eigenvalues --    0.54277   0.54320   0.54334   0.54706   0.54893
 Alpha virt. eigenvalues --    0.54899   0.55023   0.55038   0.55357   0.55427
 Alpha virt. eigenvalues --    0.55536   0.55630   0.55872   0.56056   0.56111
 Alpha virt. eigenvalues --    0.56159   0.56160   0.56375   0.56478   0.56498
 Alpha virt. eigenvalues --    0.56752   0.56886   0.56945   0.57074   0.57231
 Alpha virt. eigenvalues --    0.57385   0.57517   0.57775   0.58165   0.58221
 Alpha virt. eigenvalues --    0.58249   0.58592   0.58627   0.58821   0.58895
 Alpha virt. eigenvalues --    0.59252   0.59413   0.59596   0.59672   0.59833
 Alpha virt. eigenvalues --    0.60012   0.60069   0.60118   0.60498   0.60582
 Alpha virt. eigenvalues --    0.60770   0.60772   0.60788   0.60924   0.61016
 Alpha virt. eigenvalues --    0.61159   0.61298   0.61405   0.61607   0.61768
 Alpha virt. eigenvalues --    0.62001   0.62090   0.62125   0.62132   0.62295
 Alpha virt. eigenvalues --    0.62417   0.62573   0.62689   0.62715   0.62745
 Alpha virt. eigenvalues --    0.63228   0.63308   0.63358   0.63405   0.63551
 Alpha virt. eigenvalues --    0.63717   0.63932   0.64283   0.64689   0.64898
 Alpha virt. eigenvalues --    0.65578   0.65681   0.65774   0.65862   0.65875
 Alpha virt. eigenvalues --    0.66241   0.66247   0.66415   0.66572   0.66901
 Alpha virt. eigenvalues --    0.66902   0.66939   0.67011   0.67150   0.67366
 Alpha virt. eigenvalues --    0.67713   0.68108   0.68361   0.69065   0.69121
 Alpha virt. eigenvalues --    0.69575   0.69655   0.69869   0.69873   0.69906
 Alpha virt. eigenvalues --    0.70612   0.70713   0.70830   0.71108   0.71376
 Alpha virt. eigenvalues --    0.71386   0.71542   0.72089   0.72213   0.72245
 Alpha virt. eigenvalues --    0.72378   0.72951   0.72999   0.73122   0.73197
 Alpha virt. eigenvalues --    0.73298   0.73363   0.73651   0.73754   0.73826
 Alpha virt. eigenvalues --    0.73900   0.74079   0.74125   0.74128   0.74338
 Alpha virt. eigenvalues --    0.74859   0.74863   0.74972   0.74981   0.75156
 Alpha virt. eigenvalues --    0.75316   0.75423   0.75488   0.75825   0.75903
 Alpha virt. eigenvalues --    0.75933   0.76191   0.76223   0.76287   0.76392
 Alpha virt. eigenvalues --    0.76529   0.76678   0.76863   0.77070   0.77165
 Alpha virt. eigenvalues --    0.77235   0.77298   0.77356   0.77382   0.77422
 Alpha virt. eigenvalues --    0.77512   0.77556   0.77863   0.77923   0.77940
 Alpha virt. eigenvalues --    0.77966   0.78158   0.78328   0.78346   0.78361
 Alpha virt. eigenvalues --    0.78522   0.78594   0.78762   0.78944   0.79053
 Alpha virt. eigenvalues --    0.79159   0.79220   0.79397   0.79406   0.79477
 Alpha virt. eigenvalues --    0.79719   0.79731   0.79782   0.80135   0.80262
 Alpha virt. eigenvalues --    0.80331   0.80412   0.80588   0.80626   0.80683
 Alpha virt. eigenvalues --    0.80716   0.80746   0.80814   0.81347   0.81391
 Alpha virt. eigenvalues --    0.81527   0.81677   0.81920   0.82038   0.82055
 Alpha virt. eigenvalues --    0.82259   0.82379   0.82550   0.82597   0.82626
 Alpha virt. eigenvalues --    0.82752   0.82877   0.82997   0.83036   0.83043
 Alpha virt. eigenvalues --    0.83257   0.83445   0.83723   0.83728   0.83999
 Alpha virt. eigenvalues --    0.84188   0.84326   0.84362   0.84497   0.84540
 Alpha virt. eigenvalues --    0.84676   0.84693   0.85079   0.85127   0.85170
 Alpha virt. eigenvalues --    0.85348   0.85618   0.86038   0.86176   0.86181
 Alpha virt. eigenvalues --    0.86298   0.86490   0.86654   0.86762   0.86826
 Alpha virt. eigenvalues --    0.86975   0.87049   0.87102   0.87377   0.87424
 Alpha virt. eigenvalues --    0.87569   0.87816   0.87925   0.88042   0.88134
 Alpha virt. eigenvalues --    0.88168   0.88281   0.88469   0.88659   0.88733
 Alpha virt. eigenvalues --    0.88914   0.88929   0.89057   0.89060   0.89265
 Alpha virt. eigenvalues --    0.89475   0.89508   0.89680   0.89753   0.90019
 Alpha virt. eigenvalues --    0.90235   0.90308   0.90440   0.90631   0.90940
 Alpha virt. eigenvalues --    0.90976   0.91287   0.91364   0.91726   0.91787
 Alpha virt. eigenvalues --    0.92033   0.92142   0.92181   0.92736   0.93178
 Alpha virt. eigenvalues --    0.93356   0.93598   0.93613   0.93696   0.93739
 Alpha virt. eigenvalues --    0.93779   0.93821   0.94068   0.94543   0.94609
 Alpha virt. eigenvalues --    0.94678   0.95010   0.95449   0.95564   0.96108
 Alpha virt. eigenvalues --    0.96158   0.96292   0.96561   0.97064   0.97171
 Alpha virt. eigenvalues --    0.97462   0.97826   0.98239   0.98622   0.98842
 Alpha virt. eigenvalues --    0.99140   0.99214   0.99464   0.99564   0.99737
 Alpha virt. eigenvalues --    1.00033   1.00612   1.00653   1.00943   1.01036
 Alpha virt. eigenvalues --    1.01241   1.01559   1.01713   1.01885   1.02093
 Alpha virt. eigenvalues --    1.02400   1.02440   1.02827   1.03094   1.03125
 Alpha virt. eigenvalues --    1.03271   1.03283   1.03327   1.03337   1.03403
 Alpha virt. eigenvalues --    1.03910   1.04140   1.04320   1.04526   1.04930
 Alpha virt. eigenvalues --    1.05026   1.05071   1.05130   1.05402   1.05677
 Alpha virt. eigenvalues --    1.05905   1.06210   1.06237   1.06477   1.06881
 Alpha virt. eigenvalues --    1.07099   1.07392   1.07393   1.07609   1.07829
 Alpha virt. eigenvalues --    1.08133   1.08243   1.08748   1.08867   1.08924
 Alpha virt. eigenvalues --    1.08951   1.09438   1.09663   1.10193   1.10368
 Alpha virt. eigenvalues --    1.10664   1.10756   1.10860   1.10910   1.11197
 Alpha virt. eigenvalues --    1.11394   1.11540   1.11837   1.12100   1.12170
 Alpha virt. eigenvalues --    1.12684   1.12806   1.13165   1.13556   1.13902
 Alpha virt. eigenvalues --    1.14521   1.14533   1.14557   1.14944   1.15076
 Alpha virt. eigenvalues --    1.15286   1.15466   1.15672   1.16020   1.16102
 Alpha virt. eigenvalues --    1.16316   1.16827   1.16843   1.17318   1.17770
 Alpha virt. eigenvalues --    1.17884   1.18582   1.18805   1.18862   1.19289
 Alpha virt. eigenvalues --    1.19322   1.19418   1.19492   1.20129   1.20160
 Alpha virt. eigenvalues --    1.20344   1.21354   1.21764   1.21916   1.22001
 Alpha virt. eigenvalues --    1.22362   1.22472   1.23248   1.23356   1.23379
 Alpha virt. eigenvalues --    1.23862   1.24722   1.24828   1.24887   1.25114
 Alpha virt. eigenvalues --    1.25152   1.25637   1.25974   1.26023   1.26461
 Alpha virt. eigenvalues --    1.26682   1.27232   1.27649   1.27949   1.28191
 Alpha virt. eigenvalues --    1.28394   1.28493   1.29208   1.29223   1.29399
 Alpha virt. eigenvalues --    1.29897   1.30331   1.30574   1.31013   1.31275
 Alpha virt. eigenvalues --    1.31793   1.31885   1.31929   1.32476   1.32696
 Alpha virt. eigenvalues --    1.32758   1.32852   1.33235   1.33422   1.33488
 Alpha virt. eigenvalues --    1.33517   1.33563   1.33717   1.33910   1.34139
 Alpha virt. eigenvalues --    1.34640   1.34795   1.34993   1.35180   1.35251
 Alpha virt. eigenvalues --    1.35257   1.35294   1.35582   1.35814   1.36036
 Alpha virt. eigenvalues --    1.36077   1.36172   1.36272   1.36514   1.36564
 Alpha virt. eigenvalues --    1.36624   1.36785   1.37019   1.37308   1.37350
 Alpha virt. eigenvalues --    1.37454   1.37485   1.37522   1.37639   1.37691
 Alpha virt. eigenvalues --    1.38129   1.38292   1.38585   1.38590   1.38716
 Alpha virt. eigenvalues --    1.39045   1.39092   1.39335   1.39377   1.39395
 Alpha virt. eigenvalues --    1.39461   1.39650   1.39658   1.39679   1.40174
 Alpha virt. eigenvalues --    1.40499   1.40568   1.40570   1.40729   1.40920
 Alpha virt. eigenvalues --    1.40952   1.41119   1.41460   1.41585   1.41629
 Alpha virt. eigenvalues --    1.41667   1.41790   1.42052   1.42202   1.42241
 Alpha virt. eigenvalues --    1.42252   1.42373   1.42423   1.42953   1.42977
 Alpha virt. eigenvalues --    1.43028   1.43217   1.43264   1.43369   1.43612
 Alpha virt. eigenvalues --    1.43874   1.44040   1.44129   1.44464   1.44587
 Alpha virt. eigenvalues --    1.44719   1.44878   1.45068   1.45256   1.45370
 Alpha virt. eigenvalues --    1.45380   1.45629   1.45718   1.45908   1.45968
 Alpha virt. eigenvalues --    1.46033   1.46229   1.46429   1.46688   1.46743
 Alpha virt. eigenvalues --    1.46746   1.47001   1.47195   1.47425   1.48104
 Alpha virt. eigenvalues --    1.48286   1.48340   1.48849   1.49362   1.49424
 Alpha virt. eigenvalues --    1.49556   1.49729   1.49900   1.50120   1.50439
 Alpha virt. eigenvalues --    1.50601   1.50755   1.50804   1.51167   1.51267
 Alpha virt. eigenvalues --    1.51537   1.51552   1.52116   1.52216   1.52548
 Alpha virt. eigenvalues --    1.52728   1.52897   1.52958   1.53112   1.54479
 Alpha virt. eigenvalues --    1.54906   1.55193   1.55336   1.56236   1.56546
 Alpha virt. eigenvalues --    1.56711   1.57110   1.57209   1.58348   1.58399
 Alpha virt. eigenvalues --    1.58519   1.58536   1.58921   1.59326   1.59890
 Alpha virt. eigenvalues --    1.59961   1.60324   1.60369   1.60871   1.60967
 Alpha virt. eigenvalues --    1.61107   1.61997   1.62465   1.62666   1.62769
 Alpha virt. eigenvalues --    1.63149   1.63412   1.64193   1.64320   1.64644
 Alpha virt. eigenvalues --    1.64670   1.65137   1.65294   1.65335   1.66663
 Alpha virt. eigenvalues --    1.67118   1.67500   1.67787   1.68012   1.68345
 Alpha virt. eigenvalues --    1.68612   1.68624   1.68666   1.69189   1.69615
 Alpha virt. eigenvalues --    1.70509   1.70522   1.70885   1.71454   1.72105
 Alpha virt. eigenvalues --    1.72509   1.72549   1.73366   1.73478   1.73637
 Alpha virt. eigenvalues --    1.73993   1.74447   1.74898   1.75225   1.75567
 Alpha virt. eigenvalues --    1.75635   1.75841   1.76976   1.77343   1.77569
 Alpha virt. eigenvalues --    1.78077   1.78504   1.78707   1.78755   1.78959
 Alpha virt. eigenvalues --    1.79164   1.79344   1.79409   1.79722   1.79841
 Alpha virt. eigenvalues --    1.80188   1.80197   1.80411   1.80436   1.80921
 Alpha virt. eigenvalues --    1.81068   1.81174   1.81496   1.81839   1.81913
 Alpha virt. eigenvalues --    1.82075   1.82344   1.82482   1.82862   1.82902
 Alpha virt. eigenvalues --    1.83960   1.84308   1.84373   1.84754   1.84854
 Alpha virt. eigenvalues --    1.84985   1.84986   1.85060   1.85381   1.85509
 Alpha virt. eigenvalues --    1.85666   1.85858   1.86016   1.86073   1.86174
 Alpha virt. eigenvalues --    1.86426   1.86529   1.86599   1.86845   1.87049
 Alpha virt. eigenvalues --    1.87219   1.87574   1.87580   1.87611   1.87649
 Alpha virt. eigenvalues --    1.87733   1.87928   1.88166   1.88353   1.88363
 Alpha virt. eigenvalues --    1.88506   1.88681   1.88856   1.89113   1.89122
 Alpha virt. eigenvalues --    1.89263   1.89394   1.89464   1.89551   1.89870
 Alpha virt. eigenvalues --    1.90079   1.90220   1.90368   1.90409   1.90488
 Alpha virt. eigenvalues --    1.90636   1.90662   1.90673   1.91213   1.91377
 Alpha virt. eigenvalues --    1.91454   1.91590   1.91706   1.91881   1.91883
 Alpha virt. eigenvalues --    1.91956   1.92001   1.92310   1.92377   1.92616
 Alpha virt. eigenvalues --    1.92692   1.92965   1.93063   1.93182   1.93214
 Alpha virt. eigenvalues --    1.93392   1.93693   1.93839   1.93880   1.94145
 Alpha virt. eigenvalues --    1.94260   1.94284   1.94701   1.94856   1.95377
 Alpha virt. eigenvalues --    1.95431   1.95482   1.95522   1.95924   1.95975
 Alpha virt. eigenvalues --    1.96054   1.96628   1.96695   1.96817   1.96831
 Alpha virt. eigenvalues --    1.97147   1.97248   1.97427   1.97870   1.98290
 Alpha virt. eigenvalues --    1.98876   1.99406   1.99521   1.99680   2.00310
 Alpha virt. eigenvalues --    2.00628   2.00750   2.00906   2.00999   2.01168
 Alpha virt. eigenvalues --    2.01431   2.01540   2.01940   2.02217   2.02547
 Alpha virt. eigenvalues --    2.03012   2.03026   2.03228   2.03430   2.03606
 Alpha virt. eigenvalues --    2.03704   2.03883   2.04024   2.04080   2.04576
 Alpha virt. eigenvalues --    2.04684   2.05267   2.05536   2.05642   2.06100
 Alpha virt. eigenvalues --    2.06104   2.06397   2.06453   2.06619   2.06749
 Alpha virt. eigenvalues --    2.06982   2.07218   2.07480   2.07522   2.07795
 Alpha virt. eigenvalues --    2.07812   2.08061   2.08064   2.08257   2.08424
 Alpha virt. eigenvalues --    2.08488   2.08516   2.08831   2.08919   2.09169
 Alpha virt. eigenvalues --    2.09243   2.09383   2.09504   2.09595   2.09682
 Alpha virt. eigenvalues --    2.09845   2.09932   2.10029   2.10039   2.10432
 Alpha virt. eigenvalues --    2.10487   2.10542   2.10643   2.10931   2.10963
 Alpha virt. eigenvalues --    2.10967   2.11450   2.11658   2.11737   2.11813
 Alpha virt. eigenvalues --    2.11814   2.12118   2.12120   2.12515   2.12558
 Alpha virt. eigenvalues --    2.12902   2.13131   2.13327   2.13370   2.13507
 Alpha virt. eigenvalues --    2.13641   2.13642   2.13829   2.13984   2.13988
 Alpha virt. eigenvalues --    2.14304   2.14514   2.14518   2.14862   2.14916
 Alpha virt. eigenvalues --    2.15056   2.15108   2.15198   2.15198   2.15409
 Alpha virt. eigenvalues --    2.16066   2.16130   2.16798   2.16880   2.17375
 Alpha virt. eigenvalues --    2.17765   2.18283   2.18497   2.18516   2.19200
 Alpha virt. eigenvalues --    2.19304   2.19473   2.19643   2.19671   2.19697
 Alpha virt. eigenvalues --    2.19910   2.20294   2.21171   2.22506   2.22526
 Alpha virt. eigenvalues --    2.22814   2.23133   2.23450   2.23493   2.23563
 Alpha virt. eigenvalues --    2.24085   2.24413   2.24665   2.24724   2.25559
 Alpha virt. eigenvalues --    2.25605   2.26306   2.26426   2.26484   2.27034
 Alpha virt. eigenvalues --    2.27242   2.27261   2.27435   2.27524   2.27731
 Alpha virt. eigenvalues --    2.28296   2.28396   2.28687   2.28835   2.28896
 Alpha virt. eigenvalues --    2.29011   2.29048   2.29213   2.29370   2.29440
 Alpha virt. eigenvalues --    2.29603   2.29800   2.29810   2.29872   2.30055
 Alpha virt. eigenvalues --    2.30428   2.30540   2.30982   2.31227   2.31592
 Alpha virt. eigenvalues --    2.31745   2.32116   2.32218   2.32322   2.32346
 Alpha virt. eigenvalues --    2.32783   2.32864   2.33077   2.33187   2.33660
 Alpha virt. eigenvalues --    2.33786   2.33824   2.34204   2.34389   2.34472
 Alpha virt. eigenvalues --    2.34563   2.34731   2.35107   2.35139   2.35336
 Alpha virt. eigenvalues --    2.35625   2.36229   2.36258   2.36321   2.36594
 Alpha virt. eigenvalues --    2.36733   2.37137   2.37191   2.37357   2.37517
 Alpha virt. eigenvalues --    2.37602   2.38239   2.38439   2.38509   2.38647
 Alpha virt. eigenvalues --    2.38910   2.38959   2.39222   2.39316   2.39412
 Alpha virt. eigenvalues --    2.39558   2.39580   2.39697   2.39718   2.39862
 Alpha virt. eigenvalues --    2.40122   2.40157   2.40317   2.40448   2.40945
 Alpha virt. eigenvalues --    2.41092   2.41468   2.41499   2.41549   2.41906
 Alpha virt. eigenvalues --    2.41907   2.41934   2.42301   2.42600   2.42918
 Alpha virt. eigenvalues --    2.43181   2.43423   2.43438   2.43477   2.43795
 Alpha virt. eigenvalues --    2.43819   2.44084   2.44167   2.44343   2.44431
 Alpha virt. eigenvalues --    2.44569   2.44705   2.44752   2.44930   2.45154
 Alpha virt. eigenvalues --    2.45237   2.45579   2.45659   2.45660   2.46138
 Alpha virt. eigenvalues --    2.46142   2.46606   2.46663   2.46694   2.46899
 Alpha virt. eigenvalues --    2.47001   2.47268   2.47346   2.47644   2.47715
 Alpha virt. eigenvalues --    2.48072   2.48458   2.48482   2.48792   2.49178
 Alpha virt. eigenvalues --    2.49239   2.49585   2.49773   2.49798   2.50545
 Alpha virt. eigenvalues --    2.50857   2.51165   2.51183   2.51568   2.51577
 Alpha virt. eigenvalues --    2.51723   2.52459   2.52598   2.52685   2.52781
 Alpha virt. eigenvalues --    2.52815   2.53088   2.53199   2.53543   2.53751
 Alpha virt. eigenvalues --    2.55232   2.55280   2.56462   2.57957   2.59656
 Alpha virt. eigenvalues --    2.59661   2.59979   2.60077   2.60208   2.60586
 Alpha virt. eigenvalues --    2.60702   2.60863   2.61070   2.61191   2.61209
 Alpha virt. eigenvalues --    2.61354   2.62019   2.62049   2.62131   2.62512
 Alpha virt. eigenvalues --    2.62628   2.62800   2.63418   2.64263   2.64560
 Alpha virt. eigenvalues --    2.65359   2.65382   2.66713   2.66741   2.66950
 Alpha virt. eigenvalues --    2.68505   2.69177   2.69292   2.69575   2.69734
 Alpha virt. eigenvalues --    2.69754   2.69847   2.69916   2.70535   2.71346
 Alpha virt. eigenvalues --    2.71673   2.71728   2.72128   2.72129   2.72237
 Alpha virt. eigenvalues --    2.72382   2.72399   2.72529   2.72571   2.73006
 Alpha virt. eigenvalues --    2.73140   2.73374   2.73558   2.73688   2.74568
 Alpha virt. eigenvalues --    2.74590   2.74760   2.74793   2.75019   2.75790
 Alpha virt. eigenvalues --    2.76695   2.76855   2.77047   2.77222   2.77333
 Alpha virt. eigenvalues --    2.77712   2.77836   2.77948   2.78014   2.78231
 Alpha virt. eigenvalues --    2.78284   2.78333   2.78430   2.78595   2.79157
 Alpha virt. eigenvalues --    2.79178   2.79338   2.79648   2.80092   2.80104
 Alpha virt. eigenvalues --    2.80173   2.80501   2.80717   2.80773   2.80896
 Alpha virt. eigenvalues --    2.81077   2.81460   2.81651   2.81840   2.81860
 Alpha virt. eigenvalues --    2.81963   2.82052   2.83139   2.83160   2.83259
 Alpha virt. eigenvalues --    2.83401   2.83467   2.83673   2.83887   2.83975
 Alpha virt. eigenvalues --    2.83983   2.84054   2.84100   2.84449   2.84700
 Alpha virt. eigenvalues --    2.84750   2.85112   2.85212   2.85668   2.85930
 Alpha virt. eigenvalues --    2.86089   2.86104   2.86468   2.86731   2.86962
 Alpha virt. eigenvalues --    2.87076   2.87271   2.87294   2.87767   2.87903
 Alpha virt. eigenvalues --    2.88199   2.88471   2.88522   2.88700   2.88711
 Alpha virt. eigenvalues --    2.90935   2.91667   2.92218   2.93074   2.93267
 Alpha virt. eigenvalues --    2.93440   2.95164   2.95359   2.96352   2.96597
 Alpha virt. eigenvalues --    2.97019   2.97238   2.97462   2.97684   2.97733
 Alpha virt. eigenvalues --    2.97969   2.98389   2.98441   2.98491   2.98659
 Alpha virt. eigenvalues --    2.98841   2.99108   2.99115   2.99202   2.99354
 Alpha virt. eigenvalues --    2.99513   3.00347   3.00371   3.00799   3.00850
 Alpha virt. eigenvalues --    3.00967   3.01015   3.01189   3.01400   3.02156
 Alpha virt. eigenvalues --    3.02811   3.02828   3.03098   3.03148   3.03187
 Alpha virt. eigenvalues --    3.03255   3.03437   3.03727   3.04276   3.04447
 Alpha virt. eigenvalues --    3.04910   3.05041   3.05719   3.05953   3.06096
 Alpha virt. eigenvalues --    3.06264   3.06503   3.06510   3.07374   3.08439
 Alpha virt. eigenvalues --    3.08575   3.08737   3.09287   3.10223   3.10515
 Alpha virt. eigenvalues --    3.12048   3.12102   3.12171   3.12266   3.12307
 Alpha virt. eigenvalues --    3.12461   3.12476   3.12817   3.13302   3.13526
 Alpha virt. eigenvalues --    3.13613   3.13773   3.14098   3.14315   3.15177
 Alpha virt. eigenvalues --    3.15798   3.15843   3.16096   3.16120   3.16852
 Alpha virt. eigenvalues --    3.17635   3.17667   3.18886   3.20247   3.20617
 Alpha virt. eigenvalues --    3.20774   3.23369   3.23529   3.23733   3.23742
 Alpha virt. eigenvalues --    3.23953   3.24709   3.25137   3.26271   3.26279
 Alpha virt. eigenvalues --    3.26561   3.26617   3.26772   3.27782   3.28614
 Alpha virt. eigenvalues --    3.28781   3.28943   3.29029   3.30310   3.30407
 Alpha virt. eigenvalues --    3.30501   3.30850   3.30915   3.36833   3.36938
 Alpha virt. eigenvalues --    3.36965   3.37076   3.37434   3.37719   3.37762
 Alpha virt. eigenvalues --    3.38093   3.38123   3.38380   3.39282   3.41195
 Alpha virt. eigenvalues --    3.50595   3.50813   3.50869   3.50997   3.52361
 Alpha virt. eigenvalues --    3.53094   3.57887   3.57894   3.58881   3.60753
 Alpha virt. eigenvalues --    3.60968   3.62014   3.62119   3.62258   3.63268
 Alpha virt. eigenvalues --    3.66064   3.66286   3.67282   3.67994   3.68109
 Alpha virt. eigenvalues --    3.68113   3.68240   3.68745   3.69244   3.74363
 Alpha virt. eigenvalues --    3.74365   3.74648   3.78888   3.78912   3.78914
 Alpha virt. eigenvalues --    3.79027   3.79442   3.79538   3.81271   3.81329
 Alpha virt. eigenvalues --    3.81703   6.62918   6.62927   6.63092   6.63117
 Alpha virt. eigenvalues --    6.63118   6.63262   6.63591   6.63599   6.63760
 Alpha virt. eigenvalues --    6.63855   6.63860   6.63865   6.63873   6.64065
 Alpha virt. eigenvalues --    6.64106   6.67935   6.67939   6.67943   6.67956
 Alpha virt. eigenvalues --    6.68229   6.68287
          Condensed to atoms (all electrons):
 Mulliken charges:
               1
     1  C    0.033260
     2  C    0.006585
     3  C   -0.064748
     4  C    0.108563
     5  C    0.093121
     6  C   -0.074545
     7  C   -0.071534
     8  C   -0.050669
     9  N   -0.219726
    10  N    0.093952
    11  N    0.097650
    12  H   -0.006141
    13  H   -0.004905
    14  H   -0.005149
    15  H   -0.009340
    16  C    0.031334
    17  C    0.031334
    18  C   -0.065670
    19  C    0.096057
    20  C    0.096057
    21  C   -0.065670
    22  C   -0.085492
    23  C   -0.085492
    24  N   -0.218281
    25  N    0.097650
    26  H   -0.004050
    27  H   -0.004050
    28  H   -0.006910
    29  H   -0.006910
    30  C    0.013079
    31  C    0.013079
    32  C   -0.072574
    33  C    0.104642
    34  C    0.104642
    35  C   -0.072574
    36  C   -0.050416
    37  C   -0.050416
    38  N   -0.221361
    39  N    0.093952
    40  H   -0.001890
    41  H   -0.001890
    42  H   -0.008019
    43  H   -0.008019
    44  C    0.006585
    45  C    0.033260
    46  C   -0.074545
    47  C    0.093121
    48  C    0.108563
    49  C   -0.064748
    50  C   -0.050669
    51  C   -0.071534
    52  N   -0.219726
    53  H   -0.004905
    54  H   -0.006141
    55  H   -0.009340
    56  H   -0.005149
    57  Zn   0.693341
    58  C    0.023954
    59  C    0.023954
    60  C   -0.075396
    61  C    0.116478
    62  C    0.116478
    63  C   -0.075396
    64  C   -0.078825
    65  C   -0.078825
    66  N   -0.212966
    67  N    0.105371
    68  N    0.105371
    69  H   -0.009861
    70  H   -0.009861
    71  H   -0.009570
    72  H   -0.009570
    73  C    0.028101
    74  C    0.028101
    75  C   -0.072136
    76  C    0.117907
    77  C    0.117907
    78  C   -0.072136
    79  C   -0.095609
    80  C   -0.095609
    81  N   -0.212655
    82  N    0.105371
    83  H   -0.005638
    84  H   -0.005638
    85  H   -0.010317
    86  H   -0.010317
    87  C    0.028101
    88  C    0.028101
    89  C   -0.072136
    90  C    0.117907
    91  C    0.117907
    92  C   -0.072136
    93  C   -0.095609
    94  C   -0.095609
    95  N   -0.212655
    96  N    0.105371
    97  H   -0.005638
    98  H   -0.005638
    99  H   -0.010317
   100  H   -0.010317
   101  C    0.023954
   102  C    0.023954
   103  C   -0.075396
   104  C    0.116478
   105  C    0.116478
   106  C   -0.075396
   107  C   -0.078825
   108  C   -0.078825
   109  N   -0.212966
   110  H   -0.009861
   111  H   -0.009861
   112  H   -0.009570
   113  H   -0.009570
   114  Zn   0.700149
   115  C    0.006585
   116  C    0.033260
   117  C   -0.074545
   118  C    0.093121
   119  C    0.108563
   120  C   -0.064748
   121  C   -0.050669
   122  C   -0.071534
   123  N   -0.219726
   124  N    0.097650
   125  N    0.093952
   126  H   -0.004905
   127  H   -0.006141
   128  H   -0.009340
   129  H   -0.005149
   130  C    0.013079
   131  C    0.013079
   132  C   -0.072574
   133  C    0.104642
   134  C    0.104642
   135  C   -0.072574
   136  C   -0.050416
   137  C   -0.050416
   138  N   -0.221361
   139  N    0.093952
   140  H   -0.001890
   141  H   -0.001890
   142  H   -0.008019
   143  H   -0.008019
   144  C    0.031334
   145  C    0.031334
   146  C   -0.065670
   147  C    0.096057
   148  C    0.096057
   149  C   -0.065670
   150  C   -0.085492
   151  C   -0.085492
   152  N   -0.218281
   153  N    0.097650
   154  H   -0.004050
   155  H   -0.004050
   156  H   -0.006910
   157  H   -0.006910
   158  C    0.033260
   159  C    0.006585
   160  C   -0.064748
   161  C    0.108563
   162  C    0.093121
   163  C   -0.074545
   164  C   -0.071534
   165  C   -0.050669
   166  N   -0.219726
   167  H   -0.006141
   168  H   -0.004905
   169  H   -0.005149
   170  H   -0.009340
   171  Zn   0.693341
 Sum of Mulliken charges =  -0.00000
 Mulliken charges with hydrogens summed into heavy atoms:
               1
     1  C    0.027118
     2  C    0.001681
     3  C   -0.069897
     4  C    0.108563
     5  C    0.093121
     6  C   -0.083885
     7  C   -0.071534
     8  C   -0.050669
     9  N   -0.219726
    10  N    0.093952
    11  N    0.097650
    16  C    0.027284
    17  C    0.027284
    18  C   -0.072580
    19  C    0.096057
    20  C    0.096057
    21  C   -0.072580
    22  C   -0.085492
    23  C   -0.085492
    24  N   -0.218281
    25  N    0.097650
    30  C    0.011189
    31  C    0.011189
    32  C   -0.080593
    33  C    0.104642
    34  C    0.104642
    35  C   -0.080593
    36  C   -0.050416
    37  C   -0.050416
    38  N   -0.221361
    39  N    0.093952
    44  C    0.001681
    45  C    0.027118
    46  C   -0.083885
    47  C    0.093121
    48  C    0.108563
    49  C   -0.069897
    50  C   -0.050669
    51  C   -0.071534
    52  N   -0.219726
    57  Zn   0.693341
    58  C    0.014093
    59  C    0.014093
    60  C   -0.084966
    61  C    0.116478
    62  C    0.116478
    63  C   -0.084966
    64  C   -0.078825
    65  C   -0.078825
    66  N   -0.212966
    67  N    0.105371
    68  N    0.105371
    73  C    0.022463
    74  C    0.022463
    75  C   -0.082453
    76  C    0.117907
    77  C    0.117907
    78  C   -0.082453
    79  C   -0.095609
    80  C   -0.095609
    81  N   -0.212655
    82  N    0.105371
    87  C    0.022463
    88  C    0.022463
    89  C   -0.082453
    90  C    0.117907
    91  C    0.117907
    92  C   -0.082453
    93  C   -0.095609
    94  C   -0.095609
    95  N   -0.212655
    96  N    0.105371
   101  C    0.014093
   102  C    0.014093
   103  C   -0.084966
   104  C    0.116478
   105  C    0.116478
   106  C   -0.084966
   107  C   -0.078825
   108  C   -0.078825
   109  N   -0.212966
   114  Zn   0.700149
   115  C    0.001681
   116  C    0.027118
   117  C   -0.083885
   118  C    0.093121
   119  C    0.108563
   120  C   -0.069897
   121  C   -0.050669
   122  C   -0.071534
   123  N   -0.219726
   124  N    0.097650
   125  N    0.093952
   130  C    0.011189
   131  C    0.011189
   132  C   -0.080593
   133  C    0.104642
   134  C    0.104642
   135  C   -0.080593
   136  C   -0.050416
   137  C   -0.050416
   138  N   -0.221361
   139  N    0.093952
   144  C    0.027284
   145  C    0.027284
   146  C   -0.072580
   147  C    0.096057
   148  C    0.096057
   149  C   -0.072580
   150  C   -0.085492
   151  C   -0.085492
   152  N   -0.218281
   153  N    0.097650
   158  C    0.027118
   159  C    0.001681
   160  C   -0.069897
   161  C    0.108563
   162  C    0.093121
   163  C   -0.083885
   164  C   -0.071534
   165  C   -0.050669
   166  N   -0.219726
   171  Zn   0.693341
 Electronic spatial extent (au):  <R**2>=          97305.9601
 Charge=             -0.0000 electrons
 Dipole moment (field-independent basis, Debye):
    X=              0.0000    Y=              0.0000    Z=             -0.0000  Tot=              0.0000
 Quadrupole moment (field-independent basis, Debye-Ang):
   XX=           -739.5186   YY=           -637.2268   ZZ=           -638.6154
   XY=             -1.7231   XZ=              0.0000   YZ=              0.0000
 Traceless Quadrupole moment (field-independent basis, Debye-Ang):
   XX=            -67.7317   YY=             34.5602   ZZ=             33.1715
   XY=             -1.7231   XZ=              0.0000   YZ=              0.0000
 Octapole moment (field-independent basis, Debye-Ang**2):
  XXX=              0.0000  YYY=             -0.0000  ZZZ=              0.0000  XYY=             -0.0000
  XXY=              0.0000  XXZ=             -0.0000  XZZ=             -0.0000  YZZ=             -0.0000
  YYZ=             -0.0000  XYZ=             -0.0000
 Hexadecapole moment (field-independent basis, Debye-Ang**3):
 XXXX=         -32889.0595 YYYY=         -50869.4497 ZZZZ=         -40765.0057 XXXY=          -9742.2475
 XXXZ=              0.0000 YYYX=          -8489.2074 YYYZ=              0.0000 ZZZX=              0.0000
 ZZZY=              0.0000 XXYY=         -15130.2934 XXZZ=         -13184.3076 YYZZ=         -16268.2310
 XXYZ=              0.0000 YYXZ=              0.0000 ZZXY=          -2866.7978
 N-N= 3.491690360691D+04 E-N=-9.418875360422D+04  KE= 1.026336187652D+04
 Symmetry AG   KE= 4.018543928132D+03
 Symmetry BG   KE= 1.409105382697D+03
 Symmetry AU   KE= 1.612699369183D+03
 Symmetry BU   KE= 3.223013196509D+03
 Leave Link  601 at Wed Oct 22 07:14:35 2025, MaxMem=  2147483648 cpu:       150.7
 (Enter /opt/g09/l9999.exe)

 Test job not archived.
 1\1\ WCSS.PL-BEM-CMOKC406W\SP\RLC-BLYP\def2SVP\C96H48N24Zn3\SERGEY\22-
 Oct-2025\0\\#p lc-blyp/def2svp iop(3/107=0400000000,3/108=0400000000)\
 \ZnPc dimer, monomer geom b3pw/631dp\\0,1\C,0,0.70282505,6.55507353,0.
 \C,0,-0.70282505,6.55507353,0.\C,0,1.42385811,5.3647644,0.\C,0,0.70355
 705,4.17204132,0.\C,0,-0.70355705,4.17204132,0.\C,0,-1.42385811,5.3647
 644,0.\C,0,1.11636308,2.77432121,0.\C,0,-1.11636308,2.77432121,0.\N,0,
 0.,1.98231715,0.\N,0,-2.38508318,2.38508318,0.\N,0,2.38508318,2.385083
 18,0.\H,0,1.23253009,7.5037036,0.\H,0,-1.23253009,7.5037036,0.\H,0,2.5
 0917419,5.35528741,0.\H,0,-2.50917419,5.35528741,0.\C,0,6.55507353,-0.
 70282505,0.\C,0,6.55507353,0.70282505,0.\C,0,5.3647644,-1.42385811,0.\
 C,0,4.17204132,-0.70355705,0.\C,0,4.17204132,0.70355705,0.\C,0,5.36476
 44,1.42385811,0.\C,0,2.77432121,-1.11636308,0.\C,0,2.77432121,1.116363
 08,0.\N,0,1.98231715,0.,0.\N,0,2.38508318,-2.38508318,0.\H,0,7.5037036
 ,-1.23253009,0.\H,0,7.5037036,1.23253009,0.\H,0,5.35528741,-2.50917419
 ,0.\H,0,5.35528741,2.50917419,0.\C,0,-6.55507353,0.70282505,0.\C,0,-6.
 55507353,-0.70282505,0.\C,0,-5.3647644,1.42385811,0.\C,0,-4.17204132,0
 .70355705,0.\C,0,-4.17204132,-0.70355705,0.\C,0,-5.3647644,-1.42385811
 ,0.\C,0,-2.77432121,1.11636308,0.\C,0,-2.77432121,-1.11636308,0.\N,0,-
 1.98231715,0.,0.\N,0,-2.38508318,-2.38508318,0.\H,0,-7.5037036,1.23253
 009,0.\H,0,-7.5037036,-1.23253009,0.\H,0,-5.35528741,2.50917419,0.\H,0
 ,-5.35528741,-2.50917419,0.\C,0,-0.70282505,-6.55507353,0.\C,0,0.70282
 505,-6.55507353,0.\C,0,-1.42385811,-5.3647644,0.\C,0,-0.70355705,-4.17
 204132,0.\C,0,0.70355705,-4.17204132,0.\C,0,1.42385811,-5.3647644,0.\C
 ,0,-1.11636308,-2.77432121,0.\C,0,1.11636308,-2.77432121,0.\N,0,0.,-1.
 98231715,0.\H,0,-1.23253009,-7.5037036,0.\H,0,1.23253009,-7.5037036,0.
 \H,0,-2.50917419,-5.35528741,0.\H,0,2.50917419,-5.35528741,0.\Zn,0,0.,
 0.,0.\C,0,2.70282505,6.55507353,3.3\C,0,1.29717495,6.55507353,3.3\C,0,
 3.42385811,5.3647644,3.3\C,0,2.70355705,4.17204132,3.3\C,0,1.29644295,
 4.17204132,3.3\C,0,0.57614189,5.3647644,3.3\C,0,3.11636308,2.77432121,
 3.3\C,0,0.88363692,2.77432121,3.3\N,0,2.,1.98231715,3.3\N,0,-0.3850831
 8,2.38508318,3.3\N,0,4.38508318,2.38508318,3.3\H,0,3.23253009,7.503703
 6,3.3\H,0,0.76746991,7.5037036,3.3\H,0,4.50917419,5.35528741,3.3\H,0,-
 0.50917419,5.35528741,3.3\C,0,8.55507353,-0.70282505,3.3\C,0,8.5550735
 3,0.70282505,3.3\C,0,7.3647644,-1.42385811,3.3\C,0,6.17204132,-0.70355
 705,3.3\C,0,6.17204132,0.70355705,3.3\C,0,7.3647644,1.42385811,3.3\C,0
 ,4.77432121,-1.11636308,3.3\C,0,4.77432121,1.11636308,3.3\N,0,3.982317
 15,0.,3.3\N,0,4.38508318,-2.38508318,3.3\H,0,9.5037036,-1.23253009,3.3
 \H,0,9.5037036,1.23253009,3.3\H,0,7.35528741,-2.50917419,3.3\H,0,7.355
 28741,2.50917419,3.3\C,0,-4.55507353,0.70282505,3.3\C,0,-4.55507353,-0
 .70282505,3.3\C,0,-3.3647644,1.42385811,3.3\C,0,-2.17204132,0.70355705
 ,3.3\C,0,-2.17204132,-0.70355705,3.3\C,0,-3.3647644,-1.42385811,3.3\C,
 0,-0.77432121,1.11636308,3.3\C,0,-0.77432121,-1.11636308,3.3\N,0,0.017
 68285,0.,3.3\N,0,-0.38508318,-2.38508318,3.3\H,0,-5.5037036,1.23253009
 ,3.3\H,0,-5.5037036,-1.23253009,3.3\H,0,-3.35528741,2.50917419,3.3\H,0
 ,-3.35528741,-2.50917419,3.3\C,0,1.29717495,-6.55507353,3.3\C,0,2.7028
 2505,-6.55507353,3.3\C,0,0.57614189,-5.3647644,3.3\C,0,1.29644295,-4.1
 7204132,3.3\C,0,2.70355705,-4.17204132,3.3\C,0,3.42385811,-5.3647644,3
 .3\C,0,0.88363692,-2.77432121,3.3\C,0,3.11636308,-2.77432121,3.3\N,0,2
 .,-1.98231715,3.3\H,0,0.76746991,-7.5037036,3.3\H,0,3.23253009,-7.5037
 036,3.3\H,0,-0.50917419,-5.35528741,3.3\H,0,4.50917419,-5.35528741,3.3
 \Zn,0,2.,0.,3.3\C,0,4.70282505,6.55507353,6.6\C,0,3.29717495,6.5550735
 3,6.6\C,0,5.42385811,5.3647644,6.6\C,0,4.70355705,4.17204132,6.6\C,0,3
 .29644295,4.17204132,6.6\C,0,2.57614189,5.3647644,6.6\C,0,5.11636308,2
 .77432121,6.6\C,0,2.88363692,2.77432121,6.6\N,0,4.,1.98231715,6.6\N,0,
 1.61491682,2.38508318,6.6\N,0,6.38508318,2.38508318,6.6\H,0,5.23253009
 ,7.5037036,6.6\H,0,2.76746991,7.5037036,6.6\H,0,6.50917419,5.35528741,
 6.6\H,0,1.49082581,5.35528741,6.6\C,0,10.55507353,-0.70282505,6.6\C,0,
 10.55507353,0.70282505,6.6\C,0,9.3647644,-1.42385811,6.6\C,0,8.1720413
 2,-0.70355705,6.6\C,0,8.17204132,0.70355705,6.6\C,0,9.3647644,1.423858
 11,6.6\C,0,6.77432121,-1.11636308,6.6\C,0,6.77432121,1.11636308,6.6\N,
 0,5.98231715,0.,6.6\N,0,6.38508318,-2.38508318,6.6\H,0,11.5037036,-1.2
 3253009,6.6\H,0,11.5037036,1.23253009,6.6\H,0,9.35528741,-2.50917419,6
 .6\H,0,9.35528741,2.50917419,6.6\C,0,-2.55507353,0.70282505,6.6\C,0,-2
 .55507353,-0.70282505,6.6\C,0,-1.3647644,1.42385811,6.6\C,0,-0.1720413
 2,0.70355705,6.6\C,0,-0.17204132,-0.70355705,6.6\C,0,-1.3647644,-1.423
 85811,6.6\C,0,1.22567879,1.11636308,6.6\C,0,1.22567879,-1.11636308,6.6
 \N,0,2.01768285,0.,6.6\N,0,1.61491682,-2.38508318,6.6\H,0,-3.5037036,1
 .23253009,6.6\H,0,-3.5037036,-1.23253009,6.6\H,0,-1.35528741,2.5091741
 9,6.6\H,0,-1.35528741,-2.50917419,6.6\C,0,3.29717495,-6.55507353,6.6\C
 ,0,4.70282505,-6.55507353,6.6\C,0,2.57614189,-5.3647644,6.6\C,0,3.2964
 4295,-4.17204132,6.6\C,0,4.70355705,-4.17204132,6.6\C,0,5.42385811,-5.
 3647644,6.6\C,0,2.88363692,-2.77432121,6.6\C,0,5.11636308,-2.77432121,
 6.6\N,0,4.,-1.98231715,6.6\H,0,2.76746991,-7.5037036,6.6\H,0,5.2325300
 9,-7.5037036,6.6\H,0,1.49082581,-5.35528741,6.6\H,0,6.50917419,-5.3552
 8741,6.6\Zn,0,4.,0.,6.6\\Version=ES64L-G09RevE.01\State=1-AG\HF=-10321
 .1162878\RMSD=9.575e-09\Dipole=0.,0.,0.\Quadrupole=25.694631,24.662227
 1,-50.356858,0.,-1.2811061,0.\PG=C02H [O(Zn1),C2(N1.N1),SGH(N6Zn2),X(C
 96H48N16)]\\@


 IN THE UNIVERSE THE DIFFICULT THINGS ARE DONE AS IF THEY WERE EASY.

                                                          -- LAO-TSU
 Job cpu time:       0 days  2 hours 52 minutes 21.2 seconds.
 File lengths (MBytes):  RWF=   2109 Int=      0 D2E=      0 Chk=    203 Scr=      1
 Normal termination of Gaussian 09 at Wed Oct 22 07:14:35 2025.
 Initial command:
 /opt/g09/l1.exe "/home/sergey/scratch/Gau-3884679.inp" -scrdir="/home/sergey/scratch/"
 Entering Link 1 = /opt/g09/l1.exe PID=   3889603.
  
 Copyright (c) 1988,1990,1992,1993,1995,1998,2003,2009,2015,
            Gaussian, Inc.  All Rights Reserved.
  
 This is part of the Gaussian(R) 09 program.  It is based on
 the Gaussian(R) 03 system (copyright 2003, Gaussian, Inc.),
 the Gaussian(R) 98 system (copyright 1998, Gaussian, Inc.),
 the Gaussian(R) 94 system (copyright 1995, Gaussian, Inc.),
 the Gaussian 92(TM) system (copyright 1992, Gaussian, Inc.),
 the Gaussian 90(TM) system (copyright 1990, Gaussian, Inc.),
 the Gaussian 88(TM) system (copyright 1988, Gaussian, Inc.),
 the Gaussian 86(TM) system (copyright 1986, Carnegie Mellon
 University), and the Gaussian 82(TM) system (copyright 1983,
 Carnegie Mellon University). Gaussian is a federally registered
 trademark of Gaussian, Inc.
  
 This software contains proprietary and confidential information,
 including trade secrets, belonging to Gaussian, Inc.
  
 This software is provided under written license and may be
 used, copied, transmitted, or stored only in accord with that
 written license.
  
 The following legend is applicable only to US Government
 contracts under FAR:
  
                    RESTRICTED RIGHTS LEGEND
  
 Use, reproduction and disclosure by the US Government is
 subject to restrictions as set forth in subparagraphs (a)
 and (c) of the Commercial Computer Software - Restricted
 Rights clause in FAR 52.227-19.
  
 Gaussian, Inc.
 340 Quinnipiac St., Bldg. 40, Wallingford CT 06492
  
  
 ---------------------------------------------------------------
 Warning -- This program may not be used in any manner that
 competes with the business of Gaussian, Inc. or will provide
 assistance to any competitor of Gaussian, Inc.  The licensee
 of this program is prohibited from giving any competitor of
 Gaussian, Inc. access to this program.  By using this program,
 the user acknowledges that Gaussian, Inc. is engaged in the
 business of creating and licensing software in the field of
 computational chemistry and represents and warrants to the
 licensee that it is not a competitor of Gaussian, Inc. and that
 it will not use this program in any manner prohibited above.
 ---------------------------------------------------------------
  

 Cite this work as:
 Gaussian 09, Revision E.01,
 M. J. Frisch, G. W. Trucks, H. B. Schlegel, G. E. Scuseria, 
 M. A. Robb, J. R. Cheeseman, G. Scalmani, V. Barone, B. Mennucci, 
 G. A. Petersson, H. Nakatsuji, M. Caricato, X. Li, H. P. Hratchian, 
 A. F. Izmaylov, J. Bloino, G. Zheng, J. L. Sonnenberg, M. Hada, 
 M. Ehara, K. Toyota, R. Fukuda, J. Hasegawa, M. Ishida, T. Nakajima, 
 Y. Honda, O. Kitao, H. Nakai, T. Vreven, J. A. Montgomery, Jr., 
 J. E. Peralta, F. Ogliaro, M. Bearpark, J. J. Heyd, E. Brothers, 
 K. N. Kudin, V. N. Staroverov, T. Keith, R. Kobayashi, J. Normand, 
 K. Raghavachari, A. Rendell, J. C. Burant, S. S. Iyengar, J. Tomasi, 
 M. Cossi, N. Rega, J. M. Millam, M. Klene, J. E. Knox, J. B. Cross, 
 V. Bakken, C. Adamo, J. Jaramillo, R. Gomperts, R. E. Stratmann, 
 O. Yazyev, A. J. Austin, R. Cammi, C. Pomelli, J. W. Ochterski, 
 R. L. Martin, K. Morokuma, V. G. Zakrzewski, G. A. Voth, 
 P. Salvador, J. J. Dannenberg, S. Dapprich, A. D. Daniels, 
 O. Farkas, J. B. Foresman, J. V. Ortiz, J. Cioslowski, 
 and D. J. Fox, Gaussian, Inc., Wallingford CT, 2013.
 
 ******************************************
 Gaussian 09:  ES64L-G09RevE.01 30-Nov-2015
                22-Oct-2025 
 ******************************************
 %chk=ZnPc3_33_20.chk
 %nprocshared=8
 Will use up to    8 processors via shared memory.
 %mem=100GB
 Default route:  MaxDisk=100GW
 ----------------------------------------------------------------------
 #p td(nstates=8) lc-blyp/gen iop(3/107=0400000000, 3/108=0400000000) g
 eom=check guess=read
 ----------------------------------------------------------------------
 1/29=2,38=1/1;
 2/12=2,40=1/2;
 3/5=7,11=9,14=-4,16=1,25=1,30=1,74=1000402,107=400000000,108=400000000,116=-2/1,2,8,3;
 4/5=1/1;
 5/5=2,38=6/2;
 8/6=1,10=1,108=8/1;
 9/41=8,42=1,70=2/14;
 6/7=2,8=2,9=2,10=2/1;
 99/5=1,9=1/99;
 Leave Link    1 at Wed Oct 22 07:14:36 2025, MaxMem= 13421772800 cpu:         0.1
 (Enter /opt/g09/l101.exe)
 -----------------------------------------------------------------
 ZnPc dimer lc-blyp(mu=0.4)/def2-tzvp(-f), monomer geom b3pw/631dp
 -----------------------------------------------------------------
 Structure from the checkpoint file:  "ZnPc3_33_20.chk"
 Charge =  0 Multiplicity = 1
 Z-Matrix found in file.
 C,0,0.70282505,6.55507353,0.
 C,0,-0.70282505,6.55507353,0.
 C,0,1.42385811,5.3647644,0.
 C,0,0.70355705,4.17204132,0.
 C,0,-0.70355705,4.17204132,0.
 C,0,-1.42385811,5.3647644,0.
 C,0,1.11636308,2.77432121,0.
 C,0,-1.11636308,2.77432121,0.
 N,0,0.,1.98231715,0.
 N,0,-2.38508318,2.38508318,0.
 N,0,2.38508318,2.38508318,0.
 H,0,1.23253009,7.5037036,0.
 H,0,-1.23253009,7.5037036,0.
 H,0,2.50917419,5.35528741,0.
 H,0,-2.50917419,5.35528741,0.
 C,0,6.55507353,-0.70282505,0.
 C,0,6.55507353,0.70282505,0.
 C,0,5.3647644,-1.42385811,0.
 C,0,4.17204132,-0.70355705,0.
 C,0,4.17204132,0.70355705,0.
 C,0,5.3647644,1.42385811,0.
 C,0,2.77432121,-1.11636308,0.
 C,0,2.77432121,1.11636308,0.
 N,0,1.98231715,0.,0.
 N,0,2.38508318,-2.38508318,0.
 H,0,7.5037036,-1.23253009,0.
 H,0,7.5037036,1.23253009,0.
 H,0,5.35528741,-2.50917419,0.
 H,0,5.35528741,2.50917419,0.
 C,0,-6.55507353,0.70282505,0.
 C,0,-6.55507353,-0.70282505,0.
 C,0,-5.3647644,1.42385811,0.
 C,0,-4.17204132,0.70355705,0.
 C,0,-4.17204132,-0.70355705,0.
 C,0,-5.3647644,-1.42385811,0.
 C,0,-2.77432121,1.11636308,0.
 C,0,-2.77432121,-1.11636308,0.
 N,0,-1.98231715,0.,0.
 N,0,-2.38508318,-2.38508318,0.
 H,0,-7.5037036,1.23253009,0.
 H,0,-7.5037036,-1.23253009,0.
 H,0,-5.35528741,2.50917419,0.
 H,0,-5.35528741,-2.50917419,0.
 C,0,-0.70282505,-6.55507353,0.
 C,0,0.70282505,-6.55507353,0.
 C,0,-1.42385811,-5.3647644,0.
 C,0,-0.70355705,-4.17204132,0.
 C,0,0.70355705,-4.17204132,0.
 C,0,1.42385811,-5.3647644,0.
 C,0,-1.11636308,-2.77432121,0.
 C,0,1.11636308,-2.77432121,0.
 N,0,0.,-1.98231715,0.
 H,0,-1.23253009,-7.5037036,0.
 H,0,1.23253009,-7.5037036,0.
 H,0,-2.50917419,-5.35528741,0.
 H,0,2.50917419,-5.35528741,0.
 Zn,0,0.,0.,0.
 C,0,2.70282505,6.55507353,3.3
 C,0,1.29717495,6.55507353,3.3
 C,0,3.42385811,5.3647644,3.3
 C,0,2.70355705,4.17204132,3.3
 C,0,1.29644295,4.17204132,3.3
 C,0,0.57614189,5.3647644,3.3
 C,0,3.11636308,2.77432121,3.3
 C,0,0.88363692,2.77432121,3.3
 N,0,2.,1.98231715,3.3
 N,0,-0.38508318,2.38508318,3.3
 N,0,4.38508318,2.38508318,3.3
 H,0,3.23253009,7.5037036,3.3
 H,0,0.76746991,7.5037036,3.3
 H,0,4.50917419,5.35528741,3.3
 H,0,-0.50917419,5.35528741,3.3
 C,0,8.55507353,-0.70282505,3.3
 C,0,8.55507353,0.70282505,3.3
 C,0,7.3647644,-1.42385811,3.3
 C,0,6.17204132,-0.70355705,3.3
 C,0,6.17204132,0.70355705,3.3
 C,0,7.3647644,1.42385811,3.3
 C,0,4.77432121,-1.11636308,3.3
 C,0,4.77432121,1.11636308,3.3
 N,0,3.98231715,0.,3.3
 N,0,4.38508318,-2.38508318,3.3
 H,0,9.5037036,-1.23253009,3.3
 H,0,9.5037036,1.23253009,3.3
 H,0,7.35528741,-2.50917419,3.3
 H,0,7.35528741,2.50917419,3.3
 C,0,-4.55507353,0.70282505,3.3
 C,0,-4.55507353,-0.70282505,3.3
 C,0,-3.3647644,1.42385811,3.3
 C,0,-2.17204132,0.70355705,3.3
 C,0,-2.17204132,-0.70355705,3.3
 C,0,-3.3647644,-1.42385811,3.3
 C,0,-0.77432121,1.11636308,3.3
 C,0,-0.77432121,-1.11636308,3.3
 N,0,0.01768285,0.,3.3
 N,0,-0.38508318,-2.38508318,3.3
 H,0,-5.5037036,1.23253009,3.3
 H,0,-5.5037036,-1.23253009,3.3
 H,0,-3.35528741,2.50917419,3.3
 H,0,-3.35528741,-2.50917419,3.3
 C,0,1.29717495,-6.55507353,3.3
 C,0,2.70282505,-6.55507353,3.3
 C,0,0.57614189,-5.3647644,3.3
 C,0,1.29644295,-4.17204132,3.3
 C,0,2.70355705,-4.17204132,3.3
 C,0,3.42385811,-5.3647644,3.3
 C,0,0.88363692,-2.77432121,3.3
 C,0,3.11636308,-2.77432121,3.3
 N,0,2.,-1.98231715,3.3
 H,0,0.76746991,-7.5037036,3.3
 H,0,3.23253009,-7.5037036,3.3
 H,0,-0.50917419,-5.35528741,3.3
 H,0,4.50917419,-5.35528741,3.3
 Zn,0,2.,0.,3.3
 C,0,4.70282505,6.55507353,6.6
 C,0,3.29717495,6.55507353,6.6
 C,0,5.42385811,5.3647644,6.6
 C,0,4.70355705,4.17204132,6.6
 C,0,3.29644295,4.17204132,6.6
 C,0,2.57614189,5.3647644,6.6
 C,0,5.11636308,2.77432121,6.6
 C,0,2.88363692,2.77432121,6.6
 N,0,4.,1.98231715,6.6
 N,0,1.61491682,2.38508318,6.6
 N,0,6.38508318,2.38508318,6.6
 H,0,5.23253009,7.5037036,6.6
 H,0,2.76746991,7.5037036,6.6
 H,0,6.50917419,5.35528741,6.6
 H,0,1.49082581,5.35528741,6.6
 C,0,10.55507353,-0.70282505,6.6
 C,0,10.55507353,0.70282505,6.6
 C,0,9.3647644,-1.42385811,6.6
 C,0,8.17204132,-0.70355705,6.6
 C,0,8.17204132,0.70355705,6.6
 C,0,9.3647644,1.42385811,6.6
 C,0,6.77432121,-1.11636308,6.6
 C,0,6.77432121,1.11636308,6.6
 N,0,5.98231715,0.,6.6
 N,0,6.38508318,-2.38508318,6.6
 H,0,11.5037036,-1.23253009,6.6
 H,0,11.5037036,1.23253009,6.6
 H,0,9.35528741,-2.50917419,6.6
 H,0,9.35528741,2.50917419,6.6
 C,0,-2.55507353,0.70282505,6.6
 C,0,-2.55507353,-0.70282505,6.6
 C,0,-1.3647644,1.42385811,6.6
 C,0,-0.17204132,0.70355705,6.6
 C,0,-0.17204132,-0.70355705,6.6
 C,0,-1.3647644,-1.42385811,6.6
 C,0,1.22567879,1.11636308,6.6
 C,0,1.22567879,-1.11636308,6.6
 N,0,2.01768285,0.,6.6
 N,0,1.61491682,-2.38508318,6.6
 H,0,-3.5037036,1.23253009,6.6
 H,0,-3.5037036,-1.23253009,6.6
 H,0,-1.35528741,2.50917419,6.6
 H,0,-1.35528741,-2.50917419,6.6
 C,0,3.29717495,-6.55507353,6.6
 C,0,4.70282505,-6.55507353,6.6
 C,0,2.57614189,-5.3647644,6.6
 C,0,3.29644295,-4.17204132,6.6
 C,0,4.70355705,-4.17204132,6.6
 C,0,5.42385811,-5.3647644,6.6
 C,0,2.88363692,-2.77432121,6.6
 C,0,5.11636308,-2.77432121,6.6
 N,0,4.,-1.98231715,6.6
 H,0,2.76746991,-7.5037036,6.6
 H,0,5.23253009,-7.5037036,6.6
 H,0,1.49082581,-5.35528741,6.6
 H,0,6.50917419,-5.35528741,6.6
 Zn,0,4.,0.,6.6
 Recover connectivity data from disk.
 NAtoms=    171 NQM=      171 NQMF=       0 NMMI=      0 NMMIF=      0
                NMic=       0 NMicF=      0.
                    Isotopes and Nuclear Properties:
 (Nuclear quadrupole moments (NQMom) in fm**2, nuclear magnetic moments (NMagM)
  in nuclear magnetons)

  Atom         1           2           3           4           5           6           7           8           9          10
 IAtWgt=          12          12          12          12          12          12          12          12          14          14
 AtmWgt=  12.0000000  12.0000000  12.0000000  12.0000000  12.0000000  12.0000000  12.0000000  12.0000000  14.0030740  14.0030740
 NucSpn=           0           0           0           0           0           0           0           0           2           2
 AtZEff=  -3.6000000  -3.6000000  -3.6000000  -3.6000000  -3.6000000  -3.6000000  -3.6000000  -3.6000000  -4.5500000  -4.5500000
 NQMom=    0.0000000   0.0000000   0.0000000   0.0000000   0.0000000   0.0000000   0.0000000   0.0000000   2.0440000   2.0440000
 NMagM=    0.0000000   0.0000000   0.0000000   0.0000000   0.0000000   0.0000000   0.0000000   0.0000000   0.4037610   0.4037610
 AtZNuc=   6.0000000   6.0000000   6.0000000   6.0000000   6.0000000   6.0000000   6.0000000   6.0000000   7.0000000   7.0000000

  Atom        11          12          13          14          15          16          17          18          19          20
 IAtWgt=          14           1           1           1           1          12          12          12          12          12
 AtmWgt=  14.0030740   1.0078250   1.0078250   1.0078250   1.0078250  12.0000000  12.0000000  12.0000000  12.0000000  12.0000000
 NucSpn=           2           1           1           1           1           0           0           0           0           0
 AtZEff=  -4.5500000  -1.0000000  -1.0000000  -1.0000000  -1.0000000  -3.6000000  -3.6000000  -3.6000000  -3.6000000  -3.6000000
 NQMom=    2.0440000   0.0000000   0.0000000   0.0000000   0.0000000   0.0000000   0.0000000   0.0000000   0.0000000   0.0000000
 NMagM=    0.4037610   2.7928460   2.7928460   2.7928460   2.7928460   0.0000000   0.0000000   0.0000000   0.0000000   0.0000000
 AtZNuc=   7.0000000   1.0000000   1.0000000   1.0000000   1.0000000   6.0000000   6.0000000   6.0000000   6.0000000   6.0000000

  Atom        21          22          23          24          25          26          27          28          29          30
 IAtWgt=          12          12          12          14          14           1           1           1           1          12
 AtmWgt=  12.0000000  12.0000000  12.0000000  14.0030740  14.0030740   1.0078250   1.0078250   1.0078250   1.0078250  12.0000000
 NucSpn=           0           0           0           2           2           1           1           1           1           0
 AtZEff=  -3.6000000  -3.6000000  -3.6000000  -4.5500000  -4.5500000  -1.0000000  -1.0000000  -1.0000000  -1.0000000  -3.6000000
 NQMom=    0.0000000   0.0000000   0.0000000   2.0440000   2.0440000   0.0000000   0.0000000   0.0000000   0.0000000   0.0000000
 NMagM=    0.0000000   0.0000000   0.0000000   0.4037610   0.4037610   2.7928460   2.7928460   2.7928460   2.7928460   0.0000000
 AtZNuc=   6.0000000   6.0000000   6.0000000   7.0000000   7.0000000   1.0000000   1.0000000   1.0000000   1.0000000   6.0000000

  Atom        31          32          33          34          35          36          37          38          39          40
 IAtWgt=          12          12          12          12          12          12          12          14          14           1
 AtmWgt=  12.0000000  12.0000000  12.0000000  12.0000000  12.0000000  12.0000000  12.0000000  14.0030740  14.0030740   1.0078250
 NucSpn=           0           0           0           0           0           0           0           2           2           1
 AtZEff=  -3.6000000  -3.6000000  -3.6000000  -3.6000000  -3.6000000  -3.6000000  -3.6000000  -4.5500000  -4.5500000  -1.0000000
 NQMom=    0.0000000   0.0000000   0.0000000   0.0000000   0.0000000   0.0000000   0.0000000   2.0440000   2.0440000   0.0000000
 NMagM=    0.0000000   0.0000000   0.0000000   0.0000000   0.0000000   0.0000000   0.0000000   0.4037610   0.4037610   2.7928460
 AtZNuc=   6.0000000   6.0000000   6.0000000   6.0000000   6.0000000   6.0000000   6.0000000   7.0000000   7.0000000   1.0000000

  Atom        41          42          43          44          45          46          47          48          49          50
 IAtWgt=           1           1           1          12          12          12          12          12          12          12
 AtmWgt=   1.0078250   1.0078250   1.0078250  12.0000000  12.0000000  12.0000000  12.0000000  12.0000000  12.0000000  12.0000000
 NucSpn=           1           1           1           0           0           0           0           0           0           0
 AtZEff=  -1.0000000  -1.0000000  -1.0000000  -3.6000000  -3.6000000  -3.6000000  -3.6000000  -3.6000000  -3.6000000  -3.6000000
 NQMom=    0.0000000   0.0000000   0.0000000   0.0000000   0.0000000   0.0000000   0.0000000   0.0000000   0.0000000   0.0000000
 NMagM=    2.7928460   2.7928460   2.7928460   0.0000000   0.0000000   0.0000000   0.0000000   0.0000000   0.0000000   0.0000000
 AtZNuc=   1.0000000   1.0000000   1.0000000   6.0000000   6.0000000   6.0000000   6.0000000   6.0000000   6.0000000   6.0000000

  Atom        51          52          53          54          55          56          57          58          59          60
 IAtWgt=          12          14           1           1           1           1          64          12          12          12
 AtmWgt=  12.0000000  14.0030740   1.0078250   1.0078250   1.0078250   1.0078250  63.9291454  12.0000000  12.0000000  12.0000000
 NucSpn=           0           2           1           1           1           1           0           0           0           0
 AtZEff=  -3.6000000  -4.5500000  -1.0000000  -1.0000000  -1.0000000  -1.0000000 -25.5000000  -3.6000000  -3.6000000  -3.6000000
 NQMom=    0.0000000   2.0440000   0.0000000   0.0000000   0.0000000   0.0000000   0.0000000   0.0000000   0.0000000   0.0000000
 NMagM=    0.0000000   0.4037610   2.7928460   2.7928460   2.7928460   2.7928460   0.0000000   0.0000000   0.0000000   0.0000000
 AtZNuc=   6.0000000   7.0000000   1.0000000   1.0000000   1.0000000   1.0000000  30.0000000   6.0000000   6.0000000   6.0000000

  Atom        61          62          63          64          65          66          67          68          69          70
 IAtWgt=          12          12          12          12          12          14          14          14           1           1
 AtmWgt=  12.0000000  12.0000000  12.0000000  12.0000000  12.0000000  14.0030740  14.0030740  14.0030740   1.0078250   1.0078250
 NucSpn=           0           0           0           0           0           2           2           2           1           1
 AtZEff=  -3.6000000  -3.6000000  -3.6000000  -3.6000000  -3.6000000  -4.5500000  -4.5500000  -4.5500000  -1.0000000  -1.0000000
 NQMom=    0.0000000   0.0000000   0.0000000   0.0000000   0.0000000   2.0440000   2.0440000   2.0440000   0.0000000   0.0000000
 NMagM=    0.0000000   0.0000000   0.0000000   0.0000000   0.0000000   0.4037610   0.4037610   0.4037610   2.7928460   2.7928460
 AtZNuc=   6.0000000   6.0000000   6.0000000   6.0000000   6.0000000   7.0000000   7.0000000   7.0000000   1.0000000   1.0000000

  Atom        71          72          73          74          75          76          77          78          79          80
 IAtWgt=           1           1          12          12          12          12          12          12          12          12
 AtmWgt=   1.0078250   1.0078250  12.0000000  12.0000000  12.0000000  12.0000000  12.0000000  12.0000000  12.0000000  12.0000000
 NucSpn=           1           1           0           0           0           0           0           0           0           0
 AtZEff=  -1.0000000  -1.0000000  -3.6000000  -3.6000000  -3.6000000  -3.6000000  -3.6000000  -3.6000000  -3.6000000  -3.6000000
 NQMom=    0.0000000   0.0000000   0.0000000   0.0000000   0.0000000   0.0000000   0.0000000   0.0000000   0.0000000   0.0000000
 NMagM=    2.7928460   2.7928460   0.0000000   0.0000000   0.0000000   0.0000000   0.0000000   0.0000000   0.0000000   0.0000000
 AtZNuc=   1.0000000   1.0000000   6.0000000   6.0000000   6.0000000   6.0000000   6.0000000   6.0000000   6.0000000   6.0000000

  Atom        81          82          83          84          85          86          87          88          89          90
 IAtWgt=          14          14           1           1           1           1          12          12          12          12
 AtmWgt=  14.0030740  14.0030740   1.0078250   1.0078250   1.0078250   1.0078250  12.0000000  12.0000000  12.0000000  12.0000000
 NucSpn=           2           2           1           1           1           1           0           0           0           0
 AtZEff=  -4.5500000  -4.5500000  -1.0000000  -1.0000000  -1.0000000  -1.0000000  -3.6000000  -3.6000000  -3.6000000  -3.6000000
 NQMom=    2.0440000   2.0440000   0.0000000   0.0000000   0.0000000   0.0000000   0.0000000   0.0000000   0.0000000   0.0000000
 NMagM=    0.4037610   0.4037610   2.7928460   2.7928460   2.7928460   2.7928460   0.0000000   0.0000000   0.0000000   0.0000000
 AtZNuc=   7.0000000   7.0000000   1.0000000   1.0000000   1.0000000   1.0000000   6.0000000   6.0000000   6.0000000   6.0000000

  Atom        91          92          93          94          95          96          97          98          99         100
 IAtWgt=          12          12          12          12          14          14           1           1           1           1
 AtmWgt=  12.0000000  12.0000000  12.0000000  12.0000000  14.0030740  14.0030740   1.0078250   1.0078250   1.0078250   1.0078250
 NucSpn=           0           0           0           0           2           2           1           1           1           1
 AtZEff=  -3.6000000  -3.6000000  -3.6000000  -3.6000000  -4.5500000  -4.5500000  -1.0000000  -1.0000000  -1.0000000  -1.0000000
 NQMom=    0.0000000   0.0000000   0.0000000   0.0000000   2.0440000   2.0440000   0.0000000   0.0000000   0.0000000   0.0000000
 NMagM=    0.0000000   0.0000000   0.0000000   0.0000000   0.4037610   0.4037610   2.7928460   2.7928460   2.7928460   2.7928460
 AtZNuc=   6.0000000   6.0000000   6.0000000   6.0000000   7.0000000   7.0000000   1.0000000   1.0000000   1.0000000   1.0000000

  Atom       101         102         103         104         105         106         107         108         109         110
 IAtWgt=          12          12          12          12          12          12          12          12          14           1
 AtmWgt=  12.0000000  12.0000000  12.0000000  12.0000000  12.0000000  12.0000000  12.0000000  12.0000000  14.0030740   1.0078250
 NucSpn=           0           0           0           0           0           0           0           0           2           1
 AtZEff=  -3.6000000  -3.6000000  -3.6000000  -3.6000000  -3.6000000  -3.6000000  -3.6000000  -3.6000000  -4.5500000  -1.0000000
 NQMom=    0.0000000   0.0000000   0.0000000   0.0000000   0.0000000   0.0000000   0.0000000   0.0000000   2.0440000   0.0000000
 NMagM=    0.0000000   0.0000000   0.0000000   0.0000000   0.0000000   0.0000000   0.0000000   0.0000000   0.4037610   2.7928460
 AtZNuc=   6.0000000   6.0000000   6.0000000   6.0000000   6.0000000   6.0000000   6.0000000   6.0000000   7.0000000   1.0000000

  Atom       111         112         113         114         115         116         117         118         119         120
 IAtWgt=           1           1           1          64          12          12          12          12          12          12
 AtmWgt=   1.0078250   1.0078250   1.0078250  63.9291454  12.0000000  12.0000000  12.0000000  12.0000000  12.0000000  12.0000000
 NucSpn=           1           1           1           0           0           0           0           0           0           0
 AtZEff=  -1.0000000  -1.0000000  -1.0000000 -25.5000000  -3.6000000  -3.6000000  -3.6000000  -3.6000000  -3.6000000  -3.6000000
 NQMom=    0.0000000   0.0000000   0.0000000   0.0000000   0.0000000   0.0000000   0.0000000   0.0000000   0.0000000   0.0000000
 NMagM=    2.7928460   2.7928460   2.7928460   0.0000000   0.0000000   0.0000000   0.0000000   0.0000000   0.0000000   0.0000000
 AtZNuc=   1.0000000   1.0000000   1.0000000  30.0000000   6.0000000   6.0000000   6.0000000   6.0000000   6.0000000   6.0000000

  Atom       121         122         123         124         125         126         127         128         129         130
 IAtWgt=          12          12          14          14          14           1           1           1           1          12
 AtmWgt=  12.0000000  12.0000000  14.0030740  14.0030740  14.0030740   1.0078250   1.0078250   1.0078250   1.0078250  12.0000000
 NucSpn=           0           0           2           2           2           1           1           1           1           0
 AtZEff=  -3.6000000  -3.6000000  -4.5500000  -4.5500000  -4.5500000  -1.0000000  -1.0000000  -1.0000000  -1.0000000  -3.6000000
 NQMom=    0.0000000   0.0000000   2.0440000   2.0440000   2.0440000   0.0000000   0.0000000   0.0000000   0.0000000   0.0000000
 NMagM=    0.0000000   0.0000000   0.4037610   0.4037610   0.4037610   2.7928460   2.7928460   2.7928460   2.7928460   0.0000000
 AtZNuc=   6.0000000   6.0000000   7.0000000   7.0000000   7.0000000   1.0000000   1.0000000   1.0000000   1.0000000   6.0000000

  Atom       131         132         133         134         135         136         137         138         139         140
 IAtWgt=          12          12          12          12          12          12          12          14          14           1
 AtmWgt=  12.0000000  12.0000000  12.0000000  12.0000000  12.0000000  12.0000000  12.0000000  14.0030740  14.0030740   1.0078250
 NucSpn=           0           0           0           0           0           0           0           2           2           1
 AtZEff=  -3.6000000  -3.6000000  -3.6000000  -3.6000000  -3.6000000  -3.6000000  -3.6000000  -4.5500000  -4.5500000  -1.0000000
 NQMom=    0.0000000   0.0000000   0.0000000   0.0000000   0.0000000   0.0000000   0.0000000   2.0440000   2.0440000   0.0000000
 NMagM=    0.0000000   0.0000000   0.0000000   0.0000000   0.0000000   0.0000000   0.0000000   0.4037610   0.4037610   2.7928460
 AtZNuc=   6.0000000   6.0000000   6.0000000   6.0000000   6.0000000   6.0000000   6.0000000   7.0000000   7.0000000   1.0000000

  Atom       141         142         143         144         145         146         147         148         149         150
 IAtWgt=           1           1           1          12          12          12          12          12          12          12
 AtmWgt=   1.0078250   1.0078250   1.0078250  12.0000000  12.0000000  12.0000000  12.0000000  12.0000000  12.0000000  12.0000000
 NucSpn=           1           1           1           0           0           0           0           0           0           0
 AtZEff=  -1.0000000  -1.0000000  -1.0000000  -3.6000000  -3.6000000  -3.6000000  -3.6000000  -3.6000000  -3.6000000  -3.6000000
 NQMom=    0.0000000   0.0000000   0.0000000   0.0000000   0.0000000   0.0000000   0.0000000   0.0000000   0.0000000   0.0000000
 NMagM=    2.7928460   2.7928460   2.7928460   0.0000000   0.0000000   0.0000000   0.0000000   0.0000000   0.0000000   0.0000000
 AtZNuc=   1.0000000   1.0000000   1.0000000   6.0000000   6.0000000   6.0000000   6.0000000   6.0000000   6.0000000   6.0000000

  Atom       151         152         153         154         155         156         157         158         159         160
 IAtWgt=          12          14          14           1           1           1           1          12          12          12
 AtmWgt=  12.0000000  14.0030740  14.0030740   1.0078250   1.0078250   1.0078250   1.0078250  12.0000000  12.0000000  12.0000000
 NucSpn=           0           2           2           1           1           1           1           0           0           0
 AtZEff=  -3.6000000  -4.5500000  -4.5500000  -1.0000000  -1.0000000  -1.0000000  -1.0000000  -3.6000000  -3.6000000  -3.6000000
 NQMom=    0.0000000   2.0440000   2.0440000   0.0000000   0.0000000   0.0000000   0.0000000   0.0000000   0.0000000   0.0000000
 NMagM=    0.0000000   0.4037610   0.4037610   2.7928460   2.7928460   2.7928460   2.7928460   0.0000000   0.0000000   0.0000000
 AtZNuc=   6.0000000   7.0000000   7.0000000   1.0000000   1.0000000   1.0000000   1.0000000   6.0000000   6.0000000   6.0000000

  Atom       161         162         163         164         165         166         167         168         169         170
 IAtWgt=          12          12          12          12          12          14           1           1           1           1
 AtmWgt=  12.0000000  12.0000000  12.0000000  12.0000000  12.0000000  14.0030740   1.0078250   1.0078250   1.0078250   1.0078250
 NucSpn=           0           0           0           0           0           2           1           1           1           1
 AtZEff=  -3.6000000  -3.6000000  -3.6000000  -3.6000000  -3.6000000  -4.5500000  -1.0000000  -1.0000000  -1.0000000  -1.0000000
 NQMom=    0.0000000   0.0000000   0.0000000   0.0000000   0.0000000   2.0440000   0.0000000   0.0000000   0.0000000   0.0000000
 NMagM=    0.0000000   0.0000000   0.0000000   0.0000000   0.0000000   0.4037610   2.7928460   2.7928460   2.7928460   2.7928460
 AtZNuc=   6.0000000   6.0000000   6.0000000   6.0000000   6.0000000   7.0000000   1.0000000   1.0000000   1.0000000   1.0000000

  Atom       171
 IAtWgt=          64
 AtmWgt=  63.9291454
 NucSpn=           0
 AtZEff= -25.5000000
 NQMom=    0.0000000
 NMagM=    0.0000000
 AtZNuc=  30.0000000
 Leave Link  101 at Wed Oct 22 07:14:36 2025, MaxMem= 13421772800 cpu:         0.4
 (Enter /opt/g09/l202.exe)
 Stoichiometry    C96H48N24Zn3
 Framework group  C2H[O(Zn),C2(N.N),SGH(N6Zn2),X(C96H48N16)]
 Deg. of freedom   128
 Full point group                 C2H     NOp   4
 RotChk:  IX=0 Diff= 6.54D-16
 Largest Abelian subgroup         C2H     NOp   4
 Largest concise Abelian subgroup C2H     NOp   4
                         Standard orientation:                         
 ---------------------------------------------------------------------
 Center     Atomic      Atomic             Coordinates (Angstroms)
 Number     Number       Type             X           Y           Z
 ---------------------------------------------------------------------
      1          6           0        3.300000    1.297175    6.555074
      2          6           0        3.300000    2.702825    6.555074
      3          6           0        3.300000    0.576142    5.364764
      4          6           0        3.300000    1.296443    4.172041
      5          6           0        3.300000    2.703557    4.172041
      6          6           0        3.300000    3.423858    5.364764
      7          6           0        3.300000    0.883637    2.774321
      8          6           0        3.300000    3.116363    2.774321
      9          7           0        3.300000    2.000000    1.982317
     10          7           0        3.300000    4.385083    2.385083
     11          7           0        3.300000   -0.385083    2.385083
     12          1           0        3.300000    0.767470    7.503704
     13          1           0        3.300000    3.232530    7.503704
     14          1           0        3.300000   -0.509174    5.355287
     15          1           0        3.300000    4.509174    5.355287
     16          6           0        3.300000   -4.555074   -0.702825
     17          6           0        3.300000   -4.555074    0.702825
     18          6           0        3.300000   -3.364764   -1.423858
     19          6           0        3.300000   -2.172041   -0.703557
     20          6           0        3.300000   -2.172041    0.703557
     21          6           0        3.300000   -3.364764    1.423858
     22          6           0        3.300000   -0.774321   -1.116363
     23          6           0        3.300000   -0.774321    1.116363
     24          7           0        3.300000    0.017683   -0.000000
     25          7           0        3.300000   -0.385083   -2.385083
     26          1           0        3.300000   -5.503704   -1.232530
     27          1           0        3.300000   -5.503704    1.232530
     28          1           0        3.300000   -3.355287   -2.509174
     29          1           0        3.300000   -3.355287    2.509174
     30          6           0        3.300000    8.555074    0.702825
     31          6           0        3.300000    8.555074   -0.702825
     32          6           0        3.300000    7.364764    1.423858
     33          6           0        3.300000    6.172041    0.703557
     34          6           0        3.300000    6.172041   -0.703557
     35          6           0        3.300000    7.364764   -1.423858
     36          6           0        3.300000    4.774321    1.116363
     37          6           0        3.300000    4.774321   -1.116363
     38          7           0        3.300000    3.982317    0.000000
     39          7           0        3.300000    4.385083   -2.385083
     40          1           0        3.300000    9.503704    1.232530
     41          1           0        3.300000    9.503704   -1.232530
     42          1           0        3.300000    7.355287    2.509174
     43          1           0        3.300000    7.355287   -2.509174
     44          6           0        3.300000    2.702825   -6.555074
     45          6           0        3.300000    1.297175   -6.555074
     46          6           0        3.300000    3.423858   -5.364764
     47          6           0        3.300000    2.703557   -4.172041
     48          6           0        3.300000    1.296443   -4.172041
     49          6           0        3.300000    0.576142   -5.364764
     50          6           0        3.300000    3.116363   -2.774321
     51          6           0        3.300000    0.883637   -2.774321
     52          7           0        3.300000    2.000000   -1.982317
     53          1           0        3.300000    3.232530   -7.503704
     54          1           0        3.300000    0.767470   -7.503704
     55          1           0        3.300000    4.509174   -5.355287
     56          1           0        3.300000   -0.509174   -5.355287
     57         30           0        3.300000    2.000000    0.000000
     58          6           0       -0.000000   -0.702825    6.555074
     59          6           0        0.000000    0.702825    6.555074
     60          6           0       -0.000000   -1.423858    5.364764
     61          6           0       -0.000000   -0.703557    4.172041
     62          6           0        0.000000    0.703557    4.172041
     63          6           0        0.000000    1.423858    5.364764
     64          6           0       -0.000000   -1.116363    2.774321
     65          6           0        0.000000    1.116363    2.774321
     66          7           0       -0.000000    0.000000    1.982317
     67          7           0       -0.000000    2.385083    2.385083
     68          7           0       -0.000000   -2.385083    2.385083
     69          1           0       -0.000000   -1.232530    7.503704
     70          1           0        0.000000    1.232530    7.503704
     71          1           0       -0.000000   -2.509174    5.355287
     72          1           0        0.000000    2.509174    5.355287
     73          6           0        0.000000   -6.555074   -0.702825
     74          6           0        0.000000   -6.555074    0.702825
     75          6           0        0.000000   -5.364764   -1.423858
     76          6           0        0.000000   -4.172041   -0.703557
     77          6           0        0.000000   -4.172041    0.703557
     78          6           0        0.000000   -5.364764    1.423858
     79          6           0        0.000000   -2.774321   -1.116363
     80          6           0        0.000000   -2.774321    1.116363
     81          7           0        0.000000   -1.982317   -0.000000
     82          7           0       -0.000000   -2.385083   -2.385083
     83          1           0        0.000000   -7.503704   -1.232530
     84          1           0        0.000000   -7.503704    1.232530
     85          1           0        0.000000   -5.355287   -2.509174
     86          1           0        0.000000   -5.355287    2.509174
     87          6           0        0.000000    6.555074    0.702825
     88          6           0        0.000000    6.555074   -0.702825
     89          6           0        0.000000    5.364764    1.423858
     90          6           0        0.000000    4.172041    0.703557
     91          6           0        0.000000    4.172041   -0.703557
     92          6           0        0.000000    5.364764   -1.423858
     93          6           0        0.000000    2.774321    1.116363
     94          6           0        0.000000    2.774321   -1.116363
     95          7           0        0.000000    1.982317   -0.000000
     96          7           0       -0.000000    2.385083   -2.385083
     97          1           0        0.000000    7.503704    1.232530
     98          1           0        0.000000    7.503704   -1.232530
     99          1           0        0.000000    5.355287    2.509174
    100          1           0        0.000000    5.355287   -2.509174
    101          6           0        0.000000    0.702825   -6.555074
    102          6           0       -0.000000   -0.702825   -6.555074
    103          6           0        0.000000    1.423858   -5.364764
    104          6           0        0.000000    0.703557   -4.172041
    105          6           0       -0.000000   -0.703557   -4.172041
    106          6           0       -0.000000   -1.423858   -5.364764
    107          6           0        0.000000    1.116363   -2.774321
    108          6           0       -0.000000   -1.116363   -2.774321
    109          7           0       -0.000000    0.000000   -1.982317
    110          1           0        0.000000    1.232530   -7.503704
    111          1           0       -0.000000   -1.232530   -7.503704
    112          1           0        0.000000    2.509174   -5.355287
    113          1           0       -0.000000   -2.509174   -5.355287
    114         30           0        0.000000    0.000000    0.000000
    115          6           0       -3.300000   -2.702825    6.555074
    116          6           0       -3.300000   -1.297175    6.555074
    117          6           0       -3.300000   -3.423858    5.364764
    118          6           0       -3.300000   -2.703557    4.172041
    119          6           0       -3.300000   -1.296443    4.172041
    120          6           0       -3.300000   -0.576142    5.364764
    121          6           0       -3.300000   -3.116363    2.774321
    122          6           0       -3.300000   -0.883637    2.774321
    123          7           0       -3.300000   -2.000000    1.982317
    124          7           0       -3.300000    0.385083    2.385083
    125          7           0       -3.300000   -4.385083    2.385083
    126          1           0       -3.300000   -3.232530    7.503704
    127          1           0       -3.300000   -0.767470    7.503704
    128          1           0       -3.300000   -4.509174    5.355287
    129          1           0       -3.300000    0.509174    5.355287
    130          6           0       -3.300000   -8.555074   -0.702825
    131          6           0       -3.300000   -8.555074    0.702825
    132          6           0       -3.300000   -7.364764   -1.423858
    133          6           0       -3.300000   -6.172041   -0.703557
    134          6           0       -3.300000   -6.172041    0.703557
    135          6           0       -3.300000   -7.364764    1.423858
    136          6           0       -3.300000   -4.774321   -1.116363
    137          6           0       -3.300000   -4.774321    1.116363
    138          7           0       -3.300000   -3.982317    0.000000
    139          7           0       -3.300000   -4.385083   -2.385083
    140          1           0       -3.300000   -9.503704   -1.232530
    141          1           0       -3.300000   -9.503704    1.232530
    142          1           0       -3.300000   -7.355287   -2.509174
    143          1           0       -3.300000   -7.355287    2.509174
    144          6           0       -3.300000    4.555074    0.702825
    145          6           0       -3.300000    4.555074   -0.702825
    146          6           0       -3.300000    3.364764    1.423858
    147          6           0       -3.300000    2.172041    0.703557
    148          6           0       -3.300000    2.172041   -0.703557
    149          6           0       -3.300000    3.364764   -1.423858
    150          6           0       -3.300000    0.774321    1.116363
    151          6           0       -3.300000    0.774321   -1.116363
    152          7           0       -3.300000   -0.017683   -0.000000
    153          7           0       -3.300000    0.385083   -2.385083
    154          1           0       -3.300000    5.503704    1.232530
    155          1           0       -3.300000    5.503704   -1.232530
    156          1           0       -3.300000    3.355287    2.509174
    157          1           0       -3.300000    3.355287   -2.509174
    158          6           0       -3.300000   -1.297175   -6.555074
    159          6           0       -3.300000   -2.702825   -6.555074
    160          6           0       -3.300000   -0.576142   -5.364764
    161          6           0       -3.300000   -1.296443   -4.172041
    162          6           0       -3.300000   -2.703557   -4.172041
    163          6           0       -3.300000   -3.423858   -5.364764
    164          6           0       -3.300000   -0.883637   -2.774321
    165          6           0       -3.300000   -3.116363   -2.774321
    166          7           0       -3.300000   -2.000000   -1.982317
    167          1           0       -3.300000   -0.767470   -7.503704
    168          1           0       -3.300000   -3.232530   -7.503704
    169          1           0       -3.300000    0.509174   -5.355287
    170          1           0       -3.300000   -4.509174   -5.355287
    171         30           0       -3.300000   -2.000000    0.000000
 ---------------------------------------------------------------------
 Rotational constants (GHZ):      0.0200647      0.0148098      0.0117873
 Leave Link  202 at Wed Oct 22 07:14:36 2025, MaxMem= 13421772800 cpu:         0.0
 (Enter /opt/g09/l301.exe)
 General basis read from cards:  (5D, 7F)
 Centers:      12     13     14     15     26     27     28     29     40     41
 Centers:      42     43     53     54     55     56     69     70     71     72
 Centers:      83     84     85     86     97     98     99    100    110    111
 Centers:     112    113    126    127    128    129    140    141    142    143
 Centers:     154    155    156    157    167    168    169    170     57    114
 Centers:     171
 def2tzvp
 ****
 Centers:       1      2      3      4      5      6      7      8     16     17
 Centers:      18     19     20     21     22     23     30     31     32     33
 Centers:      34     35     36     37     44     45     46     47     48     49
 Centers:      50     51     58     59     60     61     62     63     64     65
 Centers:      73     74     75     76     77     78     79     80     87     88
 Centers:      89     90     91     92     93     94    101    102    103    104
 Centers:     105    106    107    108    115    116    117    118    119    120
 Centers:     121    122    130    131    132    133    134    135    136    137
 Centers:     144    145    146    147    148    149    150    151    158    159
 Centers:     160    161    162    163    164    165
 S 6 1.00
     Exponent=  1.3575349682D+04 Coefficients=  2.2245814352D-04
     Exponent=  2.0352333680D+03 Coefficients=  1.7232738252D-03
     Exponent=  4.6322562359D+02 Coefficients=  8.9255715314D-03
     Exponent=  1.3120019598D+02 Coefficients=  3.5727984502D-02
     Exponent=  4.2853015891D+01 Coefficients=  1.1076259931D-01
     Exponent=  1.5584185766D+01 Coefficients=  2.4295627626D-01
 S 2 1.00
     Exponent=  6.2067138508D+00 Coefficients=  4.1440263448D-01
     Exponent=  2.5764896527D+00 Coefficients=  2.3744968655D-01
 S 1 1.00
     Exponent=  5.7696339419D-01 Coefficients=  1.0000000000D+00
 S 1 1.00
     Exponent=  2.2972831358D-01 Coefficients=  1.0000000000D+00
 S 1 1.00
     Exponent=  9.5164440028D-02 Coefficients=  1.0000000000D+00
 P 4 1.00
     Exponent=  3.4697232244D+01 Coefficients=  5.3333657805D-03
     Exponent=  7.9582622826D+00 Coefficients=  3.5864109092D-02
     Exponent=  2.3780826883D+00 Coefficients=  1.4215873329D-01
     Exponent=  8.1433208183D-01 Coefficients=  3.4270471845D-01
 P 1 1.00
     Exponent=  2.8887547253D-01 Coefficients=  4.6445822433D-01
 P 1 1.00
     Exponent=  1.0056823671D-01 Coefficients=  2.4955789874D-01
 D 1 1.00
     Exponent=  1.0970000000D+00 Coefficients=  1.0000000000D+00
 D 1 1.00
     Exponent=  3.1800000000D-01 Coefficients=  1.0000000000D+00
 ****
 Centers:       9     10     11     24     25     38     39     52     66     67
 Centers:      68     81     82     95     96    109    123    124    125    138
 Centers:     139    152    153    166
 S 6 1.00
     Exponent=  1.9730800647D+04 Coefficients=  2.1887984991D-04
     Exponent=  2.9578958745D+03 Coefficients=  1.6960708803D-03
     Exponent=  6.7322133595D+02 Coefficients=  8.7954603538D-03
     Exponent=  1.9068249494D+02 Coefficients=  3.5359382605D-02
     Exponent=  6.2295441898D+01 Coefficients=  1.1095789217D-01
     Exponent=  2.2654161182D+01 Coefficients=  2.4982972552D-01
 S 2 1.00
     Exponent=  8.9791477428D+00 Coefficients=  4.0623896148D-01
     Exponent=  3.6863002370D+00 Coefficients=  2.4338217176D-01
 S 1 1.00
     Exponent=  8.4660076805D-01 Coefficients=  1.0000000000D+00
 S 1 1.00
     Exponent=  3.3647133771D-01 Coefficients=  1.0000000000D+00
 S 1 1.00
     Exponent=  1.3647653675D-01 Coefficients=  1.0000000000D+00
 P 4 1.00
     Exponent=  4.9200380510D+01 Coefficients=  5.5552416751D-03
     Exponent=  1.1346790537D+01 Coefficients=  3.8052379723D-02
     Exponent=  3.4273972411D+00 Coefficients=  1.4953671029D-01
     Exponent=  1.1785525134D+00 Coefficients=  3.4949305230D-01
 P 1 1.00
     Exponent=  4.1642204972D-01 Coefficients=  4.5843153697D-01
 P 1 1.00
     Exponent=  1.4260826011D-01 Coefficients=  2.4428771672D-01
 D 1 1.00
     Exponent=  1.6540000000D+00 Coefficients=  1.0000000000D+00
 D 1 1.00
     Exponent=  4.6900000000D-01 Coefficients=  1.0000000000D+00
 ****
 Ernie: Thresh=  0.10000D-02 Tol=  0.10000D-05 Strict=F.
 There are   933 symmetry adapted cartesian basis functions of AG  symmetry.
 There are   856 symmetry adapted cartesian basis functions of BG  symmetry.
 There are   863 symmetry adapted cartesian basis functions of AU  symmetry.
 There are   921 symmetry adapted cartesian basis functions of BU  symmetry.
 There are   859 symmetry adapted basis functions of AG  symmetry.
 There are   799 symmetry adapted basis functions of BG  symmetry.
 There are   803 symmetry adapted basis functions of AU  symmetry.
 There are   851 symmetry adapted basis functions of BU  symmetry.
  3312 basis functions,  5619 primitive gaussians,  3573 cartesian basis functions
   441 alpha electrons      441 beta electrons
       nuclear repulsion energy     34916.9036069114 Hartrees.
 IExCor=10402 DFT=T Ex=LC-B+HF Corr=LYP ExCW=0 ScaHFX=  1.000000
 ScaDFX=  1.000000  1.000000  1.000000  1.000000 ScalE2=  1.000000  1.000000
 IRadAn=      0 IRanWt=     -1 IRanGd=            0 ICorTp=0 IEmpDi=  4
  HFx wShort=  0.000000 wLong=  0.400000 cFull=  0.000000 cShort=  0.000000 cLong=  1.000000
  DFx wShort=  0.000000 wLong=  0.400000 cFull=  0.000000 cShort=  0.000000 cLong=  1.000000
 NAtoms=  171 NActive=  171 NUniq=   46 SFac= 4.00D+00 NAtFMM=   60 NAOKFM=T Big=F
 Integral buffers will be    131072 words long.
 Raffenetti 1 integral format.
 Two-electron integral symmetry is turned on.
 Leave Link  301 at Wed Oct 22 07:14:36 2025, MaxMem= 13421772800 cpu:         0.2
 (Enter /opt/g09/l302.exe)
 NPDir=0 NMtPBC=     1 NCelOv=     1 NCel=       1 NClECP=     1 NCelD=      1
         NCelK=      1 NCelE2=     1 NClLst=     1 CellRange=     0.0.
 One-electron integrals computed using PRISM.
 One-electron integral symmetry used in STVInt
 NBasis=  3312 RedAO= T EigKep=  1.10D-06  NBF=   859   799   803   851
 NBsUse=  3308 1.00D-06 EigRej=  8.72D-07 NBFU=   859   797   801   851
 Precomputing XC quadrature grid using
 IXCGrd= 4 IRadAn=           0 IRanWt=          -1 IRanGd=           0 AccXCQ= 0.00D+00.
 Generated NRdTot=       0 NPtTot=           0 NUsed=           0 NTot=          32
 NSgBfM=  2789  2795  2796  2796  2797 MxSgAt=   171 MxSgA2=   171.
 Leave Link  302 at Wed Oct 22 07:14:42 2025, MaxMem= 13421772800 cpu:        52.5
 (Enter /opt/g09/l308.exe)
 Leave Link  308 at Wed Oct 22 07:14:44 2025, MaxMem= 13421772800 cpu:        15.1
 (Enter /opt/g09/l303.exe)
 DipDrv:  MaxL=1.
 Leave Link  303 at Wed Oct 22 07:14:46 2025, MaxMem= 13421772800 cpu:         8.5
 (Enter /opt/g09/l401.exe)
 Initial guess from the checkpoint file:  "ZnPc3_33_20.chk"
 B after Tr=    -0.000000    0.000000   -0.000000
         Rot=    1.000000    0.000000    0.000000    0.000000 Ang=   0.00 deg.
 Guess basis will be translated and rotated to current coordinates.
 JPrj=2 DoOrth=T DoCkMO=T.
 Initial guess orbital symmetries:
       Occupied  (AG) (AG) (BU) (AG) (BU) (AG) (AG) (BU) (BU) (AG)
                 (BU) (BG) (AU) (BU) (AU) (AG) (BU) (BU) (AG) (BG)
                 (AU) (BU) (AG) (AG) (BU) (AU) (AG) (AG) (BU) (BG)
                 (AU) (BU) (AG) (AU) (BG) (AG) (BG) (AU) (BU) (BG)
                 (AU) (BU) (AG) (AU) (BG) (AG) (BU) (AU) (BG) (AG)
                 (BU) (AU) (BG) (AG) (BU) (AU) (BG) (AG) (BU) (BG)
                 (BU) (AG) (AU) (AU) (BG) (BU) (AG) (BU) (AG) (BG)
                 (AU) (BG) (AU) (BU) (AG) (BU) (AG) (BG) (AU) (BG)
                 (AU) (AG) (BU) (AU) (AG) (BG) (BU) (AU) (AG) (BG)
                 (BU) (AU) (AG) (BG) (BU) (BU) (AG) (BG) (BU) (AU)
                 (AG) (BG) (AU) (AU) (AG) (AU) (BG) (BG) (BU) (BU)
                 (AG) (AU) (AG) (BG) (BU) (AU) (AG) (BG) (BU) (BU)
                 (AG) (BG) (AU) (AG) (BU) (BG) (AU) (AU) (AG) (BU)
                 (AG) (BG) (BU) (AU) (BG) (AG) (BU) (AG) (BU) (AG)
                 (BU) (BU) (AG) (AU) (BG) (BU) (AU) (AG) (BU) (AG)
                 (BU) (AU) (AG) (BG) (BU) (AU) (AG) (BU) (AG) (BG)
                 (AU) (BG) (BU) (AG) (AU) (BG) (BU) (AU) (AG) (BU)
                 (AG) (BU) (AG) (AU) (AG) (BU) (BG) (AG) (BU) (BU)
                 (AG) (AU) (AG) (BG) (AU) (BG) (AG) (BU) (AG) (AU)
                 (BU) (BG) (AG) (AU) (BU) (BG) (BU) (AU) (AG) (BU)
                 (AG) (AU) (BU) (AG) (BG) (AU) (BG) (BG) (AU) (BG)
                 (BU) (AU) (BG) (AG) (AU) (BU) (AG) (AG) (BU) (BU)
                 (AG) (AG) (BU) (AU) (AG) (BG) (BU) (AU) (BG) (AU)
                 (AG) (BU) (BG) (AG) (AU) (BG) (BG) (BU) (AU) (AG)
                 (BG) (AU) (BU) (BG) (AU) (BG) (AG) (BU) (AG) (BU)
                 (AU) (BG) (AG) (BU) (AU) (BU) (AG) (AG) (BG) (AU)
                 (BU) (AG) (AU) (BU) (BU) (BG) (AU) (BG) (BG) (AG)
                 (AU) (BU) (AG) (BG) (BU) (AG) (AG) (AG) (BG) (AG)
                 (BU) (AU) (AU) (BU) (BG) (AG) (AG) (AU) (BU) (BG)
                 (BU) (AG) (AU) (BG) (BU) (AU) (BU) (AG) (AG) (BG)
                 (BU) (AG) (BG) (AU) (BG) (BU) (AG) (AU) (BG) (BU)
                 (AG) (AU) (BG) (BU) (AG) (BU) (AG) (AG) (AU) (BG)
                 (BG) (AG) (BU) (AU) (BU) (AU) (BG) (BG) (AG) (BG)
                 (AU) (BG) (BU) (AG) (BG) (AU) (BU) (AU) (BU) (AG)
                 (BU) (AG) (AG) (BU) (AU) (AG) (BG) (BG) (BU) (AU)
                 (AG) (AU) (BU) (AG) (BG) (AU) (AG) (BG) (BU) (AG)
                 (AU) (BG) (BU) (AU) (BU) (BU) (BU) (AG) (AU) (BG)
                 (BG) (AU) (BG) (BU) (BG) (AU) (AG) (BU) (AG) (AG)
                 (BU) (AG) (BU) (AU) (BG) (BU) (AU) (AG) (BU) (AG)
                 (BG) (AG) (AU) (AG) (BU) (BG) (BU) (AG) (AG) (AU)
                 (BU) (BG) (AG) (AU) (BU) (AU) (BG) (AU) (BG) (AU)
                 (BG) (BU) (BG) (BU) (AG) (AG) (AU) (BG) (AG) (AU)
                 (BU) (AG) (BU) (AG) (BG) (AU) (BU) (AG) (BU) (AU)
                 (AG) (BG) (BU) (AG) (BG) (AG) (BU) (BU) (AU) (BG)
                 (AU)
       Virtual   (AG) (BG) (AU) (BU) (BG) (AG) (AU) (BG) (BU) (BU)
                 (AU) (AG) (AG) (AG) (BU) (BU) (BG) (AU) (BU) (BG)
                 (AG) (AU) (AG) (BG) (BU) (AG) (BG) (AU) (BU) (AU)
                 (AG) (BG) (AG) (AU) (BU) (AG) (AG) (BU) (BU) (AG)
                 (BG) (BU) (BU) (AU) (AG) (BG) (BU) (AU) (BG) (AU)
                 (AG) (BU) (AU) (BU) (AG) (BU) (AU) (BG) (AG) (AG)
                 (BU) (BG) (AU) (AG) (BG) (BU) (AU) (BG) (AG) (BU)
                 (AU) (BG) (AG) (BG) (AU) (AG) (BU) (AU) (BG) (BU)
                 (AG) (BG) (AU) (BG) (BU) (AG) (AU) (AG) (BU) (AG)
                 (AU) (BG) (BU) (AG) (BU) (BU) (AU) (AG) (BG) (BG)
                 (BG) (AU) (AG) (BU) (AU) (AU) (BG) (AG) (BU) (BG)
                 (AU) (AU) (BG) (BU) (AU) (AG) (BG) (AG) (AU) (BG)
                 (BG) (AU) (BU) (BU) (AG) (AG) (AU) (BG) (AU) (BU)
                 (AG) (AU) (AG) (BG) (AG) (BU) (BU) (BG) (AU) (BG)
                 (BU) (AG) (BG) (AU) (BU) (BG) (AG) (AU) (AU) (BG)
                 (BU) (BG) (AG) (BU) (AU) (AG) (BG) (AU) (BU) (BU)
                 (AU) (BG) (AG) (BU) (AU) (BG) (BG) (AG) (BU) (BU)
                 (AG) (AU) (AG) (AU) (BU) (AU) (AG) (BG) (AG) (BU)
                 (BU) (AU) (AG) (BG) (AG) (BU) (BU) (AG) (BG) (AG)
                 (AU) (BU) (BU) (AG) (AU) (AG) (BG) (AG) (AG) (BU)
                 (AU) (BU) (AG) (AU) (BG) (AG) (AU) (BU) (BU) (BG)
                 (BU) (BG) (AG) (BG) (AG) (BU) (AU) (AU) (AG) (AU)
                 (BU) (AG) (BG) (AG) (BG) (BU) (BU) (AG) (AU) (AU)
                 (BG) (BU) (AU) (BG) (BU) (AG) (AU) (BG) (AU) (AG)
                 (BG) (BU) (AG) (AG) (AU) (BG) (BU) (BU) (BG) (AU)
                 (BU) (BG) (AG) (AG) (AU) (BG) (AG) (BU) (BU) (AG)
                 (AU) (BU) (BG) (AG) (BU) (BG) (BG) (AU) (BU) (AU)
                 (AG) (BG) (AU) (AG) (BU) (AU) (BG) (AG) (AU) (BG)
                 (BU) (AG) (BU) (AG) (BG) (AU) (BU) (AG) (BG) (AU)
                 (BU) (BG) (BU) (AU) (AG) (BG) (BU) (AU) (AU) (AG)
                 (BG) (BU) (AG) (BG) (AU) (AU) (BU) (BG) (BU) (AG)
                 (AG) (AU) (BU) (BG) (AU) (BG) (BU) (AG) (AG) (BG)
                 (BU) (AU) (AG) (AU) (BG) (AG) (BU) (BG) (AU) (BU)
                 (BG) (BG) (AU) (AG) (BU) (AU) (BG) (AU) (BG) (BU)
                 (AG) (BU) (AG) (AU) (BG) (AG) (BU) (AU) (BG) (AU)
                 (BU) (BG) (AU) (BU) (BU) (AU) (AG) (BG) (AG) (AG)
                 (BG) (AU) (BG) (AU) (BU) (BG) (AG) (AG) (AU) (BU)
                 (BU) (AG) (BG) (AU) (BU) (BG) (BG) (BU) (BU) (AG)
                 (AU) (BG) (AU) (AG) (BG) (AG) (AU) (AU) (BU) (BG)
                 (AG) (BU) (BU) (AU) (AG) (BG) (AG) (BG) (BU) (AU)
                 (AG) (AU) (BU) (BG) (AG) (BG) (AG) (AU) (BU) (BU)
                 (AU) (BG) (AG) (BU) (BG) (AU) (AG) (AU) (BG) (AG)
                 (BU) (AU) (BG) (AU) (BG) (BU) (BU) (AG) (BU) (AG)
                 (BG) (AU) (BU) (AG) (AU) (BG) (BU) (AG) (AU) (AG)
                 (BU) (AU) (BG) (AG) (BU) (BG) (AG) (AU) (BG) (AU)
                 (AG) (BU) (BG) (AG) (BU) (BG) (AU) (AG) (BU) (BG)
                 (AU) (AU) (BG) (AG) (BU) (AG) (AU) (AU) (BG) (BU)
                 (BG) (BU) (AU) (AG) (AG) (BG) (BU) (AU) (AU) (AG)
                 (BU) (BG) (BG) (BU) (AU) (AG) (AG) (AG) (BG) (BU)
                 (AU) (BU) (BU) (AG) (BG) (AU) (BG) (BU) (AU) (BG)
                 (BU) (AG) (AU) (BG) (BG) (AU) (AG) (AU) (BG) (AG)
                 (BU) (BG) (AU) (BU) (BG) (BU) (AU) (AG) (BG) (BU)
                 (AU) (BG) (AU) (AG) (AG) (AU) (BG) (BU) (BG) (AG)
                 (AG) (AU) (BU) (AG) (AU) (BU) (BU) (AU) (BG) (BU)
                 (AG) (BG) (AU) (AG) (BG) (AU) (AG) (BU) (BU) (AG)
                 (BG) (AU) (BU) (AG) (BG) (AG) (AU) (BU) (BG) (AG)
                 (BG) (AU) (AU) (BU) (BG) (BU) (BU) (AU) (AG) (BG)
                 (AU) (AG) (BG) (AG) (AU) (AU) (BG) (BU) (AU) (BG)
                 (BG) (AU) (BU) (BU) (AG) (BG) (AG) (BG) (AU) (AG)
                 (BU) (AU) (BG) (BU) (AG) (BG) (AU) (BU) (BU) (AG)
                 (BG) (BG) (AU) (AG) (BU) (BG) (BU) (AG) (BG) (AU)
                 (AG) (BU) (AU) (AG) (BU) (AG) (AG) (AG) (AU) (BU)
                 (AU) (BU) (AU) (BU) (BG) (BG) (AU) (AG) (BU) (AG)
                 (AU) (BG) (BU) (BG) (AU) (BU) (AU) (AG) (AG) (BG)
                 (BG) (BG) (BU) (AU) (AG) (BU) (AG) (BG) (BU) (BG)
                 (BU) (AG) (AU) (AG) (BU) (AU) (AU) (BG) (BU) (AU)
                 (BU) (AG) (BG) (BU) (AG) (BG) (AG) (AU) (BU) (BG)
                 (BU) (BG) (AU) (AG) (BG) (AG) (AU) (BG) (BU) (BG)
                 (AG) (AU) (AU) (BG) (BU) (AG) (BU) (AG) (AU) (AG)
                 (BU) (BG) (AU) (BU) (AG) (BG) (AU) (BU) (AG) (BG)
                 (BU) (BU) (AG) (AU) (AG) (BU) (AG) (AU) (BG) (BG)
                 (AG) (BU) (AG) (BU) (AG) (BU) (AU) (BG) (AU) (AG)
                 (BU) (AG) (AG) (AU) (BU) (AG) (BU) (AG) (BU) (BG)
                 (BU) (BG) (AU) (AG) (BG) (BU) (BU) (BU) (AU) (AG)
                 (BG) (BU) (BG) (AG) (AG) (BU) (AU) (BG) (AG) (BG)
                 (AU) (BU) (BU) (AG) (AU) (BU) (BG) (AU) (AG) (AU)
                 (BG) (BU) (AG) (AU) (AG) (BG) (AG) (BG) (BU) (BG)
                 (BU) (AG) (AU) (BU) (BG) (AU) (AG) (AU) (AG) (BG)
                 (AG) (AU) (AU) (BG) (BU) (BG) (BU) (AU) (AU) (BG)
                 (AG) (AU) (AG) (BU) (BG) (AG) (BU) (BG) (AU) (AG)
                 (BG) (BU) (BU) (AG) (BU) (AU) (AG) (BG) (AG) (BG)
                 (BU) (AU) (AU) (AU) (AG) (BG) (AG) (BU) (AU) (AU)
                 (BG) (BG) (BU) (AU) (BG) (AG) (BG) (BU) (AU) (BG)
                 (AG) (BU) (BG) (AU) (BU) (BG) (AG) (BU) (BU) (AU)
                 (BG) (AG) (BU) (AU) (BU) (AG) (AG) (AU) (BG) (BG)
                 (BU) (AG) (BU) (AU) (BU) (BG) (AU) (BU) (BG) (AG)
                 (BU) (AU) (BG) (AU) (AG) (AU) (AG) (BG) (BU) (AG)
                 (AU) (BG) (BG) (AU) (BU) (AG) (BG) (AU) (BG) (BU)
                 (AG) (AU) (AU) (AG) (BU) (AG) (AG) (BU) (AU) (BU)
                 (AG) (AG) (BU) (AU) (AG) (AG) (BU) (BG) (AU) (BG)
                 (BU) (AG) (BG) (BU) (BG) (BU) (AG) (AG) (BU) (AU)
                 (AG) (BU) (AU) (BG) (AU) (BG) (BU) (AG) (BG) (AU)
                 (AG) (AG) (AG) (AU) (BG) (AU) (BG) (AU) (BU) (BG)
                 (AG) (AG) (BG) (BU) (AU) (BU) (AG) (BG) (AU) (BU)
                 (BU) (AU) (BG) (AG) (BU) (AG) (BG) (AU) (BU) (AU)
                 (BG) (AG) (BU) (BG) (AU) (AU) (BU) (AG) (BG) (AU)
                 (AG) (BU) (BU) (AG) (BG) (AU) (AG) (BG) (BU) (AU)
                 (AG) (BG) (BU) (AG) (AU) (AG) (BG) (AG) (BU) (BU)
                 (AU) (BG) (BU) (AG) (AU) (BG) (AG) (BU) (BG) (BU)
                 (AU) (AU) (BU) (AG) (BG) (AG) (BU) (AG) (BG) (AU)
                 (AG) (AU) (AG) (BU) (BG) (BU) (AU) (BG) (AU) (AG)
                 (AU) (BG) (BG) (AU) (BU) (BG) (BU) (AG) (AU) (AG)
                 (BU) (AG) (BG) (BU) (AU) (AG) (BG) (AU) (BU) (BG)
                 (AG) (AU) (BU) (BG) (AU) (AG) (BG) (AU) (BU) (AG)
                 (BU) (AG) (AU) (BU) (BG) (AG) (BU) (AU) (BU) (AG)
                 (BG) (AG) (AU) (BG) (BU) (AG) (BG) (BU) (AG) (AU)
                 (AG) (BG) (BU) (BU) (AG) (AU) (BU) (BG) (AU) (BU)
                 (AG) (AG) (BU) (AU) (AG) (BU) (AU) (AG) (BG) (BU)
                 (BG) (AU) (BU) (AG) (BG) (AG) (AU) (BG) (AU) (BU)
                 (BG) (BG) (AG) (BU) (AG) (BU) (AG) (AU) (AG) (BU)
                 (AU) (BG) (BU) (AG) (AU) (AG) (BG) (AG) (BU) (BG)
                 (AU) (BU) (BG) (AU) (BU) (BG) (AG) (BU) (AG) (AU)
                 (BG) (AU) (BG) (AU) (BG) (BU) (BG) (BU) (AU) (AG)
                 (AU) (BG) (BU) (AG) (BG) (AU) (AG) (BU) (BG) (AU)
                 (AU) (BU) (AG) (BG) (AG) (BU) (AU) (BG) (AU) (BU)
                 (BG) (BU) (BG) (AG) (AG) (AU) (BU) (BG) (BG) (BU)
                 (AU) (AG) (BU) (AU) (AU) (AG) (BU) (AG) (BG) (AU)
                 (BU) (BG) (BG) (AG) (AU) (BG) (BG) (AG) (AU) (BU)
                 (AU) (AU) (BU) (BG) (AG) (AU) (BG) (AU) (BU) (AG)
                 (BU) (BG) (AU) (AG) (BG) (BG) (AU) (BU) (AG) (AG)
                 (BG) (BU) (AG) (AU) (BU) (AG) (AU) (BU) (BG) (BG)
                 (AG) (AU) (BU) (AU) (BG) (AG) (AU) (AG) (BU) (AG)
                 (AU) (AG) (BG) (BG) (BU) (BU) (AU) (BG) (AU) (AG)
                 (BU) (AG) (BG) (AU) (BG) (BU) (AU) (AG) (BU) (BU)
                 (AG) (BG) (BU) (AG) (AU) (BG) (BU) (AG) (AU) (BG)
                 (BU) (AG) (BG) (AU) (BG) (AU) (AG) (BU) (BU) (BG)
                 (BU) (AG) (AU) (AG) (BU) (BG) (BG) (BU) (AU) (AG)
                 (AG) (BG) (BU) (AG) (AU) (BU) (AG) (BG) (AU) (AU)
                 (BU) (BG) (AU) (BU) (BG) (AG) (AG) (AU) (AG) (AU)
                 (BG) (BU) (BG) (AG) (AU) (BU) (BG) (AU) (BG) (AU)
                 (AU) (BG) (BU) (AG) (AU) (BU) (AG) (BG) (BG) (AG)
                 (BG) (AU) (AU) (AG) (BG) (AU) (BU) (BU) (AG) (AU)
                 (BG) (BG) (AG) (BU) (AU) (AG) (BU) (AG) (AU) (BU)
                 (AG) (AU) (AG) (BU) (BG) (BU) (AG) (BG) (AU) (AU)
                 (BG) (AG) (AU) (BU) (BG) (BU) (AG) (AU) (AU) (BG)
                 (AG) (BG) (BU) (AU) (AU) (BG) (AU) (BG) (BG) (AU)
                 (BU) (BG) (BG) (AG) (BU) (AG) (AU) (BU) (BG) (AU)
                 (BU) (AG) (AG) (BG) (AU) (AG) (BU) (BG) (AU) (BG)
                 (BU) (AG) (AU) (BU) (BG) (AG) (AU) (BU) (AG) (AU)
                 (AG) (AG) (AU) (BG) (BU) (AG) (BU) (AU) (BU) (AG)
                 (BG) (BU) (AG) (AG) (BU) (AU) (BU) (AG) (BG) (AU)
                 (BG) (AG) (BU) (AU) (BG) (BU) (AU) (BG) (AG) (AG)
                 (AU) (BU) (AU) (BG) (AU) (BG) (AU) (BU) (BG) (AU)
                 (AG) (BU) (BU) (AU) (BG) (AG) (BG) (AG) (AG) (BU)
                 (BU) (AG) (BG) (AU) (BU) (BG) (AU) (AG) (BG) (AG)
                 (BG) (AU) (BU) (AU) (BG) (AG) (BU) (BG) (BU) (AU)
                 (AU) (BG) (AG) (BG) (AU) (AG) (AU) (BG) (BU) (BG)
                 (BU) (AU) (AG) (BG) (AU) (BU) (BG) (AU) (BG) (BU)
                 (AG) (AG) (BU) (AG) (BG) (AU) (BU) (AU) (BU) (AG)
                 (AU) (BG) (AG) (BG) (BU) (AG) (BG) (AU) (BU) (AG)
                 (BU) (AU) (AG) (BG) (AU) (BU) (AG) (AU) (BG) (BU)
                 (BG) (AU) (AU) (BG) (BG) (BU) (BG) (AU) (AG) (AU)
                 (BU) (AG) (BU) (AG) (BU) (AG) (BG) (AU) (AG) (BG)
                 (BG) (AU) (BG) (BU) (AU) (AG) (BG) (BU) (AU) (BG)
                 (AU) (BG) (BU) (AG) (AU) (BG) (BU) (AU) (AU) (BG)
                 (BG) (BU) (AG) (BU) (AU) (BG) (AU) (BU) (AG) (BU)
                 (AU) (BU) (AG) (BG) (BU) (AU) (AG) (BU) (AU) (BG)
                 (BU) (AU) (AG) (AG) (AG) (AG) (AG) (AG) (AG) (AG)
                 (AG) (AG) (AG) (AG) (AG) (AG) (AG) (AG) (AG) (AG)
                 (AG) (AG) (AG) (AG) (AG) (AG) (AG) (AG) (AG) (AG)
                 (AG) (AG) (AG) (AG) (AG) (AG) (AG) (AG) (AG) (AG)
                 (AG) (AG) (AG) (AG) (AG) (AG) (AG) (AG) (AG) (AG)
                 (AG) (AG) (AG) (AG) (AG) (AG) (AG) (AG) (AG) (AG)
                 (AG) (AG) (AG) (AG) (AG) (AG) (AG) (AG) (AG) (AG)
                 (AG) (AG) (AG) (AG) (AG) (AG) (AG) (AG) (AG) (AG)
                 (AG) (AG) (AG) (AG) (AG) (AG) (AG) (AG) (AG) (AG)
                 (AG) (AG) (AG) (AG) (AG) (AG) (AG) (AG) (AG) (AG)
                 (AG) (AG) (AG) (AG) (AG) (AG) (AG) (AG) (AG) (AG)
                 (AG) (AG) (AG) (AG) (AG) (AG) (AG) (AG) (AG) (AG)
                 (AG) (AG) (AG) (AG) (AG) (AG) (AG) (AG) (AG) (AG)
                 (AG) (AG) (AG) (AG) (AG) (AG) (AG) (AG) (AG) (AG)
                 (AG) (AG) (AG) (AG) (AG) (AG) (AG) (AG) (AG) (AG)
                 (AG) (AG) (AG) (AG) (AG) (AG) (AG) (AG) (AG) (AG)
                 (AG) (AG) (AG) (AG) (AG) (AG) (AG) (AG) (AG) (AG)
                 (AG) (AG) (AG) (AG) (AG) (AG) (AG) (AG) (AG) (AG)
                 (AG) (AG) (AG) (AG) (AG) (AG) (AG) (AG) (AG) (AG)
                 (AG) (AG) (AG) (AG) (AG) (AG) (AG) (AG) (AG) (AG)
                 (AG) (AG) (AG) (AG) (AG) (AG) (AG) (AG) (AG) (AG)
                 (AG) (AG) (AG) (AG) (AG) (AG) (AG) (AG) (AG) (AG)
                 (AG) (AG) (AG) (AG) (AG) (AG) (AG) (AG) (AG) (AG)
                 (AG) (AG) (AG) (AG) (AG) (AG) (AG) (AG) (AG) (AG)
                 (AG) (AG) (AG) (AG) (AG) (AG) (AG) (AG) (AG) (AG)
                 (AG) (AG) (AG) (AG) (AG) (AG) (AG) (AG) (AG) (AG)
                 (AG) (AG) (AG) (AG) (AG) (AG) (AG) (AG) (AG) (AG)
                 (AG) (AG) (AG) (AG) (AG) (AG) (AG) (AG) (AG) (AG)
                 (AG) (AG) (AG) (AG) (AG) (AG) (AG) (AG) (AG) (AG)
                 (AG) (AG) (AG) (AG) (AG) (AG) (AG) (AG) (AG) (AG)
                 (AG) (AG) (AG) (AG) (AG) (AG) (AG) (AG) (AG) (AG)
                 (AG) (AG) (AG) (AG) (AG) (AG) (AG) (AG) (AG) (AG)
                 (AG) (AG) (AG) (AG) (AG) (AG) (AG) (AG) (AG) (AG)
                 (AG) (AG) (AG) (AG) (AG) (AG) (AG) (AG) (AG) (BG)
                 (BG) (BG) (BG) (BG) (BG) (BG) (BG) (BG) (BG) (BG)
                 (BG) (BG) (BG) (BG) (BG) (BG) (BG) (BG) (BG) (BG)
                 (BG) (BG) (BG) (BG) (BG) (BG) (BG) (BG) (BG) (BG)
                 (BG) (BG) (BG) (BG) (BG) (BG) (BG) (BG) (BG) (BG)
                 (BG) (BG) (BG) (BG) (BG) (BG) (BG) (BG) (BG) (BG)
                 (BG) (BG) (BG) (BG) (BG) (BG) (BG) (BG) (BG) (BG)
                 (BG) (BG) (BG) (BG) (BG) (BG) (BG) (BG) (BG) (BG)
                 (BG) (BG) (BG) (BG) (BG) (BG) (BG) (BG) (BG) (BG)
                 (BG) (BG) (BG) (BG) (BG) (BG) (BG) (BG) (BG) (BG)
                 (BG) (BG) (BG) (BG) (BG) (BG) (BG) (BG) (BG) (BG)
                 (BG) (BG) (BG) (BG) (BG) (BG) (BG) (BG) (BG) (BG)
                 (BG) (BG) (BG) (BG) (BG) (BG) (BG) (BG) (BG) (BG)
                 (BG) (BG) (BG) (BG) (BG) (BG) (BG) (BG) (BG) (BG)
                 (BG) (BG) (BG) (BG) (BG) (BG) (BG) (BG) (BG) (BG)
                 (BG) (BG) (BG) (BG) (BG) (BG) (BG) (BG) (BG) (BG)
                 (BG) (BG) (BG) (BG) (BG) (BG) (BG) (BG) (BG) (BG)
                 (BG) (BG) (BG) (BG) (BG) (BG) (BG) (BG) (BG) (BG)
                 (BG) (BG) (BG) (BG) (BG) (BG) (BG) (BG) (BG) (BG)
                 (BG) (BG) (BG) (BG) (BG) (BG) (BG) (BG) (BG) (BG)
                 (BG) (BG) (BG) (BG) (BG) (BG) (BG) (BG) (BG) (BG)
                 (BG) (BG) (BG) (BG) (BG) (BG) (BG) (BG) (BG) (BG)
                 (BG) (BG) (BG) (BG) (BG) (BG) (BG) (BG) (BG) (BG)
                 (BG) (BG) (BG) (BG) (BG) (BG) (BG) (BG) (BG) (BG)
                 (BG) (BG) (BG) (BG) (BG) (BG) (BG) (BG) (BG) (BG)
                 (BG) (BG) (BG) (BG) (BG) (BG) (BG) (BG) (BG) (BG)
                 (BG) (BG) (BG) (BG) (BG) (BG) (BG) (BG) (BG) (BG)
                 (BG) (BG) (BG) (BG) (BG) (BG) (BG) (BG) (BG) (BG)
                 (BG) (BG) (BG) (BG) (BG) (BG) (BG) (BG) (BG) (BG)
                 (BG) (BG) (BG) (BG) (BG) (BG) (BG) (BG) (BG) (BG)
                 (BG) (BG) (BG) (BG) (BG) (BG) (BG) (BG) (BG) (BG)
                 (BG) (BG) (BG) (BG) (BG) (BG) (BG) (BG) (BG) (BG)
                 (BG) (BG) (AU) (AU) (AU) (AU) (AU) (AU) (AU) (AU)
                 (AU) (AU) (AU) (AU) (AU) (AU) (AU) (AU) (AU) (AU)
                 (AU) (AU) (AU) (AU) (AU) (AU) (AU) (AU) (AU) (AU)
                 (AU) (AU) (AU) (AU) (AU) (AU) (AU) (AU) (AU) (AU)
                 (AU) (AU) (AU) (AU) (AU) (AU) (AU) (AU) (AU) (AU)
                 (AU) (AU) (AU) (AU) (AU) (AU) (AU) (AU) (AU) (AU)
                 (AU) (AU) (AU) (AU) (AU) (AU) (AU) (AU) (AU) (AU)
                 (AU) (AU) (AU) (AU) (AU) (AU) (AU) (AU) (AU) (AU)
                 (AU) (AU) (AU) (AU) (AU) (AU) (AU) (AU) (AU) (AU)
                 (AU) (AU) (AU) (AU) (AU) (AU) (AU) (AU) (AU) (AU)
                 (AU) (AU) (AU) (AU) (AU) (AU) (AU) (AU) (AU) (AU)
                 (AU) (AU) (AU) (AU) (AU) (AU) (AU) (AU) (AU) (AU)
                 (AU) (AU) (AU) (AU) (AU) (AU) (AU) (AU) (AU) (AU)
                 (AU) (AU) (AU) (AU) (AU) (AU) (AU) (AU) (AU) (AU)
                 (AU) (AU) (AU) (AU) (AU) (AU) (AU) (AU) (AU) (AU)
                 (AU) (AU) (AU) (AU) (AU) (AU) (AU) (AU) (AU) (AU)
                 (AU) (AU) (AU) (AU) (AU) (AU) (AU) (AU) (AU) (AU)
                 (AU) (AU) (AU) (AU) (AU) (AU) (AU) (AU) (AU) (AU)
                 (AU) (AU) (AU) (AU) (AU) (AU) (AU) (AU) (AU) (AU)
                 (AU) (AU) (AU) (AU) (AU) (AU) (AU) (AU) (AU) (AU)
                 (AU) (AU) (AU) (AU) (AU) (AU) (AU) (AU) (AU) (AU)
                 (AU) (AU) (AU) (AU) (AU) (AU) (AU) (AU) (AU) (AU)
                 (AU) (AU) (AU) (AU) (AU) (AU) (AU) (AU) (AU) (AU)
                 (AU) (AU) (AU) (AU) (AU) (AU) (AU) (AU) (AU) (AU)
                 (AU) (AU) (AU) (AU) (AU) (AU) (AU) (AU) (AU) (AU)
                 (AU) (AU) (AU) (AU) (AU) (AU) (AU) (AU) (AU) (AU)
                 (AU) (AU) (AU) (AU) (AU) (AU) (AU) (AU) (AU) (AU)
                 (AU) (AU) (AU) (AU) (AU) (AU) (AU) (AU) (AU) (AU)
                 (AU) (AU) (AU) (AU) (AU) (AU) (AU) (AU) (AU) (AU)
                 (AU) (AU) (AU) (AU) (AU) (AU) (AU) (AU) (AU) (AU)
                 (AU) (AU) (AU) (AU) (AU) (AU) (AU) (AU) (AU) (AU)
                 (AU) (AU) (AU) (AU) (AU) (BU) (BU) (BU) (BU) (BU)
                 (BU) (BU) (BU) (BU) (BU) (BU) (BU) (BU) (BU) (BU)
                 (BU) (BU) (BU) (BU) (BU) (BU) (BU) (BU) (BU) (BU)
                 (BU) (BU) (BU) (BU) (BU) (BU) (BU) (BU) (BU) (BU)
                 (BU) (BU) (BU) (BU) (BU) (BU) (BU) (BU) (BU) (BU)
                 (BU) (BU) (BU) (BU) (BU) (BU) (BU) (BU) (BU) (BU)
                 (BU) (BU) (BU) (BU) (BU) (BU) (BU) (BU) (BU) (BU)
                 (BU) (BU) (BU) (BU) (BU) (BU) (BU) (BU) (BU) (BU)
                 (BU) (BU) (BU) (BU) (BU) (BU) (BU) (BU) (BU) (BU)
                 (BU) (BU) (BU) (BU) (BU) (BU) (BU) (BU) (BU) (BU)
                 (BU) (BU) (BU) (BU) (BU) (BU) (BU) (BU) (BU) (BU)
                 (BU) (BU) (BU) (BU) (BU) (BU) (BU) (BU) (BU) (BU)
                 (BU) (BU) (BU) (BU) (BU) (BU) (BU) (BU) (BU) (BU)
                 (BU) (BU) (BU) (BU) (BU) (BU) (BU) (BU) (BU) (BU)
                 (BU) (BU) (BU) (BU) (BU) (BU) (BU) (BU) (BU) (BU)
                 (BU) (BU) (BU) (BU) (BU) (BU) (BU) (BU) (BU) (BU)
                 (BU) (BU) (BU) (BU) (BU) (BU) (BU) (BU) (BU) (BU)
                 (BU) (BU) (BU) (BU) (BU) (BU) (BU) (BU) (BU) (BU)
                 (BU) (BU) (BU) (BU) (BU) (BU) (BU) (BU) (BU) (BU)
                 (BU) (BU) (BU) (BU) (BU) (BU) (BU) (BU) (BU) (BU)
                 (BU) (BU) (BU) (BU) (BU) (BU) (BU) (BU) (BU) (BU)
                 (BU) (BU) (BU) (BU) (BU) (BU) (BU) (BU) (BU) (BU)
                 (BU) (BU) (BU) (BU) (BU) (BU) (BU) (BU) (BU) (BU)
                 (BU) (BU) (BU) (BU) (BU) (BU) (BU) (BU) (BU) (BU)
                 (BU) (BU) (BU) (BU) (BU) (BU) (BU) (BU) (BU) (BU)
                 (BU) (BU) (BU) (BU) (BU) (BU) (BU) (BU) (BU) (BU)
                 (BU) (BU) (BU) (BU) (BU) (BU) (BU) (BU) (BU) (BU)
                 (BU) (BU) (BU) (BU) (BU) (BU) (BU) (BU) (BU) (BU)
                 (BU) (BU) (BU) (BU) (BU) (BU) (BU) (BU) (BU) (BU)
                 (BU) (BU) (BU) (BU) (BU) (BU) (BU) (BU) (BU) (BU)
                 (BU) (BU) (BU) (BU) (BU) (BU) (BU) (BU) (BU) (BU)
                 (BU) (BU) (BU) (BU) (BU) (BU) (BU) (BU) (BU) (BU)
                 (BU) (BU) (BU) (BU) (BU) (BU) (BU) (BU) (BU) (BU)
                 (BU) (BU) (BU) (BU) (BU) (BU) (BU)
 The electronic state of the initial guess is 1-AG.
 Leave Link  401 at Wed Oct 22 07:15:06 2025, MaxMem= 13421772800 cpu:       161.4
 (Enter /opt/g09/l502.exe)
 Closed shell SCF:
 Using DIIS extrapolation, IDIIS=  1040.
 Integral symmetry usage will be decided dynamically.
 IVT=    38386921 IEndB=    38386921 NGot= 13421772800 MDV= 13396172422
 LenX= 13396172422 LenY= 13383402520
 Requested convergence on RMS density matrix=1.00D-08 within 128 cycles.
 Requested convergence on MAX density matrix=1.00D-06.
 Requested convergence on             energy=1.00D-06.
 No special actions if energy rises.
 Fock matrices will be formed incrementally for  20 cycles.

 Cycle   1  Pass 1  IDiag  1:
 FoFJK:  IHMeth= 1 ICntrl=       0 DoSepK=T KAlg= 0 I1Cent=   0 FoldK=F
 IRaf=         1 NMat=   1 IRICut=       1 DoRegI=T DoRafI=F ISym2E= 1.
 FoFCou: FMM=F IPFlag=           0 FMFlag=      100000 FMFlg1=        2000
         NFxFlg=           0 DoJE=T BraDBF=F KetDBF=F FulRan=T
         wScrn=  0.000000 ICntrl=     500 IOpCl=  0 I1Cent=           0 NGrid=           0
         NMat0=    1 NMatS0=      1 NMatT0=    0 NMatD0=    1 NMtDS0=    0 NMtDT0=    0
 Petite list used in FoFCou.
 E= -10324.6683728859    
 DIIS: error= 8.57D-02 at cycle   1 NSaved=   1.
 NSaved= 1 IEnMin= 1 EnMin= -10324.6683728859     IErMin= 1 ErrMin= 8.57D-02
 ErrMax= 8.57D-02  0.00D+00 EMaxC= 1.00D-01 BMatC= 2.73D+01 BMatP= 2.73D+01
 IDIUse=3 WtCom= 1.43D-01 WtEn= 8.57D-01
 Coeff-Com:  0.100D+01
 Coeff-En:   0.100D+01
 Coeff:      0.100D+01
 Gap=     0.162 Goal=   None    Shift=    0.000
 GapD=    0.162 DampG=1.000 DampE=0.250 DampFc=0.2500 IDamp=-1.
 Damping current iteration by 2.50D-01
 RMSDP=2.09D-02 MaxDP=5.07D+00              OVMax= 3.03D-02

 Cycle   2  Pass 1  IDiag  1:
 RMSU=  9.64D-04    CP:  7.76D-01
 E= -10325.2546324618     Delta-E=       -0.586259575881 Rises=F Damp=T
 DIIS: error= 6.46D-02 at cycle   2 NSaved=   2.
 NSaved= 2 IEnMin= 2 EnMin= -10325.2546324618     IErMin= 2 ErrMin= 6.46D-02
 ErrMax= 6.46D-02  0.00D+00 EMaxC= 1.00D-01 BMatC= 1.55D+01 BMatP= 2.73D+01
 IDIUse=3 WtCom= 3.54D-01 WtEn= 6.46D-01
 Coeff-Com: -0.305D+01 0.405D+01
 Coeff-En:   0.000D+00 0.100D+01
 Coeff:     -0.108D+01 0.208D+01
 Gap=     0.160 Goal=   None    Shift=    0.000
 RMSDP=1.59D-02 MaxDP=3.83D+00 DE=-5.86D-01 OVMax= 6.55D-03

 Cycle   3  Pass 1  IDiag  1:
 RMSU=  1.07D-03    CP:  9.59D-02  3.00D+00
 E= -10327.0712219468     Delta-E=       -1.816589485024 Rises=F Damp=F
 DIIS: error= 1.26D-03 at cycle   3 NSaved=   3.
 NSaved= 3 IEnMin= 3 EnMin= -10327.0712219468     IErMin= 3 ErrMin= 1.26D-03
 ErrMax= 1.26D-03  0.00D+00 EMaxC= 1.00D-01 BMatC= 5.71D-03 BMatP= 1.55D+01
 IDIUse=3 WtCom= 9.87D-01 WtEn= 1.26D-02
 Coeff-Com: -0.420D+00 0.550D+00 0.870D+00
 Coeff-En:   0.000D+00 0.000D+00 0.100D+01
 Coeff:     -0.415D+00 0.543D+00 0.871D+00
 Gap=     0.160 Goal=   None    Shift=    0.000
 RMSDP=3.91D-04 MaxDP=4.46D-02 DE=-1.82D+00 OVMax= 4.42D-03

 Cycle   4  Pass 1  IDiag  1:
 RMSU=  3.40D-04    CP:  9.12D-02  3.00D+00  1.15D+00
 E= -10327.0741785191     Delta-E=       -0.002956572294 Rises=F Damp=F
 DIIS: error= 1.15D-03 at cycle   4 NSaved=   4.
 NSaved= 4 IEnMin= 4 EnMin= -10327.0741785191     IErMin= 4 ErrMin= 1.15D-03
 ErrMax= 1.15D-03  0.00D+00 EMaxC= 1.00D-01 BMatC= 1.65D-03 BMatP= 5.71D-03
 IDIUse=3 WtCom= 9.88D-01 WtEn= 1.15D-02
 Coeff-Com:  0.405D+00-0.541D+00 0.350D+00 0.786D+00
 Coeff-En:   0.000D+00 0.000D+00 0.000D+00 0.100D+01
 Coeff:      0.401D+00-0.535D+00 0.346D+00 0.788D+00
 Gap=     0.160 Goal=   None    Shift=    0.000
 RMSDP=5.68D-05 MaxDP=5.34D-03 DE=-2.96D-03 OVMax= 2.29D-03

 Cycle   5  Pass 1  IDiag  1:
 RMSU=  3.04D-05    CP:  9.10D-02  3.00D+00  1.16D+00  1.13D+00
 E= -10327.0747488806     Delta-E=       -0.000570361459 Rises=F Damp=F
 DIIS: error= 2.19D-04 at cycle   5 NSaved=   5.
 NSaved= 5 IEnMin= 5 EnMin= -10327.0747488806     IErMin= 5 ErrMin= 2.19D-04
 ErrMax= 2.19D-04  0.00D+00 EMaxC= 1.00D-01 BMatC= 9.75D-05 BMatP= 1.65D-03
 IDIUse=3 WtCom= 9.98D-01 WtEn= 2.19D-03
 Coeff-Com:  0.964D-01-0.128D+00 0.186D-01 0.244D+00 0.769D+00
 Coeff-En:   0.000D+00 0.000D+00 0.000D+00 0.000D+00 0.100D+01
 Coeff:      0.962D-01-0.128D+00 0.186D-01 0.244D+00 0.769D+00
 Gap=     0.160 Goal=   None    Shift=    0.000
 RMSDP=2.35D-05 MaxDP=2.53D-03 DE=-5.70D-04 OVMax= 9.21D-04

 Cycle   6  Pass 1  IDiag  1:
 RMSU=  9.85D-06    CP:  9.12D-02  3.00D+00  1.17D+00  1.19D+00  1.24D+00
 E= -10327.0748158283     Delta-E=       -0.000066947723 Rises=F Damp=F
 DIIS: error= 3.48D-05 at cycle   6 NSaved=   6.
 NSaved= 6 IEnMin= 6 EnMin= -10327.0748158283     IErMin= 6 ErrMin= 3.48D-05
 ErrMax= 3.48D-05  0.00D+00 EMaxC= 1.00D-01 BMatC= 6.26D-06 BMatP= 9.75D-05
 IDIUse=1 WtCom= 1.00D+00 WtEn= 0.00D+00
 Coeff-Com:  0.393D-02-0.509D-02-0.170D-01 0.328D-01 0.259D+00 0.727D+00
 Coeff:      0.393D-02-0.509D-02-0.170D-01 0.328D-01 0.259D+00 0.727D+00
 Gap=     0.159 Goal=   None    Shift=    0.000
 RMSDP=6.54D-06 MaxDP=5.28D-04 DE=-6.69D-05 OVMax= 9.53D-04

 Cycle   7  Pass 1  IDiag  1:
 RMSU=  2.72D-06    CP:  9.12D-02  3.00D+00  1.17D+00  1.20D+00  1.37D+00
                    CP:  1.16D+00
 E= -10327.0748220622     Delta-E=       -0.000006233880 Rises=F Damp=F
 DIIS: error= 2.92D-05 at cycle   7 NSaved=   7.
 NSaved= 7 IEnMin= 7 EnMin= -10327.0748220622     IErMin= 7 ErrMin= 2.92D-05
 ErrMax= 2.92D-05  0.00D+00 EMaxC= 1.00D-01 BMatC= 2.26D-06 BMatP= 6.26D-06
 IDIUse=1 WtCom= 1.00D+00 WtEn= 0.00D+00
 Coeff-Com: -0.151D-01 0.202D-01-0.127D-01-0.270D-01 0.586D-02 0.401D+00
 Coeff-Com:  0.628D+00
 Coeff:     -0.151D-01 0.202D-01-0.127D-01-0.270D-01 0.586D-02 0.401D+00
 Coeff:      0.628D+00
 Gap=     0.159 Goal=   None    Shift=    0.000
 RMSDP=2.77D-06 MaxDP=2.32D-04 DE=-6.23D-06 OVMax= 4.30D-04

 Cycle   8  Pass 1  IDiag  1:
 RMSU=  1.25D-06    CP:  9.12D-02  3.00D+00  1.17D+00  1.20D+00  1.42D+00
                    CP:  1.28D+00  9.15D-01
 E= -10327.0748246758     Delta-E=       -0.000002613582 Rises=F Damp=F
 DIIS: error= 1.05D-05 at cycle   8 NSaved=   8.
 NSaved= 8 IEnMin= 8 EnMin= -10327.0748246758     IErMin= 8 ErrMin= 1.05D-05
 ErrMax= 1.05D-05  0.00D+00 EMaxC= 1.00D-01 BMatC= 2.88D-07 BMatP= 2.26D-06
 IDIUse=1 WtCom= 1.00D+00 WtEn= 0.00D+00
 Coeff-Com: -0.739D-02 0.984D-02-0.305D-02-0.189D-01-0.395D-01 0.885D-01
 Coeff-Com:  0.297D+00 0.674D+00
 Coeff:     -0.739D-02 0.984D-02-0.305D-02-0.189D-01-0.395D-01 0.885D-01
 Coeff:      0.297D+00 0.674D+00
 Gap=     0.159 Goal=   None    Shift=    0.000
 RMSDP=1.20D-06 MaxDP=8.82D-05 DE=-2.61D-06 OVMax= 2.12D-04

 Cycle   9  Pass 1  IDiag  1:
 RMSU=  4.55D-07    CP:  9.12D-02  3.00D+00  1.17D+00  1.20D+00  1.45D+00
                    CP:  1.32D+00  1.09D+00  1.01D+00
 E= -10327.0748250802     Delta-E=       -0.000000404449 Rises=F Damp=F
 DIIS: error= 4.04D-06 at cycle   9 NSaved=   9.
 NSaved= 9 IEnMin= 9 EnMin= -10327.0748250802     IErMin= 9 ErrMin= 4.04D-06
 ErrMax= 4.04D-06  0.00D+00 EMaxC= 1.00D-01 BMatC= 5.40D-08 BMatP= 2.88D-07
 IDIUse=1 WtCom= 1.00D+00 WtEn= 0.00D+00
 Coeff-Com:  0.294D-03-0.404D-03 0.171D-02-0.273D-02-0.212D-01-0.437D-01
 Coeff-Com: -0.729D-02 0.303D+00 0.770D+00
 Coeff:      0.294D-03-0.404D-03 0.171D-02-0.273D-02-0.212D-01-0.437D-01
 Coeff:     -0.729D-02 0.303D+00 0.770D+00
 Gap=     0.159 Goal=   None    Shift=    0.000
 RMSDP=5.09D-07 MaxDP=6.20D-05 DE=-4.04D-07 OVMax= 6.02D-05

 Cycle  10  Pass 1  IDiag  1:
 RMSU=  1.61D-07    CP:  9.13D-02  3.00D+00  1.17D+00  1.20D+00  1.45D+00
                    CP:  1.35D+00  1.14D+00  1.20D+00  1.19D+00
 E= -10327.0748251797     Delta-E=       -0.000000099513 Rises=F Damp=F
 DIIS: error= 2.23D-06 at cycle  10 NSaved=  10.
 NSaved=10 IEnMin=10 EnMin= -10327.0748251797     IErMin=10 ErrMin= 2.23D-06
 ErrMax= 2.23D-06  0.00D+00 EMaxC= 1.00D-01 BMatC= 1.25D-08 BMatP= 5.40D-08
 IDIUse=1 WtCom= 1.00D+00 WtEn= 0.00D+00
 Coeff-Com:  0.145D-02-0.194D-02 0.132D-02 0.197D-02-0.302D-02-0.299D-01
 Coeff-Com: -0.583D-01 0.168D-01 0.367D+00 0.705D+00
 Coeff:      0.145D-02-0.194D-02 0.132D-02 0.197D-02-0.302D-02-0.299D-01
 Coeff:     -0.583D-01 0.168D-01 0.367D+00 0.705D+00
 Gap=     0.159 Goal=   None    Shift=    0.000
 RMSDP=1.59D-07 MaxDP=1.44D-05 DE=-9.95D-08 OVMax= 4.88D-05

 Cycle  11  Pass 1  IDiag  1:
 RMSU=  8.63D-08    CP:  9.13D-02  3.00D+00  1.17D+00  1.20D+00  1.46D+00
                    CP:  1.35D+00  1.16D+00  1.24D+00  1.38D+00  1.05D+00
 E= -10327.0748252048     Delta-E=       -0.000000025095 Rises=F Damp=F
 DIIS: error= 8.14D-07 at cycle  11 NSaved=  11.
 NSaved=11 IEnMin=11 EnMin= -10327.0748252048     IErMin=11 ErrMin= 8.14D-07
 ErrMax= 8.14D-07  0.00D+00 EMaxC= 1.00D-01 BMatC= 1.79D-09 BMatP= 1.25D-08
 IDIUse=1 WtCom= 1.00D+00 WtEn= 0.00D+00
 Coeff-Com:  0.345D-03-0.458D-03-0.592D-05 0.112D-02 0.378D-02 0.386D-02
 Coeff-Com: -0.209D-01-0.699D-01-0.657D-01 0.205D+00 0.943D+00
 Coeff:      0.345D-03-0.458D-03-0.592D-05 0.112D-02 0.378D-02 0.386D-02
 Coeff:     -0.209D-01-0.699D-01-0.657D-01 0.205D+00 0.943D+00
 Gap=     0.159 Goal=   None    Shift=    0.000
 RMSDP=6.68D-08 MaxDP=8.42D-06 DE=-2.51D-08 OVMax= 4.40D-05

 Cycle  12  Pass 1  IDiag  1:
 RMSU=  4.19D-08    CP:  9.13D-02  3.00D+00  1.17D+00  1.20D+00  1.46D+00
                    CP:  1.35D+00  1.16D+00  1.25D+00  1.44D+00  1.20D+00
                    CP:  1.33D+00
 E= -10327.0748252117     Delta-E=       -0.000000006847 Rises=F Damp=F
 DIIS: error= 5.62D-07 at cycle  12 NSaved=  12.
 NSaved=12 IEnMin=12 EnMin= -10327.0748252117     IErMin=12 ErrMin= 5.62D-07
 ErrMax= 5.62D-07  0.00D+00 EMaxC= 1.00D-01 BMatC= 5.58D-10 BMatP= 1.79D-09
 IDIUse=1 WtCom= 1.00D+00 WtEn= 0.00D+00
 Coeff-Com: -0.700D-04 0.946D-04-0.194D-03 0.149D-03 0.198D-02 0.680D-02
 Coeff-Com: -0.273D-02-0.276D-01-0.748D-01-0.336D-01 0.382D+00 0.748D+00
 Coeff:     -0.700D-04 0.946D-04-0.194D-03 0.149D-03 0.198D-02 0.680D-02
 Coeff:     -0.273D-02-0.276D-01-0.748D-01-0.336D-01 0.382D+00 0.748D+00
 Gap=     0.159 Goal=   None    Shift=    0.000
 RMSDP=3.50D-08 MaxDP=2.60D-06 DE=-6.85D-09 OVMax= 2.49D-05

 Cycle  13  Pass 1  IDiag  1:
 RMSU=  1.79D-08    CP:  9.13D-02  3.00D+00  1.17D+00  1.20D+00  1.46D+00
                    CP:  1.35D+00  1.16D+00  1.25D+00  1.45D+00  1.24D+00
                    CP:  1.58D+00  1.31D+00
 E= -10327.0748252153     Delta-E=       -0.000000003587 Rises=F Damp=F
 DIIS: error= 4.52D-07 at cycle  13 NSaved=  13.
 NSaved=13 IEnMin=13 EnMin= -10327.0748252153     IErMin=13 ErrMin= 4.52D-07
 ErrMax= 4.52D-07  0.00D+00 EMaxC= 1.00D-01 BMatC= 2.39D-10 BMatP= 5.58D-10
 IDIUse=1 WtCom= 1.00D+00 WtEn= 0.00D+00
 Coeff-Com: -0.189D-03 0.252D-03-0.987D-04-0.411D-03-0.678D-03 0.247D-02
 Coeff-Com:  0.512D-02 0.203D-01-0.102D-01-0.108D+00-0.175D+00 0.337D+00
 Coeff-Com:  0.930D+00
 Coeff:     -0.189D-03 0.252D-03-0.987D-04-0.411D-03-0.678D-03 0.247D-02
 Coeff:      0.512D-02 0.203D-01-0.102D-01-0.108D+00-0.175D+00 0.337D+00
 Coeff:      0.930D+00
 Gap=     0.159 Goal=   None    Shift=    0.000
 RMSDP=3.38D-08 MaxDP=2.25D-06 DE=-3.59D-09 OVMax= 2.96D-05

 Cycle  14  Pass 1  IDiag  1:
 RMSU=  1.39D-08    CP:  9.13D-02  3.00D+00  1.17D+00  1.20D+00  1.46D+00
                    CP:  1.35D+00  1.15D+00  1.25D+00  1.46D+00  1.25D+00
                    CP:  1.75D+00  1.80D+00  1.60D+00
 E= -10327.0748252168     Delta-E=       -0.000000001535 Rises=F Damp=F
 DIIS: error= 3.12D-07 at cycle  14 NSaved=  14.
 NSaved=14 IEnMin=14 EnMin= -10327.0748252168     IErMin=14 ErrMin= 3.12D-07
 ErrMax= 3.12D-07  0.00D+00 EMaxC= 1.00D-01 BMatC= 1.08D-10 BMatP= 2.39D-10
 IDIUse=1 WtCom= 1.00D+00 WtEn= 0.00D+00
 Coeff-Com: -0.294D-04 0.387D-04 0.390D-04-0.146D-03-0.913D-03-0.138D-02
 Coeff-Com:  0.353D-03 0.202D-01 0.172D-01-0.244D-01-0.165D+00-0.165D+00
 Coeff-Com:  0.251D+00 0.107D+01
 Coeff:     -0.294D-04 0.387D-04 0.390D-04-0.146D-03-0.913D-03-0.138D-02
 Coeff:      0.353D-03 0.202D-01 0.172D-01-0.244D-01-0.165D+00-0.165D+00
 Coeff:      0.251D+00 0.107D+01
 Gap=     0.159 Goal=   None    Shift=    0.000
 RMSDP=2.73D-08 MaxDP=1.68D-06 DE=-1.54D-09 OVMax= 2.61D-05

 Cycle  15  Pass 1  IDiag  1:
 RMSU=  6.64D-09    CP:  9.13D-02  3.00D+00  1.17D+00  1.20D+00  1.46D+00
                    CP:  1.35D+00  1.15D+00  1.25D+00  1.45D+00  1.27D+00
                    CP:  1.85D+00  2.21D+00  2.29D+00  1.85D+00
 E= -10327.0748252166     Delta-E=        0.000000000211 Rises=F Damp=F
 DIIS: error= 2.40D-07 at cycle  15 NSaved=  15.
 NSaved=15 IEnMin=14 EnMin= -10327.0748252168     IErMin=15 ErrMin= 2.40D-07
 ErrMax= 2.40D-07  0.00D+00 EMaxC= 1.00D-01 BMatC= 6.25D-11 BMatP= 1.08D-10
 IDIUse=1 WtCom= 1.00D+00 WtEn= 0.00D+00
 Coeff-Com:  0.105D-03-0.140D-03 0.914D-04 0.173D-03-0.190D-03-0.239D-02
 Coeff-Com: -0.419D-02 0.449D-02 0.149D-01 0.473D-01-0.797D-03-0.319D+00
 Coeff-Com: -0.395D+00 0.720D+00 0.935D+00
 Coeff:      0.105D-03-0.140D-03 0.914D-04 0.173D-03-0.190D-03-0.239D-02
 Coeff:     -0.419D-02 0.449D-02 0.149D-01 0.473D-01-0.797D-03-0.319D+00
 Coeff:     -0.395D+00 0.720D+00 0.935D+00
 Gap=     0.159 Goal=   None    Shift=    0.000
 RMSDP=2.59D-08 MaxDP=1.55D-06 DE= 2.11D-10 OVMax= 2.65D-05

 Cycle  16  Pass 1  IDiag  1:
 RMSU=  5.27D-09    CP:  9.13D-02  3.00D+00  1.17D+00  1.20D+00  1.46D+00
                    CP:  1.35D+00  1.15D+00  1.25D+00  1.46D+00  1.29D+00
                    CP:  1.93D+00  2.54D+00  3.00D+00  2.77D+00  1.91D+00
 E= -10327.0748252169     Delta-E=       -0.000000000327 Rises=F Damp=F
 DIIS: error= 1.39D-07 at cycle  16 NSaved=  16.
 NSaved=16 IEnMin=16 EnMin= -10327.0748252169     IErMin=16 ErrMin= 1.39D-07
 ErrMax= 1.39D-07  0.00D+00 EMaxC= 1.00D-01 BMatC= 1.84D-11 BMatP= 6.25D-11
 IDIUse=1 WtCom= 1.00D+00 WtEn= 0.00D+00
 Coeff-Com:  0.510D-04-0.679D-04 0.131D-04 0.125D-03 0.373D-03-0.619D-05
 Coeff-Com: -0.231D-02-0.606D-02-0.577D-02 0.301D-01 0.854D-01-0.443D-01
 Coeff-Com: -0.258D+00-0.229D+00 0.290D+00 0.114D+01
 Coeff:      0.510D-04-0.679D-04 0.131D-04 0.125D-03 0.373D-03-0.619D-05
 Coeff:     -0.231D-02-0.606D-02-0.577D-02 0.301D-01 0.854D-01-0.443D-01
 Coeff:     -0.258D+00-0.229D+00 0.290D+00 0.114D+01
 Gap=     0.159 Goal=   None    Shift=    0.000
 RMSDP=1.91D-08 MaxDP=1.67D-06 DE=-3.27D-10 OVMax= 1.85D-05

 Cycle  17  Pass 1  IDiag  1:
 RMSU=  1.10D-08    CP:  9.13D-02  3.00D+00  1.17D+00  1.20D+00  1.46D+00
                    CP:  1.35D+00  1.15D+00  1.25D+00  1.46D+00  1.31D+00
                    CP:  1.97D+00  2.76D+00  3.00D+00  3.00D+00  2.78D+00
                    CP:  1.93D+00
 E= -10327.0748252161     Delta-E=        0.000000000837 Rises=F Damp=F
 DIIS: error= 6.90D-08 at cycle  17 NSaved=  17.
 NSaved=17 IEnMin=16 EnMin= -10327.0748252169     IErMin=17 ErrMin= 6.90D-08
 ErrMax= 6.90D-08  0.00D+00 EMaxC= 1.00D-01 BMatC= 5.43D-12 BMatP= 1.84D-11
 IDIUse=1 WtCom= 1.00D+00 WtEn= 0.00D+00
 Coeff-Com: -0.138D-04 0.185D-04-0.253D-04-0.376D-05 0.227D-03 0.848D-03
 Coeff-Com:  0.108D-03-0.358D-02-0.830D-02-0.140D-02 0.366D-01 0.801D-01
 Coeff-Com:  0.211D-01-0.328D+00-0.173D+00 0.540D+00 0.836D+00
 Coeff:     -0.138D-04 0.185D-04-0.253D-04-0.376D-05 0.227D-03 0.848D-03
 Coeff:      0.108D-03-0.358D-02-0.830D-02-0.140D-02 0.366D-01 0.801D-01
 Coeff:      0.211D-01-0.328D+00-0.173D+00 0.540D+00 0.836D+00
 Gap=     0.159 Goal=   None    Shift=    0.000
 RMSDP=7.75D-09 MaxDP=9.87D-07 DE= 8.37D-10 OVMax= 7.42D-06

 SCF Done:  E(RLC-B+HF-LYP) =  -10327.0748252     A.U. after   17 cycles
            NFock= 17  Conv=0.78D-08     -V/T= 2.0026
 KE= 1.030023926602D+04 PE=-9.423667823806D+04 EE= 3.869246053991D+04
 Leave Link  502 at Wed Oct 22 09:41:21 2025, MaxMem= 13421772800 cpu:     70184.5
 (Enter /opt/g09/l801.exe)
 ExpMin= 4.78D-02 ExpMax= 4.06D+05 ExpMxC= 3.92D+03 IAcc=3 IRadAn=         5 AccDes= 0.00D+00
 HarFok:  IExCor=  205 AccDes= 0.00D+00 IRadAn=         5 IDoV=-2 UseB2=F ITyADJ=14
 ICtDFT= 12500011 ScaDFX=  1.000000  1.000000  1.000000  1.000000
 Largest valence mixing into a core orbital is  2.97D-04
 Largest core mixing into a valence orbital is  5.14D-05
 Range of M.O.s used for correlation:   148  3308
 NBasis=  3312 NAE=   441 NBE=   441 NFC=   147 NFV=     0
 NROrb=   3161 NOA=   294 NOB=   294 NVA=  2867 NVB=  2867

 **** Warning!!: The largest alpha MO coefficient is  0.38947879D+02

 Leave Link  801 at Wed Oct 22 09:41:22 2025, MaxMem= 13421772800 cpu:         6.7
 (Enter /opt/g09/l914.exe)
 RHF ground state
 MDV= 13421772800 DFT=T DoStab=F Mixed=T DoRPA=T DoScal=F NonHer=T
 Would need an additional      37611359400000 words for in-memory AO integral storage.
 Making orbital integer symmetry assigments:
 Orbital symmetries:
       Occupied  (BU) (AG) (AG) (BU) (AG) (AG) (AG) (BU) (BU) (AG)
                 (BU) (BG) (AU) (BU) (AU) (BU) (AG) (AG) (BU) (AG)
                 (BU) (BU) (AG) (BG) (AU) (AG) (AU) (BG) (AU) (BU)
                 (AG) (BG) (AU) (BU) (AG) (BG) (AU) (BU) (AG) (AU)
                 (BG) (BU) (AG) (BG) (AU) (BU) (AG) (BG) (AU) (AG)
                 (BU) (AU) (BG) (BU) (AG) (BG) (AU) (BU) (AG) (BG)
                 (BU) (AU) (AG) (BU) (AG) (AU) (BG) (BU) (AG) (BG)
                 (AU) (BU) (AG) (BG) (AU) (BG) (AU) (BU) (AG) (AG)
                 (BU) (AU) (BG) (BG) (BU) (AU) (AG) (BU) (AG) (BU)
                 (AG) (BG) (AU) (BG) (AU) (AU) (AG) (BG) (AU) (BU)
                 (AG) (BG) (BU) (AG) (AU) (BU) (BG) (BU) (AG) (BG)
                 (AU) (BG) (BU) (AU) (AG) (AU) (AG) (BU) (BG) (AG)
                 (BU) (BG) (AU) (AU) (AG) (BG) (AU) (BU) (AG) (BG)
                 (BU) (BU) (AG) (AU) (BG) (BU) (AG) (AG) (AG) (BU)
                 (BU) (AG) (BU) (BG) (AU) (BU) (AU) (AG) (BU) (AG)
                 (BU) (AU) (AG) (BG) (BU) (AU) (AG) (BU) (AG) (BG)
                 (AU) (BG) (BU) (AG) (AU) (BG) (BU) (AU) (AG) (BU)
                 (AG) (BU) (AG) (AU) (AG) (BG) (BU) (AG) (BU) (BU)
                 (AG) (AU) (AG) (BG) (AU) (BG) (AG) (BU) (AG) (AU)
                 (BU) (BG) (AG) (AU) (BU) (AU) (BU) (BG) (AG) (BU)
                 (AG) (AU) (BU) (AG) (BG) (AU) (BG) (BG) (AU) (BG)
                 (BU) (AU) (BG) (AG) (AU) (BU) (AG) (AG) (BU) (BU)
                 (AG) (AG) (BU) (AU) (BG) (AG) (BU) (AU) (BG) (AU)
                 (BG) (AG) (BU) (AG) (AU) (BG) (BU) (AG) (BG) (AU)
                 (AU) (BU) (BG) (BG) (AU) (BG) (AG) (BU) (AG) (AU)
                 (BG) (BU) (AG) (BU) (AU) (BU) (AG) (AG) (BG) (AU)
                 (BU) (AG) (AU) (BU) (BU) (BG) (AU) (AG) (BU) (BG)
                 (AU) (AG) (BG) (BG) (BU) (AG) (AG) (AG) (BG) (AG)
                 (BU) (AU) (AU) (BU) (AG) (BG) (AG) (AU) (BU) (BG)
                 (BU) (AG) (AU) (BG) (BU) (AU) (BU) (AG) (BG) (AG)
                 (BU) (BG) (AU) (AG) (BG) (AU) (BG) (BG) (BU) (AG)
                 (AU) (BU) (AG) (BU) (AG) (BU) (AG) (AG) (AU) (BG)
                 (BG) (AG) (BU) (AU) (BU) (AU) (BG) (BG) (AG) (BG)
                 (AU) (BU) (BG) (AG) (BG) (AU) (BU) (AU) (BU) (AG)
                 (BU) (AG) (AG) (BU) (AU) (AG) (BG) (BG) (BU) (AU)
                 (AG) (AU) (BU) (AG) (BG) (AU) (AG) (BG) (BU) (AG)
                 (AU) (BG) (BU) (AU) (BU) (BU) (AG) (BU) (AU) (BG)
                 (BG) (AU) (BG) (BU) (AU) (BG) (AG) (BU) (AG) (AG)
                 (BU) (AG) (BU) (AU) (BG) (BU) (AU) (AG) (BU) (AG)
                 (BG) (AG) (AU) (AG) (BU) (BG) (BU) (AG) (AG) (AU)
                 (BU) (BG) (AG) (AU) (BU) (AU) (BG) (AU) (BG) (AU)
                 (BG) (BU) (BG) (BU) (AG) (AG) (AU) (BG) (AG) (BU)
                 (AG) (AU) (AG) (BU) (BG) (BU) (AU) (AG) (BU) (AU)
                 (AG) (BG) (BU) (AG) (AG) (BG) (BU) (BU) (AU) (BG)
                 (AU)
       Virtual   (AG) (BG) (AU) (BU) (BG) (AG) (AU) (BG) (BU) (BU)
                 (AU) (AG) (AG) (BU) (AG) (BG) (BU) (AU) (BU) (AG)
                 (BG) (BU) (AG) (AU) (BG) (AG) (AU) (BU) (AG) (BG)
                 (AU) (BU) (AG) (BG) (AG) (BG) (AU) (AU) (BU) (AG)
                 (BG) (BU) (BU) (AG) (AU) (BU) (AG) (BU) (BU) (BG)
                 (AG) (AU) (AG) (BG) (AU) (BU) (AG) (BU) (AU) (AG)
                 (BG) (BU) (AU) (AG) (BG) (AU) (BU) (BG) (BG) (BU)
                 (AU) (AG) (BU) (BG) (AU) (AG) (AU) (BU) (BG) (BU)
                 (AG) (BG) (AU) (AG) (AG) (BU) (AG) (AU) (AG) (BG)
                 (AG) (BU) (AU) (AU) (BG) (AG) (BU) (BU) (AG) (BG)
                 (BU) (AU) (BG) (AG) (BU) (BG) (AU) (AG) (BU) (BG)
                 (AU) (AU) (BG) (AG) (BU) (AG) (BU) (AU) (BG) (AG)
                 (BU) (BU) (BG) (AG) (AU) (AG) (AU) (BG) (AU) (BU)
                 (AG) (BG) (BG) (AU) (BU) (BG) (AG) (BU) (AU) (BG)
                 (AU) (BU) (BU) (AG) (AU) (AG) (AG) (BU) (AU) (BG)
                 (BG) (AG) (AU) (BU) (AG) (BU) (AU) (AG) (BU) (AU)
                 (AG) (BG) (BG) (AU) (AU) (BG) (BU) (BU) (AG) (AG)
                 (AG) (BG) (AU) (BG) (BU) (AG) (BG) (AU) (AG) (BU)
                 (BU) (BG) (AU) (AU) (AG) (AU) (BG) (BU) (BG) (BU)
                 (AG) (BG) (AU) (AU) (BU) (AG) (BG) (AG) (AG) (BG)
                 (BU) (BU) (AU) (BU) (AU) (BG) (AG) (BG) (AU) (BU)
                 (BG) (AU) (AG) (AU) (AG) (BG) (BU) (AG) (BU) (BG)
                 (BU) (AG) (AU) (BG) (AU) (AG) (BU) (AG) (BU) (AU)
                 (AG) (BG) (BU) (BG) (BU) (BU) (AG) (AU) (AG) (BU)
                 (AG) (BG) (AG) (BU) (BU) (BG) (AG) (AU) (AG) (AU)
                 (BU) (BU) (BU) (AU) (AG) (BG) (AG) (BU) (BG) (AU)
                 (BG) (AG) (BU) (AU) (BG) (AU) (AG) (AG) (BU) (AU)
                 (AU) (AG) (BG) (AU) (BU) (BG) (AG) (BU) (AU) (AG)
                 (BG) (AG) (BU) (AU) (BG) (BU) (AG) (AG) (BG) (BU)
                 (AU) (BG) (AG) (BU) (BU) (AU) (BU) (AG) (AG) (BU)
                 (BG) (AG) (AU) (BG) (BU) (AG) (BG) (AU) (AG) (AU)
                 (BU) (AG) (BG) (BU) (AU) (AG) (BU) (AU) (BG) (AU)
                 (AG) (BG) (BU) (AG) (BU) (AU) (BG) (BG) (AG) (BU)
                 (AU) (BU) (AG) (BG) (BU) (BU) (BG) (BG) (AG) (AU)
                 (AU) (BG) (AG) (BU) (AU) (AU) (AU) (AG) (BG) (BU)
                 (BG) (AG) (BG) (AU) (AG) (BU) (BG) (BU) (AG) (AU)
                 (BG) (AU) (BG) (AG) (BU) (BU) (AG) (BU) (AG) (AU)
                 (BG) (BU) (AU) (BG) (BU) (AG) (BU) (AU) (BG) (BG)
                 (AG) (AU) (BU) (AU) (BG) (AG) (AU) (BU) (BU) (BG)
                 (AU) (AG) (BG) (AG) (AU) (BU) (AU) (BG) (AG) (BU)
                 (AG) (AU) (BU) (BG) (AU) (BG) (BG) (AG) (AU) (BU)
                 (BU) (BG) (AU) (BU) (AG) (BG) (AG) (AU) (AU) (BG)
                 (BG) (BU) (AG) (AU) (BG) (AU) (AG) (BU) (BG) (AU)
                 (AG) (BU) (AU) (AG) (BG) (BU) (BG) (AU) (AG) (BU)
                 (BG) (BU) (AG) (BG) (AU) (BU) (BG) (AU) (BG) (BU)
                 (AU) (BG) (AG) (AG) (AU) (BU) (BU) (AU) (BG) (BU)
                 (BU) (BG) (AG) (BG) (AU) (AG) (AU) (AG) (BU) (AG)
                 (AU) (BG) (BU) (AU) (AG) (BG) (BG) (BU) (AG) (BU)
                 (BG) (AG) (AU) (BU) (AU) (BG) (AU) (AG) (BU) (AU)
                 (AG) (BU) (BG) (AG) (BG) (AU) (BG) (AG) (BU) (AU)
                 (AU) (BG) (AG) (BU) (BG) (AG) (BU) (AU) (BU) (AG)
                 (BG) (AU) (BG) (BU) (AG) (AU) (AG) (BU) (BG) (AG)
                 (BU) (AU) (AG) (BU) (BG) (AU) (BU) (BG) (AG) (BU)
                 (AG) (AU) (AG) (BG) (AU) (AG) (BG) (BU) (AU) (AU)
                 (BU) (AG) (BG) (AU) (AU) (BG) (BU) (BU) (AG) (AU)
                 (BG) (AG) (BU) (BG) (AG) (BG) (AG) (AU) (BU) (AU)
                 (AG) (AU) (BG) (BU) (AG) (BG) (BU) (AU) (BU) (AG)
                 (BG) (AU) (BU) (AG) (BU) (BG) (AU) (AG) (BU) (BG)
                 (BU) (AG) (BG) (AG) (BU) (AU) (AG) (BG) (BU) (BG)
                 (AG) (AU) (AG) (BU) (BG) (AU) (BU) (BG) (AU) (AG)
                 (BU) (BU) (AU) (AG) (BU) (BG) (AU) (AG) (BU) (BG)
                 (AU) (AU) (BG) (AG) (AG) (AG) (BG) (BU) (BG) (BU)
                 (AG) (BG) (AU) (BU) (AU) (AG) (BG) (AU) (AU) (BU)
                 (AG) (BU) (BG) (BU) (AG) (AU) (BG) (BU) (AG) (BG)
                 (BU) (BG) (AU) (AU) (AU) (AG) (BG) (BU) (AU) (BU)
                 (AG) (BG) (AU) (AG) (BG) (AG) (BU) (AU) (BG) (AG)
                 (BU) (BG) (AG) (BU) (AU) (AG) (AU) (BG) (AU) (BU)
                 (AG) (BU) (BG) (AU) (BU) (BG) (BU) (AU) (AG) (BG)
                 (AU) (AG) (BG) (AU) (BU) (AG) (BU) (AG) (AU) (BU)
                 (BG) (BU) (AG) (AU) (BG) (AG) (AU) (BG) (AG) (AG)
                 (BG) (BU) (AU) (BU) (BU) (BG) (AG) (BG) (AU) (AG)
                 (BU) (AU) (AG) (AU) (BU) (BG) (AG) (BU) (BG) (AU)
                 (BU) (AU) (AG) (BG) (BU) (AG) (BU) (AG) (BG) (AU)
                 (BU) (BU) (AU) (BU) (AG) (AG) (BG) (AG) (BG) (AG)
                 (BG) (BU) (AG) (AU) (BU) (BU) (AU) (BG) (BG) (AU)
                 (AG) (BU) (BG) (AG) (BU) (BG) (BU) (AU) (AU) (AG)
                 (BG) (BU) (BG) (AU) (AG) (BU) (AG) (AU) (AU) (BG)
                 (AG) (BU) (BG) (AU) (AG) (BU) (AG) (BG) (BU) (AU)
                 (AG) (BG) (BG) (BU) (AU) (AU) (AG) (AU) (BU) (BG)
                 (BU) (AU) (AG) (BG) (BU) (BG) (AG) (BU) (BU) (BG)
                 (AG) (AU) (AG) (AG) (AU) (BU) (AU) (BG) (BU) (AU)
                 (BG) (BU) (AG) (BG) (AG) (BG) (BU) (AU) (AG) (BU)
                 (AU) (AG) (BU) (BG) (AG) (BU) (BG) (AU) (AG) (AU)
                 (BG) (BU) (AG) (AU) (BU) (BG) (AU) (BG) (AG) (BU)
                 (BU) (BG) (AU) (AG) (AG) (BU) (AG) (BG) (AU) (BU)
                 (AU) (BU) (AG) (AU) (BG) (AG) (BU) (AU) (BG) (BU)
                 (AG) (AG) (BG) (BG) (BU) (AU) (AU) (AG) (BU) (AG)
                 (AG) (AU) (AG) (BU) (BG) (AU) (BG) (AG) (BU) (BG)
                 (AU) (BG) (BU) (AG) (BU) (AU) (AG) (BU) (AG) (AU)
                 (BU) (BG) (AG) (AU) (BG) (AG) (AU) (BU) (AG) (BG)
                 (AU) (AG) (BG) (BU) (AU) (BU) (BU) (BG) (AG) (BG)
                 (BG) (AU) (BU) (AG) (BG) (AG) (AU) (BU) (AU) (AG)
                 (BG) (BU) (AU) (BU) (BG) (AU) (AG) (BG) (AU) (BG)
                 (BU) (BU) (AG) (BG) (BG) (AG) (AU) (AG) (AU) (AG)
                 (BU) (AU) (BG) (AG) (BU) (AU) (BU) (BG) (AU) (AG)
                 (BU) (AU) (BG) (BU) (BG) (AU) (AG) (BG) (AU) (BU)
                 (AG) (AU) (BU) (BG) (BG) (BU) (AG) (BG) (AG) (AG)
                 (AU) (BU) (AU) (BG) (AG) (AG) (BU) (AU) (AG) (BG)
                 (BU) (BU) (AU) (BG) (BU) (AG) (AG) (AU) (AU) (BU)
                 (AG) (AU) (BG) (AG) (BU) (BG) (AU) (AG) (BG) (BU)
                 (AU) (BU) (AU) (BG) (AG) (BG) (BU) (AG) (BU) (BG)
                 (AG) (AU) (BG) (AG) (BU) (BU) (AU) (BG) (AG) (AU)
                 (AG) (BU) (AU) (BU) (AU) (AG) (BG) (BG) (BU) (AG)
                 (AU) (BG) (AG) (BU) (BG) (AU) (AU) (BU) (BG) (AG)
                 (AG) (AU) (BG) (BU) (AG) (BU) (AU) (BG) (AG) (BU)
                 (AU) (AG) (BU) (BG) (BU) (AU) (BG) (AG) (BU) (AG)
                 (AU) (AG) (BG) (AU) (BU) (AG) (BG) (AU) (BU) (AG)
                 (BG) (AG) (BU) (BU) (AG) (AU) (BG) (BU) (AG) (AU)
                 (BU) (BG) (AG) (BU) (BG) (AU) (BU) (BG) (AU) (BU)
                 (BG) (AG) (BG) (AU) (BU) (AG) (BG) (AU) (AG) (AU)
                 (AG) (BU) (AU) (AG) (BG) (BU) (BG) (BU) (AG) (BG)
                 (AU) (BG) (BU) (AU) (AU) (BU) (AG) (AU) (AG) (BG)
                 (AU) (AG) (BU) (BU) (BU) (BG) (AG) (AU) (BG) (BG)
                 (AG) (AU) (BU) (AG) (BG) (AU) (AU) (BG) (AG) (AU)
                 (AG) (BU) (BG) (AU) (BU) (BG) (BU) (AU) (BG) (AG)
                 (BG) (AU) (AG) (BU) (BU) (BG) (AG) (BG) (AU) (AU)
                 (BU) (AG) (AU) (BU) (BG) (BG) (BU) (AG) (AU) (BG)
                 (AG) (AU) (BG) (BU) (BU) (BG) (AG) (AU) (AU) (BG)
                 (BU) (BG) (AU) (AG) (AG) (AG) (BU) (BG) (AU) (BU)
                 (BU) (AG) (BG) (AU) (AG) (BU) (AU) (BU) (AG) (BG)
                 (AU) (AG) (BU) (AG) (BG) (BU) (AG) (BG) (AG) (BU)
                 (AU) (BG) (AU) (BU) (AU) (BU) (AG) (AU) (AG) (BU)
                 (BG) (BG) (BU) (AG) (AU) (AU) (AG) (BG) (AG) (BU)
                 (BG) (AU) (AG) (AU) (BU) (AG) (BG) (BU) (BG) (AG)
                 (AU) (BG) (AG) (BU) (AU) (AG) (AU) (BU) (BU) (AU)
                 (AG) (BG) (AG) (BU) (AU) (BG) (BU) (BG) (AG) (AG)
                 (BG) (AG) (AU) (BU) (BG) (BG) (AU) (BU) (AG) (AU)
                 (BU) (AU) (BG) (AG) (AU) (BU) (AG) (BG) (BU) (AG)
                 (AU) (AU) (AG) (BG) (AG) (BU) (BU) (AU) (BG) (AU)
                 (BG) (BU) (AG) (BG) (AG) (BG) (BU) (AU) (BU) (AG)
                 (AU) (BU) (AU) (BG) (AG) (BG) (AG) (AU) (BU) (BG)
                 (AU) (AG) (AU) (BG) (BU) (AG) (BU) (AG) (AG) (BG)
                 (AU) (BG) (BU) (AU) (AG) (BU) (AU) (BG) (AG) (BU)
                 (BG) (BU) (BG) (AU) (AG) (BG) (AG) (AU) (BG) (BU)
                 (AU) (BG) (BU) (AG) (AU) (AG) (AU) (AG) (AU) (BG)
                 (BU) (AU) (BG) (BU) (AU) (BU) (BG) (BU) (AG) (BG)
                 (AG) (AU) (AU) (BU) (AG) (BG) (BG) (BU) (BU) (AU)
                 (AG) (AU) (BU) (BG) (BU) (AG) (BG) (BU) (BG) (AG)
                 (AU) (BU) (AU) (BG) (AG) (AG) (BG) (BU) (AU) (BG)
                 (BU) (AG) (AU) (BG) (AG) (AU) (BU) (BG) (AU) (AG)
                 (BG) (BU) (BG) (AG) (AU) (AG) (BU) (AG) (BG) (AU)
                 (AU) (AG) (BG) (AU) (BU) (BU) (AU) (BU) (BG) (AU)
                 (BU) (AU) (AG) (BG) (AG) (BU) (AG) (BG) (AU) (BG)
                 (AU) (BU) (AG) (BG) (BU) (AG) (BU) (BG) (AU) (AG)
                 (BG) (BU) (AU) (AG) (AU) (BG) (BU) (AU) (AG) (BG)
                 (BU) (BU) (BG) (AG) (AG) (BG) (AU) (BU) (AU) (BG)
                 (AG) (BU) (BU) (BG) (AU) (AU) (BG) (AG) (BU) (AU)
                 (AG) (AG) (BU) (BG) (AU) (BG) (AU) (BG) (AG) (BU)
                 (BU) (AG) (AU) (AG) (AU) (BU) (BG) (AG) (AU) (BU)
                 (BG) (AG) (BG) (BU) (AG) (AU) (AG) (AU) (BG) (BU)
                 (AG) (AU) (BU) (BG) (AG) (AU) (BU) (BG) (AG) (AU)
                 (BU) (AG) (AG) (AU) (BG) (BU) (BG) (AU) (BU) (AU)
                 (AG) (BG) (BU) (BU) (BG) (BG) (AU) (BG) (AU) (AG)
                 (BU) (AG) (AU) (BG) (AU) (BU) (BG) (AG) (AU) (AG)
                 (BG) (BU) (AU) (BG) (BU) (AG) (AU) (AG) (BG) (BU)
                 (BG) (AU) (AG) (BU) (BG) (AU) (BG) (AG) (BU) (AU)
                 (BU) (AG) (AU) (BG) (AG) (BU) (AU) (BG) (BU) (BU)
                 (BG) (AG) (AU) (AG) (AU) (AG) (AU) (BU) (BG) (AG)
                 (BG) (BU) (AG) (AU) (AG) (BU) (BG) (AU) (BU) (AU)
                 (AG) (BU) (BG) (AG) (BG) (AU) (BG) (AG) (BU) (AU)
                 (AU) (BU) (AG) (BU) (BG) (AU) (AG) (BG) (BG) (AG)
                 (BU) (BG) (AU) (AG) (BG) (BU) (BU) (AU) (BG) (AU)
                 (BU) (BG) (AG) (AG) (BU) (AU) (BG) (AG) (BG) (AU)
                 (BU) (BU) (AU) (AG) (BG) (AU) (BU) (AG) (BG) (AG)
                 (BU) (AG) (AU) (BG) (BU) (AU) (AU) (BG) (BG) (AG)
                 (AU) (BU) (AG) (BU) (BG) (AG) (AU) (BU) (BG) (AU)
                 (BU) (AG) (BU) (AU) (AG) (AG) (BG) (BU) (BG) (AG)
                 (AU) (BU) (AG) (BG) (AG) (BU) (AU) (AG) (BU) (BG)
                 (AU) (AG) (BU) (AG) (BG) (BU) (BU) (AG) (AG) (AU)
                 (BG) (AU) (BG) (AG) (BU) (AU) (BG) (AU) (AG) (BU)
                 (BG) (AU) (BG) (AU) (BU) (AG) (AG) (AU) (AG) (BU)
                 (BG) (AU) (BU) (BG) (AU) (AU) (AG) (BG) (BU) (AG)
                 (BG) (AU) (AG) (BU) (AU) (BU) (BU) (BG) (BG) (AG)
                 (BU) (AG) (AU) (AU) (AU) (BG) (BU) (BG) (BU) (AG)
                 (AU) (BU) (AG) (BG) (AU) (AG) (BU) (BG) (AG) (BG)
                 (AU) (BG) (AG) (BU) (AU) (AG) (BU) (AG) (BU) (BG)
                 (BU) (AU) (AG) (BG) (AU) (BG) (AU) (AU) (BU) (AG)
                 (BU) (AG) (BU) (BG) (AG) (BG) (BU) (AU) (AG) (AU)
                 (BU) (BG) (AG) (BU) (BG) (AU) (AU) (AG) (AU) (BU)
                 (BG) (AG) (AU) (AG) (BG) (BU) (BU) (AG) (AG) (BG)
                 (BU) (AU) (AG) (BU) (AU) (BG) (BG) (AG) (AU) (BU)
                 (AG) (BU) (BG) (AU) (BG) (AG) (AG) (BG) (BU) (AU)
                 (BU) (BG) (AU) (AU) (BG) (AU) (AG) (BU) (BG) (AU)
                 (BU) (AG) (BU) (BG) (BG) (AU) (AG) (AU) (BU) (AU)
                 (BG) (BG) (AG) (AG) (BU) (BU) (BG) (AG) (BU) (BU)
                 (AG) (AU) (AU) (AG) (BG) (BU) (BG) (AU) (AG) (BU)
                 (AG) (BG) (BU) (AU) (AG) (BG) (BU) (AG) (BU) (AG)
                 (AU) (BG) (AU) (AG) (AU) (BU) (AG) (BU) (AU) (BU)
                 (BG) (AG) (AG) (BG) (BU) (AU) (AG) (BG) (AG) (AU)
                 (BU) (BG) (BG) (BG) (AU) (BU) (AG) (AU) (AU) (AG)
                 (BU) (AG) (BG) (BU) (BU) (AU) (BG) (AG) (BU) (AU)
                 (AG) (AU) (BG) (BU) (AU) (BG) (BU) (AG) (BU) (BG)
                 (BU) (AU) (AG) (BG) (AG) (BU) (BG) (AG) (AU) (AU)
                 (BU) (BG) (AG) (BU) (AG) (BU) (AG) (AU) (BU) (BG)
                 (AG) (BG) (AU) (BG) (BU) (AG) (AU) (BU) (AG) (AG)
                 (BG) (AU) (BU) (BG) (AG) (BU) (AU) (BU) (BG) (AG)
                 (AU) (BU) (AG) (BG) (BG) (AG) (AU) (BU) (BG) (BU)
                 (BU) (AU) (BG) (AU) (BU) (AG) (AG) (BG) (BU) (AU)
                 (BU) (AG) (BG) (BU) (AG) (AU) (BU) (AG) (BG) (AG)
                 (AU) (BU) (BG) (AG) (BU) (AG) (BU) (AU) (AG) (AU)
                 (BU) (AU) (AG) (AG) (BG) (BG) (BU) (AG) (AU) (BU)
                 (AU) (BG) (BU) (BG) (AG) (AU) (AG) (BU) (BU) (BG)
                 (AU) (AG) (BG) (AG) (AU) (AG) (BU) (BU) (BG) (BG)
                 (AU) (AG) (BU) (AU) (AU) (BU) (BG) (AG) (AU) (BG)
                 (BU) (BG) (AG) (BU) (AU) (AG) (BU) (BG) (AG) (AU)
                 (AG) (AG) (BG) (AU) (BU) (BU) (AU) (BG) (AG) (AU)
                 (BG) (AG) (BU) (AG) (BG) (BU) (AU) (BG) (BU) (AU)
                 (AG) (BG) (BU) (BG) (AG) (BU) (AG) (AU) (BG) (AG)
                 (AU) (BU) (AU) (AG) (BU) (AU) (BG) (AG) (AU) (BG)
                 (BU) (BG) (BU) (BG) (AG) (AU) (BG) (BU) (AU) (AU)
                 (BU) (AG) (BU) (BG) (AG) (BG) (BU) (AU) (AG) (AU)
                 (AG) (AU) (BG) (BU) (AG) (BG) (AG) (BU) (BG) (AU)
                 (BU) (BG) (AU) (AG) (BU) (BG) (AU) (AG) (BU) (BG)
                 (AU) (BU) (AG) (BG) (AG) (BU) (AU) (AU) (BG) (BU)
                 (BG) (AU) (AG) (BG) (BU) (AG) (BU) (AG) (BU) (AU)
                 (AG) (AG) (AU) (BG) (BU) (BG) (AG) (AU) (BU) (AG)
                 (BG) (AG) (AU) (BU) (BG) (AU) (BU) (AG) (BG) (AU)
                 (BU) (AU) (BG) (AG) (BU) (BU) (AU) (AG) (AU) (BG)
                 (AG) (BU) (AU) (BG) (AU) (BU) (BU) (AG) (BG) (BG)
                 (AG) (BU) (AU) (AG) (BG) (AU) (AU) (BU) (AG) (BG)
                 (BU) (AG) (AG) (BU) (AU) (BG) (AU) (BG) (AG) (AU)
                 (BU) (BU) (AG) (BG) (AU) (BG) (BU) (AG) (AG) (AG)
                 (BU) (AU) (BG) (AU) (BU) (AU) (BG) (BU) (AG) (BU)
                 (AG) (AU) (BG) (AU) (BG) (BU) (AG) (BG) (BU) (AG)
                 (AU) (BG) (AG) (AG) (AG) (BU) (BU) (BG) (AU) (AG)
                 (BU) (AU) (BU) (AU) (BG) (BG) (AG) (AU) (BU) (BG)
                 (AU) (AG) (BG) (AU) (BU) (BG) (BU) (AG) (AU) (AU)
                 (AU) (AG) (BG) (AG) (BG) (AU) (BU) (AG) (BU) (AU)
                 (AG) (BG) (BG) (BU) (BG) (AG) (AU) (BG) (AU) (BU)
                 (AG) (BU) (AU) (BG) (AU) (AG) (BG) (BU) (BU) (AG)
                 (BG) (BU) (AU) (BG) (AG) (BG) (AU) (BU) (AU) (AG)
                 (BU) (BG) (AU) (BU) (AG) (AU) (BG) (BU) (BG) (BU)
                 (BU) (AG) (BG) (AG) (BG) (AU) (BG) (AU) (BU) (AU)
                 (AG) (AU) (AG) (BG) (BU) (AU) (AG) (BU) (BG) (AG)
                 (AU) (BG) (AU) (BU) (AG) (BG) (AU) (BG) (AG) (AU)
                 (BG) (AU) (BU) (AU) (BG) (BU) (AG) (BG) (AU) (AG)
                 (AG) (BG) (AU) (BU) (AG) (AU) (BG) (BU) (AU) (AG)
                 (BG) (AU) (BG) (BU) (AU) (AG) (BG) (AG) (AU) (BU)
                 (AU) (BG) (BG) (AG) (BU) (AU) (AG) (BU) (AG) (BU)
                 (AU) (BG) (BG) (AU) (BU) (BG) (AU) (AG) (BG) (BU)
                 (AG) (AU) (BU) (AU) (AG) (BG) (BG) (AU) (AG) (BG)
                 (BU) (AU) (BU) (BU) (AU) (BG) (AG) (BG) (AG) (BU)
                 (AU) (BG) (AG) (BU) (AU) (AU) (BG) (AG) (BU) (BG)
                 (AU) (BG) (AG) (AU) (BU) (BG) (AG) (BU) (BG) (AG)
                 (AU) (BU) (AU) (AU) (BU) (BG) (BG) (AU) (AG) (BG)
                 (AU) (BG) (AG) (BU) (AG) (BU) (BG) (BU) (AU) (AG)
                 (AU) (BG) (BU) (AU) (BG) (AG) (AU) (BG) (AG) (BU)
                 (AU) (BU) (BG) (AG) (BG) (AU) (BG) (BG) (AU) (BU)
                 (AG) (AU) (AU) (BU) (BG) (BG) (AU) (BU) (AG) (AU)
                 (BG) (BG) (BU) (AU) (AG) (BU) (AG) (BU) (BG) (AG)
                 (BG) (BU) (AU) (BG) (AG) (AU) (AG) (BU) (BG) (AU)
                 (BG) (AG) (BU) (AU) (BG) (AU) (BU) (AG) (BU) (BG)
                 (AG) (AU) (AG) (BU) (BU) (AU) (AG) (BG) (BU) (AU)
                 (BG) (AG) (BU) (AU) (BG) (AG) (BU) (AG) (AU) (AU)
                 (BG) (BG) (BU) (BG) (AU) (AG) (BU) (BG) (AU) (BG)
                 (BG) (BU) (AG) (AU) (BG) (AG) (BU) (AG) (AU) (BU)
                 (AU) (BU) (AG) (BG) (AU) (BG) (AU) (AG) (BU) (AU)
                 (BG) (BG) (AG) (AU) (BG) (BU) (BG) (AU) (BU) (BG)
                 (AG) (AU) (BG) (AU) (BU) (BG) (AU) (BG) (AG) (BU)
                 (AU) (AG) (BU) (BG) (AG) (AU) (BU) (AG) (BG) (BU)
                 (BG) (AU) (AG) (AG) (AU) (BG) (BU) (BU) (BG) (AU)
                 (BU) (AG) (AU) (BU) (AG) (AG) (BG) (BU) (AG) (BG)
                 (AU) (BU) (AU) (AG) (BG) (BU) (AU) (BG) (AG) (BG)
                 (AU) (BU) (BU) (AG) (AU) (BU) (BG) (BG) (AU) (AG)
                 (AG) (BU) (AU) (BG) (AG) (AG) (BU) (AG) (AU) (BU)
                 (BG) (BG) (AU) (AU) (AG) (BG) (BU) (BG) (AU) (BU)
                 (AG) (AU) (BG) (BU) (AU) (AG) (BU) (BG) (AG) (AU)
                 (BG) (AG) (BG) (AU) (BU) (BG) (BG) (AG) (BU) (AG)
                 (AG) (BU) (AU) (BU) (AU) (AG) (BG) (AG) (BU) (AG)
                 (AU) (BU) (BG) (BU) (BG) (AU) (AU) (AG) (BG) (AG)
                 (AU) (AG) (BU) (BU) (AG) (AG) (BU) (AU) (BG) (BU)
                 (BG) (AG) (AU) (BG) (AG) (AU) (BU) (AG) (BG) (AU)
                 (BU) (BG) (AG) (BU) (AG) (AG) (AU) (BG) (AU) (BU)
                 (AG) (BU) (BU) (AG) (BU) (AU) (BU) (BG) (AG) (BU)
                 (AU) (BU) (BG) (AU) (AG) (AU) (BU) (AG) (BU) (AU)
                 (AG) (BU) (BG) (AG) (BU) (AG) (BU) (AG) (AU) (AG)
                 (AU) (BU) (BG) (AG) (BU) (AG) (BG) (BU) (AG) (AU)
                 (BG) (BU) (AU) (AG) (BU) (BG) (AU) (AG) (BG) (AU)
                 (AU) (BU) (AG) (BG) (BU) (BU) (AG) (AG) (AU) (BU)
                 (AU) (BU) (BG) (AG) (AG) (BG) (AU) (BU) (BG) (AU)
                 (AG) (BG) (BU) (BG) (AU) (AU) (BG) (AU) (BU) (BG)
                 (AG) (BG) (BU) (AU) (AG) (BU) (AU) (AG) (BG) (AG)
                 (BU) (AG) (BU) (AU) (BG) (AG) (AU) (BG) (AU) (BU)
                 (BG) (AU) (BG) (AU) (BG) (BU) (AG) (AU) (BG) (BU)
                 (AU) (BG) (BG) (AG) (BU) (AU) (AG) (BU) (BG) (AG)
                 (AU) (BU) (BU) (AG) (BG) (AU) (AG) (BU) (AU) (BG)
                 (AG) (BU) (AG) (BU) (AU) (BG) (AG)
    32 initial guesses have been made.
 Convergence on wavefunction:    0.001000000000000
 Davidson Disk Diagonalization:  ConvIn= 1.00D-03 SkipCon=T Conv= 1.00D-03.
 Max sub-space:   200 roots to seek:    32 dimension of matrix:      1685796
 Iteration     1 Dimension    32 NMult     0 NNew     32
 CISAX will form    32 AO SS matrices at one time.
 NMat=    32 NSing=    32 JSym2X=-1.
 FoFJK:  IHMeth= 1 ICntrl=       0 DoSepK=T KAlg= 0 I1Cent=   0 FoldK=F
 IRaf=         1 NMat=  64 IRICut=       1 DoRegI=T DoRafI=F ISym2E=-1.
 FoFCou: FMM=F IPFlag=           0 FMFlag=      100000 FMFlg1=        2000
         NFxFlg=           0 DoJE=F BraDBF=F KetDBF=F FulRan=T
         wScrn=  0.000000 ICntrl=     500 IOpCl=  0 I1Cent=           0 NGrid=           0
         NMat0=   32 NMatS0=     32 NMatT0=    0 NMatD0=   32 NMtDS0=    0 NMtDT0=    0
 Petite list used in FoFCou.
 New state      6 was old state      7
 New state      7 was old state      8
 New state      8 was old state      6
 Excitation Energies [eV] at current iteration:
 Root      1 :     1.827316609288158
 Root      2 :     2.158270054569397
 Root      3 :     2.218285396167030
 Root      4 :     2.271460500422779
 Root      5 :     2.276540409106028
 Root      6 :     2.293065169240545
 Root      7 :     2.320786345104183
 Root      8 :     2.364677551762797
 Root      9 :     2.466656861985519
 Root     10 :     2.858602276544453
 Root     11 :     2.890330814550810
 Root     12 :     3.040042122813889
 Root     13 :     3.224675647140258
 Root     14 :     3.253789693940908
 Root     15 :     3.317175780403677
 Root     16 :     3.349250839007075
 Root     17 :     3.392712986322819
 Root     18 :     3.544084477412571
 Root     19 :     4.429309021709165
 Root     20 :     4.645022239213476
 Root     21 :     4.685701879049070
 Root     22 :     4.748049783780841
 Root     23 :     4.846411437503595
 Root     24 :     4.892914181041006
 Root     25 :     4.895337358656609
 Root     26 :     4.946125478460413
 Root     27 :     4.976930128983854
 Root     28 :     4.997084969263677
 Root     29 :     5.126483077114811
 Root     30 :     5.141477097037755
 Root     31 :     5.231380270662570
 Root     32 :     5.533350260958834
 Iteration     2 Dimension    48 NMult    32 NNew     16
 CISAX will form    16 AO SS matrices at one time.
 NMat=    16 NSing=    16 JSym2X=-1.
 Root      1 not converged, maximum delta is    0.214509374102786
 New state      2 was old state      9
 Root      2 not converged, maximum delta is    0.349975338849683
 New state      3 was old state      2
 Root      3 not converged, maximum delta is    0.298494160620587
 New state      4 was old state      6
 Root      4 not converged, maximum delta is    0.481800902624666
 New state      5 was old state      3
 Root      5 not converged, maximum delta is    0.266778084026675
 New state      6 was old state      5
 Root      6 not converged, maximum delta is    0.048105035982730
 New state      7 was old state      4
 Root      7 not converged, maximum delta is    0.354333454743897
 Root      8 not converged, maximum delta is    0.157469173051683
 Excitation Energies [eV] at current iteration:
 Root      1 :     1.401385819624629   Change is   -0.425930789663528
 Root      2 :     1.712905259255985   Change is   -0.753751602729535
 Root      3 :     1.751155270049414   Change is   -0.407114784519984
 Root      4 :     1.998392870387083   Change is   -0.294672298853462
 Root      5 :     2.044097760297756   Change is   -0.174187635869274
 Root      6 :     2.219053983892439   Change is   -0.057486425213589
 Root      7 :     2.225035085975717   Change is   -0.046425414447062
 Root      8 :     2.232835822463641   Change is   -0.131841729299156
 Iteration     3 Dimension    64 NMult    48 NNew     16
 CISAX will form    16 AO SS matrices at one time.
 NMat=    16 NSing=    16 JSym2X=-1.
 Root      1 not converged, maximum delta is    0.045752591336213
 Root      2 not converged, maximum delta is    0.044918885972251
 Root      3 not converged, maximum delta is    0.072846346466571
 Root      4 not converged, maximum delta is    0.192839508272058
 Root      5 not converged, maximum delta is    0.175648543621848
 New state      6 was old state      8
 Root      6 not converged, maximum delta is    0.288386093260406
 New state      7 was old state      6
 Root      7 not converged, maximum delta is    0.006486035634706
 New state      8 was old state      7
 Root      8 not converged, maximum delta is    0.033454529078705
 Excitation Energies [eV] at current iteration:
 Root      1 :     1.300770833312608   Change is   -0.100614986312022
 Root      2 :     1.541730633492574   Change is   -0.171174625763412
 Root      3 :     1.613032432228739   Change is   -0.138122837820675
 Root      4 :     1.751457821976661   Change is   -0.246935048410422
 Root      5 :     1.875211011328255   Change is   -0.168886748969501
 Root      6 :     2.085639922585568   Change is   -0.147195899878073
 Root      7 :     2.215007815744899   Change is   -0.004046168147540
 Root      8 :     2.222208503573373   Change is   -0.002826582402343
 Iteration     4 Dimension    80 NMult    64 NNew     16
 CISAX will form    16 AO SS matrices at one time.
 NMat=    16 NSing=    16 JSym2X=-1.
 Root      1 not converged, maximum delta is    0.019694931161164
 Root      2 not converged, maximum delta is    0.031159336398957
 Root      3 not converged, maximum delta is    0.025342015441994
 Root      4 not converged, maximum delta is    0.060207677716039
 Root      5 not converged, maximum delta is    0.091068918372001
 Root      6 not converged, maximum delta is    0.218209712936991
 Root      7 not converged, maximum delta is    0.001753226356724
 Root      8 not converged, maximum delta is    0.016087455186881
 Excitation Energies [eV] at current iteration:
 Root      1 :     1.271282576826242   Change is   -0.029488256486365
 Root      2 :     1.496328919829272   Change is   -0.045401713663302
 Root      3 :     1.572708350726175   Change is   -0.040324081502564
 Root      4 :     1.662987437933957   Change is   -0.088470384042704
 Root      5 :     1.786182630620365   Change is   -0.089028380707890
 Root      6 :     1.916082531374918   Change is   -0.169557391210651
 Root      7 :     2.214569864438895   Change is   -0.000437951306004
 Root      8 :     2.221596596274586   Change is   -0.000611907298787
 Iteration     5 Dimension    96 NMult    80 NNew     16
 CISAX will form    16 AO SS matrices at one time.
 NMat=    16 NSing=    16 JSym2X=-1.
 Root      1 not converged, maximum delta is    0.005364046535924
 Root      2 not converged, maximum delta is    0.006379518634891
 Root      3 not converged, maximum delta is    0.007891034052261
 Root      4 not converged, maximum delta is    0.010223966430952
 Root      5 not converged, maximum delta is    0.018021608846666
 Root      6 not converged, maximum delta is    0.018386948900927
 Root      7 has converged.
 Root      8 not converged, maximum delta is    0.006066959591739
 Excitation Energies [eV] at current iteration:
 Root      1 :     1.267803637699192   Change is   -0.003478939127050
 Root      2 :     1.490927470107838   Change is   -0.005401449721434
 Root      3 :     1.566593931689522   Change is   -0.006114419036653
 Root      4 :     1.649285902979857   Change is   -0.013701534954100
 Root      5 :     1.769648557437170   Change is   -0.016534073183195
 Root      6 :     1.897359322925975   Change is   -0.018723208448942
 Root      7 :     2.214452498448130   Change is   -0.000117365990764
 Root      8 :     2.221410198093789   Change is   -0.000186398180798
 Iteration     6 Dimension   110 NMult    96 NNew     14
 CISAX will form    14 AO SS matrices at one time.
 NMat=    14 NSing=    14 JSym2X=-1.
 Root      1 not converged, maximum delta is    0.001579159515770
 Root      2 not converged, maximum delta is    0.002314894767488
 Root      3 not converged, maximum delta is    0.001056462724069
 Root      4 not converged, maximum delta is    0.004332992575103
 Root      5 not converged, maximum delta is    0.004420443368623
 Root      6 not converged, maximum delta is    0.005569434084394
 Root      7 has converged.
 Root      8 not converged, maximum delta is    0.001844320491272
 Excitation Energies [eV] at current iteration:
 Root      1 :     1.267316057030000   Change is   -0.000487580669193
 Root      2 :     1.490065718755173   Change is   -0.000861751352664
 Root      3 :     1.565793357124791   Change is   -0.000800574564731
 Root      4 :     1.647123304632588   Change is   -0.002162598347269
 Root      5 :     1.767074339846748   Change is   -0.002574217590422
 Root      6 :     1.893351126197037   Change is   -0.004008196728939
 Root      7 :     2.214450837430193   Change is   -0.000001661017937
 Root      8 :     2.221381124288873   Change is   -0.000029073804916
 Iteration     7 Dimension   124 NMult   110 NNew     14
 CISAX will form    14 AO SS matrices at one time.
 NMat=    14 NSing=    14 JSym2X=-1.
 Root      1 has converged.
 Root      2 has converged.
 Root      3 has converged.
 Root      4 not converged, maximum delta is    0.001034067961720
 Root      5 not converged, maximum delta is    0.001286528026261
 Root      6 not converged, maximum delta is    0.002030286205360
 Root      7 has converged.
 Root      8 has converged.
 Excitation Energies [eV] at current iteration:
 Root      1 :     1.267283835570355   Change is   -0.000032221459645
 Root      2 :     1.489988259163993   Change is   -0.000077459591180
 Root      3 :     1.565704987907561   Change is   -0.000088369217230
 Root      4 :     1.646794500449758   Change is   -0.000328804182830
 Root      5 :     1.766707887594849   Change is   -0.000366452251899
 Root      6 :     1.892838693810125   Change is   -0.000512432386911
 Root      7 :     2.214450515264765   Change is   -0.000000322165428
 Root      8 :     2.221374439915677   Change is   -0.000006684373196
 Iteration     8 Dimension   130 NMult   124 NNew      6
 CISAX will form     6 AO SS matrices at one time.
 NMat=     6 NSing=     6 JSym2X=-1.
 Root      1 has converged.
 Root      2 has converged.
 Root      3 has converged.
 Root      4 has converged.
 Root      5 has converged.
 Root      6 has converged.
 Root      7 has converged.
 Root      8 has converged.
 Excitation Energies [eV] at current iteration:
 Root      1 :     1.267283796412277   Change is   -0.000000039158078
 Root      2 :     1.489988196334450   Change is   -0.000000062829544
 Root      3 :     1.565704987907508   Change is   -0.000000000000052
 Root      4 :     1.646750322742083   Change is   -0.000044177707675
 Root      5 :     1.766647972501391   Change is   -0.000059915093457
 Root      6 :     1.892794942231053   Change is   -0.000043751579072
 Root      7 :     2.214450515264765   Change is    0.000000000000000
 Root      8 :     2.221374257633761   Change is   -0.000000182281916
 Convergence achieved on expansion vectors.
 ***********************************************************************
 Excited states from <AA,BB:AA,BB> singles matrix:
 ***********************************************************************
 
 1PDM for each excited state written to RWF  633
 Ground to excited state transition densities written to RWF  633
 Ground to excited state transition electric dipole moments (Au):
       state          X           Y           Z        Dip. S.      Osc.
         1         0.0000      0.0000     -0.3204      0.1027      0.0032
         2         0.0048      0.0535     -0.0000      0.0029      0.0001
         3        -0.0000      0.0000     -0.0000      0.0000      0.0000
         4        -0.0000     -0.0000     -0.0000      0.0000      0.0000
         5         0.1186      3.9583      0.0000     15.6826      0.6788
         6         0.0000      0.0000     -4.0526     16.4236      0.7616
         7         0.0000      0.0000      0.0000      0.0000      0.0000
         8        -0.0000     -0.0000      0.0000      0.0000      0.0000
 Ground to excited state transition velocity dipole moments (Au):
       state          X           Y           Z        Dip. S.      Osc.
         1        -0.0000      0.0000      0.0149      0.0002      0.0032
         2        -0.0004     -0.0029     -0.0000      0.0000      0.0001
         3         0.0000     -0.0000      0.0000      0.0000      0.0000
         4         0.0000     -0.0000      0.0000      0.0000      0.0000
         5        -0.0074     -0.2584     -0.0000      0.0668      0.6860
         6        -0.0000      0.0000      0.2834      0.0803      0.7699
         7        -0.0000      0.0000      0.0000      0.0000      0.0000
         8         0.0000      0.0000     -0.0000      0.0000      0.0000
 Ground to excited state transition magnetic dipole moments (Au):
       state          X           Y           Z
         1         0.0000     -0.0000     -0.0000
         2         0.0000      0.0000     -0.0000
         3        -1.3409      2.6489      0.0000
         4         0.0000     -0.0000      2.3570
         5         0.0000     -0.0000      0.0000
         6         0.0000     -0.0000      0.0000
         7        -0.1797      0.3605     -0.0000
         8         0.0000     -0.0000     -0.2155
 Ground to excited state transition velocity quadrupole moments (Au):
       state          XX          YY          ZZ          XY          XZ          YZ
         1         0.0000      0.0000      0.0000     -0.0000      0.0000      0.0000
         2         0.0000     -0.0000      0.0000     -0.0000      0.0000      0.0000
         3         0.0000      0.0000      0.0000      0.0000     -1.4992     -0.7826
         4        -0.0590      1.8052     -0.0992      1.6553      0.0000      0.0000
         5         0.0000     -0.0000     -0.0000      0.0000      0.0000      0.0000
         6        -0.0000      0.0000      0.0000      0.0000     -0.0000      0.0000
         7        -0.0000      0.0000      0.0000     -0.0000     -0.0518     -0.0070
         8         0.0021     -0.1189      0.0363     -0.0135     -0.0000     -0.0000
 <0|del|b> * <b|rxdel|0> + <0|del|b> * <b|delr+rdel|0>
 Rotatory Strengths (R) in cgs (10**-40 erg-esu-cm/Gauss)
       state          XX          YY          ZZ    R(velocity)    E-M Angle
         1        -0.0000      0.0000     -0.0000     -0.0000       90.00
         2         0.0000     -0.0000     -0.0000     -0.0000       90.00
         3        -0.0000     -0.0000     -0.0000     -0.0000       90.00
         4         0.0000      0.0000      0.0000      0.0000       90.00
         5         0.0000     -0.0000      0.0000      0.0000       90.00
         6         0.0000     -0.0000     -0.0000      0.0000       90.00
         7         0.0000      0.0000      0.0000      0.0000       90.00
         8         0.0000      0.0000     -0.0000      0.0000       90.00
 1/2[<0|r|b>*<b|rxdel|0> + (<0|rxdel|b>*<b|r|0>)*]
 Rotatory Strengths (R) in cgs (10**-40 erg-esu-cm/Gauss)
       state          XX          YY          ZZ     R(length)
         1        -0.0000      0.0000     -0.0000     -0.0000
         2        -0.0000     -0.0000     -0.0000     -0.0000
         3        -0.0000     -0.0000      0.0000     -0.0000
         4         0.0000     -0.0000      0.0000      0.0000
         5        -0.0000      0.0000     -0.0000      0.0000
         6        -0.0000      0.0000      0.0000      0.0000
         7         0.0000     -0.0000      0.0000     -0.0000
         8         0.0000     -0.0000      0.0000      0.0000
  1/2[<0|del|b>*<b|r|0> + (<0|r|b>*<b|del|0>)*] (Au)
       state          X           Y           Z        Dip. S.   Osc.(frdel)
         1        -0.0000      0.0000     -0.0048      0.0048      0.0032
         2        -0.0000     -0.0002      0.0000      0.0002      0.0001
         3        -0.0000     -0.0000     -0.0000      0.0000      0.0000
         4        -0.0000      0.0000     -0.0000      0.0000      0.0000
         5        -0.0009     -1.0227     -0.0000      1.0236      0.6824
         6        -0.0000      0.0000     -1.1486      1.1486      0.7657
         7        -0.0000      0.0000      0.0000     -0.0000     -0.0000
         8        -0.0000     -0.0000     -0.0000      0.0000      0.0000

 Excitation energies and oscillator strengths:
 
 Excited State   1:      Singlet-AU     1.2673 eV  978.35 nm  f=0.0032  <S**2>=0.000
     439 -> 447        0.16433
     440 -> 445        0.23843
     441 -> 442        0.62925
     441 -> 447       -0.10724
 This state for optimization and/or second-order correction.
 Total Energy, E(TD-HF/TD-KS) =  -10327.0282534    
 Copying the excited state density for this state as the 1-particle RhoCI density.
 
 Excited State   2:      Singlet-BU     1.4900 eV  832.12 nm  f=0.0001  <S**2>=0.000
     439 -> 443        0.36095
     440 -> 444        0.27250
     441 -> 443       -0.22075
     441 -> 446        0.47724
 
 Excited State   3:      Singlet-BG     1.5657 eV  791.87 nm  f=0.0000  <S**2>=0.000
     439 -> 445        0.23601
     440 -> 442        0.51754
     440 -> 447        0.14389
     441 -> 445        0.37243
 
 Excited State   4:      Singlet-AG     1.6468 eV  752.90 nm  f=0.0000  <S**2>=0.000
     439 -> 444        0.26493
     440 -> 443        0.43015
     440 -> 446        0.23636
     441 -> 444        0.40662
 
 Excited State   5:      Singlet-BU     1.7666 eV  701.80 nm  f=0.6788  <S**2>=0.000
     439 -> 446        0.12313
     440 -> 444        0.35278
     441 -> 443        0.56635
 
 Excited State   6:      Singlet-AU     1.8928 eV  655.03 nm  f=0.7616  <S**2>=0.000
     434 -> 444        0.10252
     439 -> 442        0.51680
     440 -> 445        0.37398
     441 -> 447        0.21750
 
 Excited State   7:      Singlet-BG     2.2145 eV  559.89 nm  f=0.0000  <S**2>=0.000
     439 -> 445       -0.26850
     440 -> 442       -0.31784
     440 -> 447        0.19754
     441 -> 445        0.53447
 
 Excited State   8:      Singlet-AG     2.2214 eV  558.14 nm  f=0.0000  <S**2>=0.000
     439 -> 444       -0.28375
     440 -> 443       -0.38644
     440 -> 446        0.30329
     441 -> 444        0.41723
 SavETr:  write IOETrn=   770 NScale= 10 NData=  16 NLR=1 NState=    8 LETran=     154.
 Leave Link  914 at Wed Oct 22 16:50:31 2025, MaxMem= 13421772800 cpu:    205985.7
 (Enter /opt/g09/l601.exe)
 Copying SCF densities to generalized density rwf, IOpCl= 0 IROHF=0.
 Hyperfine terms turned off by default for NAtoms > 100.

 **********************************************************************

            Population analysis using the SCF density.

 **********************************************************************

 Orbital symmetries:
       Occupied  (BU) (AG) (AG) (BU) (AG) (AG) (AG) (BU) (BU) (AG)
                 (BU) (BG) (AU) (BU) (AU) (BU) (AG) (AG) (BU) (AG)
                 (BU) (BU) (AG) (BG) (AU) (AG) (AU) (BG) (AU) (BU)
                 (AG) (BG) (AU) (BU) (AG) (BG) (AU) (BU) (AG) (AU)
                 (BG) (BU) (AG) (BG) (AU) (BU) (AG) (BG) (AU) (AG)
                 (BU) (AU) (BG) (BU) (AG) (BG) (AU) (BU) (AG) (BG)
                 (BU) (AU) (AG) (BU) (AG) (AU) (BG) (BU) (AG) (BG)
                 (AU) (BU) (AG) (BG) (AU) (BG) (AU) (BU) (AG) (AG)
                 (BU) (AU) (BG) (BG) (BU) (AU) (AG) (BU) (AG) (BU)
                 (AG) (BG) (AU) (BG) (AU) (AU) (AG) (BG) (AU) (BU)
                 (AG) (BG) (BU) (AG) (AU) (BU) (BG) (BU) (AG) (BG)
                 (AU) (BG) (BU) (AU) (AG) (AU) (AG) (BU) (BG) (AG)
                 (BU) (BG) (AU) (AU) (AG) (BG) (AU) (BU) (AG) (BG)
                 (BU) (BU) (AG) (AU) (BG) (BU) (AG) (AG) (AG) (BU)
                 (BU) (AG) (BU) (BG) (AU) (BU) (AU) (AG) (BU) (AG)
                 (BU) (AU) (AG) (BG) (BU) (AU) (AG) (BU) (AG) (BG)
                 (AU) (BG) (BU) (AG) (AU) (BG) (BU) (AU) (AG) (BU)
                 (AG) (BU) (AG) (AU) (AG) (BG) (BU) (AG) (BU) (BU)
                 (AG) (AU) (AG) (BG) (AU) (BG) (AG) (BU) (AG) (AU)
                 (BU) (BG) (AG) (AU) (BU) (AU) (BU) (BG) (AG) (BU)
                 (AG) (AU) (BU) (AG) (BG) (AU) (BG) (BG) (AU) (BG)
                 (BU) (AU) (BG) (AG) (AU) (BU) (AG) (AG) (BU) (BU)
                 (AG) (AG) (BU) (AU) (BG) (AG) (BU) (AU) (BG) (AU)
                 (BG) (AG) (BU) (AG) (AU) (BG) (BU) (AG) (BG) (AU)
                 (AU) (BU) (BG) (BG) (AU) (BG) (AG) (BU) (AG) (AU)
                 (BG) (BU) (AG) (BU) (AU) (BU) (AG) (AG) (BG) (AU)
                 (BU) (AG) (AU) (BU) (BU) (BG) (AU) (AG) (BU) (BG)
                 (AU) (AG) (BG) (BG) (BU) (AG) (AG) (AG) (BG) (AG)
                 (BU) (AU) (AU) (BU) (AG) (BG) (AG) (AU) (BU) (BG)
                 (BU) (AG) (AU) (BG) (BU) (AU) (BU) (AG) (BG) (AG)
                 (BU) (BG) (AU) (AG) (BG) (AU) (BG) (BG) (BU) (AG)
                 (AU) (BU) (AG) (BU) (AG) (BU) (AG) (AG) (AU) (BG)
                 (BG) (AG) (BU) (AU) (BU) (AU) (BG) (BG) (AG) (BG)
                 (AU) (BU) (BG) (AG) (BG) (AU) (BU) (AU) (BU) (AG)
                 (BU) (AG) (AG) (BU) (AU) (AG) (BG) (BG) (BU) (AU)
                 (AG) (AU) (BU) (AG) (BG) (AU) (AG) (BG) (BU) (AG)
                 (AU) (BG) (BU) (AU) (BU) (BU) (AG) (BU) (AU) (BG)
                 (BG) (AU) (BG) (BU) (AU) (BG) (AG) (BU) (AG) (AG)
                 (BU) (AG) (BU) (AU) (BG) (BU) (AU) (AG) (BU) (AG)
                 (BG) (AG) (AU) (AG) (BU) (BG) (BU) (AG) (AG) (AU)
                 (BU) (BG) (AG) (AU) (BU) (AU) (BG) (AU) (BG) (AU)
                 (BG) (BU) (BG) (BU) (AG) (AG) (AU) (BG) (AG) (BU)
                 (AG) (AU) (AG) (BU) (BG) (BU) (AU) (AG) (BU) (AU)
                 (AG) (BG) (BU) (AG) (AG) (BG) (BU) (BU) (AU) (BG)
                 (AU)
       Virtual   (AG) (BG) (AU) (BU) (BG) (AG) (AU) (BG) (BU) (BU)
                 (AU) (AG) (AG) (BU) (AG) (BG) (BU) (AU) (BU) (AG)
                 (BG) (BU) (AG) (AU) (BG) (AG) (AU) (BU) (AG) (BG)
                 (AU) (BU) (AG) (BG) (AG) (BG) (AU) (AU) (BU) (AG)
                 (BG) (BU) (BU) (AG) (AU) (BU) (AG) (BU) (BU) (BG)
                 (AG) (AU) (AG) (BG) (AU) (BU) (AG) (BU) (AU) (AG)
                 (BG) (BU) (AU) (AG) (BG) (AU) (BU) (BG) (BG) (BU)
                 (AU) (AG) (BU) (BG) (AU) (AG) (AU) (BU) (BG) (BU)
                 (AG) (BG) (AU) (AG) (AG) (BU) (AG) (AU) (AG) (BG)
                 (AG) (BU) (AU) (AU) (BG) (AG) (BU) (BU) (AG) (BG)
                 (BU) (AU) (BG) (AG) (BU) (BG) (AU) (AG) (BU) (BG)
                 (AU) (AU) (BG) (AG) (BU) (AG) (BU) (AU) (BG) (AG)
                 (BU) (BU) (BG) (AG) (AU) (AG) (AU) (BG) (AU) (BU)
                 (AG) (BG) (BG) (AU) (BU) (BG) (AG) (BU) (AU) (BG)
                 (AU) (BU) (BU) (AG) (AU) (AG) (AG) (BU) (AU) (BG)
                 (BG) (AG) (AU) (BU) (AG) (BU) (AU) (AG) (BU) (AU)
                 (AG) (BG) (BG) (AU) (AU) (BG) (BU) (BU) (AG) (AG)
                 (AG) (BG) (AU) (BG) (BU) (AG) (BG) (AU) (AG) (BU)
                 (BU) (BG) (AU) (AU) (AG) (AU) (BG) (BU) (BG) (BU)
                 (AG) (BG) (AU) (AU) (BU) (AG) (BG) (AG) (AG) (BG)
                 (BU) (BU) (AU) (BU) (AU) (BG) (AG) (BG) (AU) (BU)
                 (BG) (AU) (AG) (AU) (AG) (BG) (BU) (AG) (BU) (BG)
                 (BU) (AG) (AU) (BG) (AU) (AG) (BU) (AG) (BU) (AU)
                 (AG) (BG) (BU) (BG) (BU) (BU) (AG) (AU) (AG) (BU)
                 (AG) (BG) (AG) (BU) (BU) (BG) (AG) (AU) (AG) (AU)
                 (BU) (BU) (BU) (AU) (AG) (BG) (AG) (BU) (BG) (AU)
                 (BG) (AG) (BU) (AU) (BG) (AU) (AG) (AG) (BU) (AU)
                 (AU) (AG) (BG) (AU) (BU) (BG) (AG) (BU) (AU) (AG)
                 (BG) (AG) (BU) (AU) (BG) (BU) (AG) (AG) (BG) (BU)
                 (AU) (BG) (AG) (BU) (BU) (AU) (BU) (AG) (AG) (BU)
                 (BG) (AG) (AU) (BG) (BU) (AG) (BG) (AU) (AG) (AU)
                 (BU) (AG) (BG) (BU) (AU) (AG) (BU) (AU) (BG) (AU)
                 (AG) (BG) (BU) (AG) (BU) (AU) (BG) (BG) (AG) (BU)
                 (AU) (BU) (AG) (BG) (BU) (BU) (BG) (BG) (AG) (AU)
                 (AU) (BG) (AG) (BU) (AU) (AU) (AU) (AG) (BG) (BU)
                 (BG) (AG) (BG) (AU) (AG) (BU) (BG) (BU) (AG) (AU)
                 (BG) (AU) (BG) (AG) (BU) (BU) (AG) (BU) (AG) (AU)
                 (BG) (BU) (AU) (BG) (BU) (AG) (BU) (AU) (BG) (BG)
                 (AG) (AU) (BU) (AU) (BG) (AG) (AU) (BU) (BU) (BG)
                 (AU) (AG) (BG) (AG) (AU) (BU) (AU) (BG) (AG) (BU)
                 (AG) (AU) (BU) (BG) (AU) (BG) (BG) (AG) (AU) (BU)
                 (BU) (BG) (AU) (BU) (AG) (BG) (AG) (AU) (AU) (BG)
                 (BG) (BU) (AG) (AU) (BG) (AU) (AG) (BU) (BG) (AU)
                 (AG) (BU) (AU) (AG) (BG) (BU) (BG) (AU) (AG) (BU)
                 (BG) (BU) (AG) (BG) (AU) (BU) (BG) (AU) (BG) (BU)
                 (AU) (BG) (AG) (AG) (AU) (BU) (BU) (AU) (BG) (BU)
                 (BU) (BG) (AG) (BG) (AU) (AG) (AU) (AG) (BU) (AG)
                 (AU) (BG) (BU) (AU) (AG) (BG) (BG) (BU) (AG) (BU)
                 (BG) (AG) (AU) (BU) (AU) (BG) (AU) (AG) (BU) (AU)
                 (AG) (BU) (BG) (AG) (BG) (AU) (BG) (AG) (BU) (AU)
                 (AU) (BG) (AG) (BU) (BG) (AG) (BU) (AU) (BU) (AG)
                 (BG) (AU) (BG) (BU) (AG) (AU) (AG) (BU) (BG) (AG)
                 (BU) (AU) (AG) (BU) (BG) (AU) (BU) (BG) (AG) (BU)
                 (AG) (AU) (AG) (BG) (AU) (AG) (BG) (BU) (AU) (AU)
                 (BU) (AG) (BG) (AU) (AU) (BG) (BU) (BU) (AG) (AU)
                 (BG) (AG) (BU) (BG) (AG) (BG) (AG) (AU) (BU) (AU)
                 (AG) (AU) (BG) (BU) (AG) (BG) (BU) (AU) (BU) (AG)
                 (BG) (AU) (BU) (AG) (BU) (BG) (AU) (AG) (BU) (BG)
                 (BU) (AG) (BG) (AG) (BU) (AU) (AG) (BG) (BU) (BG)
                 (AG) (AU) (AG) (BU) (BG) (AU) (BU) (BG) (AU) (AG)
                 (BU) (BU) (AU) (AG) (BU) (BG) (AU) (AG) (BU) (BG)
                 (AU) (AU) (BG) (AG) (AG) (AG) (BG) (BU) (BG) (BU)
                 (AG) (BG) (AU) (BU) (AU) (AG) (BG) (AU) (AU) (BU)
                 (AG) (BU) (BG) (BU) (AG) (AU) (BG) (BU) (AG) (BG)
                 (BU) (BG) (AU) (AU) (AU) (AG) (BG) (BU) (AU) (BU)
                 (AG) (BG) (AU) (AG) (BG) (AG) (BU) (AU) (BG) (AG)
                 (BU) (BG) (AG) (BU) (AU) (AG) (AU) (BG) (AU) (BU)
                 (AG) (BU) (BG) (AU) (BU) (BG) (BU) (AU) (AG) (BG)
                 (AU) (AG) (BG) (AU) (BU) (AG) (BU) (AG) (AU) (BU)
                 (BG) (BU) (AG) (AU) (BG) (AG) (AU) (BG) (AG) (AG)
                 (BG) (BU) (AU) (BU) (BU) (BG) (AG) (BG) (AU) (AG)
                 (BU) (AU) (AG) (AU) (BU) (BG) (AG) (BU) (BG) (AU)
                 (BU) (AU) (AG) (BG) (BU) (AG) (BU) (AG) (BG) (AU)
                 (BU) (BU) (AU) (BU) (AG) (AG) (BG) (AG) (BG) (AG)
                 (BG) (BU) (AG) (AU) (BU) (BU) (AU) (BG) (BG) (AU)
                 (AG) (BU) (BG) (AG) (BU) (BG) (BU) (AU) (AU) (AG)
                 (BG) (BU) (BG) (AU) (AG) (BU) (AG) (AU) (AU) (BG)
                 (AG) (BU) (BG) (AU) (AG) (BU) (AG) (BG) (BU) (AU)
                 (AG) (BG) (BG) (BU) (AU) (AU) (AG) (AU) (BU) (BG)
                 (BU) (AU) (AG) (BG) (BU) (BG) (AG) (BU) (BU) (BG)
                 (AG) (AU) (AG) (AG) (AU) (BU) (AU) (BG) (BU) (AU)
                 (BG) (BU) (AG) (BG) (AG) (BG) (BU) (AU) (AG) (BU)
                 (AU) (AG) (BU) (BG) (AG) (BU) (BG) (AU) (AG) (AU)
                 (BG) (BU) (AG) (AU) (BU) (BG) (AU) (BG) (AG) (BU)
                 (BU) (BG) (AU) (AG) (AG) (BU) (AG) (BG) (AU) (BU)
                 (AU) (BU) (AG) (AU) (BG) (AG) (BU) (AU) (BG) (BU)
                 (AG) (AG) (BG) (BG) (BU) (AU) (AU) (AG) (BU) (AG)
                 (AG) (AU) (AG) (BU) (BG) (AU) (BG) (AG) (BU) (BG)
                 (AU) (BG) (BU) (AG) (BU) (AU) (AG) (BU) (AG) (AU)
                 (BU) (BG) (AG) (AU) (BG) (AG) (AU) (BU) (AG) (BG)
                 (AU) (AG) (BG) (BU) (AU) (BU) (BU) (BG) (AG) (BG)
                 (BG) (AU) (BU) (AG) (BG) (AG) (AU) (BU) (AU) (AG)
                 (BG) (BU) (AU) (BU) (BG) (AU) (AG) (BG) (AU) (BG)
                 (BU) (BU) (AG) (BG) (BG) (AG) (AU) (AG) (AU) (AG)
                 (BU) (AU) (BG) (AG) (BU) (AU) (BU) (BG) (AU) (AG)
                 (BU) (AU) (BG) (BU) (BG) (AU) (AG) (BG) (AU) (BU)
                 (AG) (AU) (BU) (BG) (BG) (BU) (AG) (BG) (AG) (AG)
                 (AU) (BU) (AU) (BG) (AG) (AG) (BU) (AU) (AG) (BG)
                 (BU) (BU) (AU) (BG) (BU) (AG) (AG) (AU) (AU) (BU)
                 (AG) (AU) (BG) (AG) (BU) (BG) (AU) (AG) (BG) (BU)
                 (AU) (BU) (AU) (BG) (AG) (BG) (BU) (AG) (BU) (BG)
                 (AG) (AU) (BG) (AG) (BU) (BU) (AU) (BG) (AG) (AU)
                 (AG) (BU) (AU) (BU) (AU) (AG) (BG) (BG) (BU) (AG)
                 (AU) (BG) (AG) (BU) (BG) (AU) (AU) (BU) (BG) (AG)
                 (AG) (AU) (BG) (BU) (AG) (BU) (AU) (BG) (AG) (BU)
                 (AU) (AG) (BU) (BG) (BU) (AU) (BG) (AG) (BU) (AG)
                 (AU) (AG) (BG) (AU) (BU) (AG) (BG) (AU) (BU) (AG)
                 (BG) (AG) (BU) (BU) (AG) (AU) (BG) (BU) (AG) (AU)
                 (BU) (BG) (AG) (BU) (BG) (AU) (BU) (BG) (AU) (BU)
                 (BG) (AG) (BG) (AU) (BU) (AG) (BG) (AU) (AG) (AU)
                 (AG) (BU) (AU) (AG) (BG) (BU) (BG) (BU) (AG) (BG)
                 (AU) (BG) (BU) (AU) (AU) (BU) (AG) (AU) (AG) (BG)
                 (AU) (AG) (BU) (BU) (BU) (BG) (AG) (AU) (BG) (BG)
                 (AG) (AU) (BU) (AG) (BG) (AU) (AU) (BG) (AG) (AU)
                 (AG) (BU) (BG) (AU) (BU) (BG) (BU) (AU) (BG) (AG)
                 (BG) (AU) (AG) (BU) (BU) (BG) (AG) (BG) (AU) (AU)
                 (BU) (AG) (AU) (BU) (BG) (BG) (BU) (AG) (AU) (BG)
                 (AG) (AU) (BG) (BU) (BU) (BG) (AG) (AU) (AU) (BG)
                 (BU) (BG) (AU) (AG) (AG) (AG) (BU) (BG) (AU) (BU)
                 (BU) (AG) (BG) (AU) (AG) (BU) (AU) (BU) (AG) (BG)
                 (AU) (AG) (BU) (AG) (BG) (BU) (AG) (BG) (AG) (BU)
                 (AU) (BG) (AU) (BU) (AU) (BU) (AG) (AU) (AG) (BU)
                 (BG) (BG) (BU) (AG) (AU) (AU) (AG) (BG) (AG) (BU)
                 (BG) (AU) (AG) (AU) (BU) (AG) (BG) (BU) (BG) (AG)
                 (AU) (BG) (AG) (BU) (AU) (AG) (AU) (BU) (BU) (AU)
                 (AG) (BG) (AG) (BU) (AU) (BG) (BU) (BG) (AG) (AG)
                 (BG) (AG) (AU) (BU) (BG) (BG) (AU) (BU) (AG) (AU)
                 (BU) (AU) (BG) (AG) (AU) (BU) (AG) (BG) (BU) (AG)
                 (AU) (AU) (AG) (BG) (AG) (BU) (BU) (AU) (BG) (AU)
                 (BG) (BU) (AG) (BG) (AG) (BG) (BU) (AU) (BU) (AG)
                 (AU) (BU) (AU) (BG) (AG) (BG) (AG) (AU) (BU) (BG)
                 (AU) (AG) (AU) (BG) (BU) (AG) (BU) (AG) (AG) (BG)
                 (AU) (BG) (BU) (AU) (AG) (BU) (AU) (BG) (AG) (BU)
                 (BG) (BU) (BG) (AU) (AG) (BG) (AG) (AU) (BG) (BU)
                 (AU) (BG) (BU) (AG) (AU) (AG) (AU) (AG) (AU) (BG)
                 (BU) (AU) (BG) (BU) (AU) (BU) (BG) (BU) (AG) (BG)
                 (AG) (AU) (AU) (BU) (AG) (BG) (BG) (BU) (BU) (AU)
                 (AG) (AU) (BU) (BG) (BU) (AG) (BG) (BU) (BG) (AG)
                 (AU) (BU) (AU) (BG) (AG) (AG) (BG) (BU) (AU) (BG)
                 (BU) (AG) (AU) (BG) (AG) (AU) (BU) (BG) (AU) (AG)
                 (BG) (BU) (BG) (AG) (AU) (AG) (BU) (AG) (BG) (AU)
                 (AU) (AG) (BG) (AU) (BU) (BU) (AU) (BU) (BG) (AU)
                 (BU) (AU) (AG) (BG) (AG) (BU) (AG) (BG) (AU) (BG)
                 (AU) (BU) (AG) (BG) (BU) (AG) (BU) (BG) (AU) (AG)
                 (BG) (BU) (AU) (AG) (AU) (BG) (BU) (AU) (AG) (BG)
                 (BU) (BU) (BG) (AG) (AG) (BG) (AU) (BU) (AU) (BG)
                 (AG) (BU) (BU) (BG) (AU) (AU) (BG) (AG) (BU) (AU)
                 (AG) (AG) (BU) (BG) (AU) (BG) (AU) (BG) (AG) (BU)
                 (BU) (AG) (AU) (AG) (AU) (BU) (BG) (AG) (AU) (BU)
                 (BG) (AG) (BG) (BU) (AG) (AU) (AG) (AU) (BG) (BU)
                 (AG) (AU) (BU) (BG) (AG) (AU) (BU) (BG) (AG) (AU)
                 (BU) (AG) (AG) (AU) (BG) (BU) (BG) (AU) (BU) (AU)
                 (AG) (BG) (BU) (BU) (BG) (BG) (AU) (BG) (AU) (AG)
                 (BU) (AG) (AU) (BG) (AU) (BU) (BG) (AG) (AU) (AG)
                 (BG) (BU) (AU) (BG) (BU) (AG) (AU) (AG) (BG) (BU)
                 (BG) (AU) (AG) (BU) (BG) (AU) (BG) (AG) (BU) (AU)
                 (BU) (AG) (AU) (BG) (AG) (BU) (AU) (BG) (BU) (BU)
                 (BG) (AG) (AU) (AG) (AU) (AG) (AU) (BU) (BG) (AG)
                 (BG) (BU) (AG) (AU) (AG) (BU) (BG) (AU) (BU) (AU)
                 (AG) (BU) (BG) (AG) (BG) (AU) (BG) (AG) (BU) (AU)
                 (AU) (BU) (AG) (BU) (BG) (AU) (AG) (BG) (BG) (AG)
                 (BU) (BG) (AU) (AG) (BG) (BU) (BU) (AU) (BG) (AU)
                 (BU) (BG) (AG) (AG) (BU) (AU) (BG) (AG) (BG) (AU)
                 (BU) (BU) (AU) (AG) (BG) (AU) (BU) (AG) (BG) (AG)
                 (BU) (AG) (AU) (BG) (BU) (AU) (AU) (BG) (BG) (AG)
                 (AU) (BU) (AG) (BU) (BG) (AG) (AU) (BU) (BG) (AU)
                 (BU) (AG) (BU) (AU) (AG) (AG) (BG) (BU) (BG) (AG)
                 (AU) (BU) (AG) (BG) (AG) (BU) (AU) (AG) (BU) (BG)
                 (AU) (AG) (BU) (AG) (BG) (BU) (BU) (AG) (AG) (AU)
                 (BG) (AU) (BG) (AG) (BU) (AU) (BG) (AU) (AG) (BU)
                 (BG) (AU) (BG) (AU) (BU) (AG) (AG) (AU) (AG) (BU)
                 (BG) (AU) (BU) (BG) (AU) (AU) (AG) (BG) (BU) (AG)
                 (BG) (AU) (AG) (BU) (AU) (BU) (BU) (BG) (BG) (AG)
                 (BU) (AG) (AU) (AU) (AU) (BG) (BU) (BG) (BU) (AG)
                 (AU) (BU) (AG) (BG) (AU) (AG) (BU) (BG) (AG) (BG)
                 (AU) (BG) (AG) (BU) (AU) (AG) (BU) (AG) (BU) (BG)
                 (BU) (AU) (AG) (BG) (AU) (BG) (AU) (AU) (BU) (AG)
                 (BU) (AG) (BU) (BG) (AG) (BG) (BU) (AU) (AG) (AU)
                 (BU) (BG) (AG) (BU) (BG) (AU) (AU) (AG) (AU) (BU)
                 (BG) (AG) (AU) (AG) (BG) (BU) (BU) (AG) (AG) (BG)
                 (BU) (AU) (AG) (BU) (AU) (BG) (BG) (AG) (AU) (BU)
                 (AG) (BU) (BG) (AU) (BG) (AG) (AG) (BG) (BU) (AU)
                 (BU) (BG) (AU) (AU) (BG) (AU) (AG) (BU) (BG) (AU)
                 (BU) (AG) (BU) (BG) (BG) (AU) (AG) (AU) (BU) (AU)
                 (BG) (BG) (AG) (AG) (BU) (BU) (BG) (AG) (BU) (BU)
                 (AG) (AU) (AU) (AG) (BG) (BU) (BG) (AU) (AG) (BU)
                 (AG) (BG) (BU) (AU) (AG) (BG) (BU) (AG) (BU) (AG)
                 (AU) (BG) (AU) (AG) (AU) (BU) (AG) (BU) (AU) (BU)
                 (BG) (AG) (AG) (BG) (BU) (AU) (AG) (BG) (AG) (AU)
                 (BU) (BG) (BG) (BG) (AU) (BU) (AG) (AU) (AU) (AG)
                 (BU) (AG) (BG) (BU) (BU) (AU) (BG) (AG) (BU) (AU)
                 (AG) (AU) (BG) (BU) (AU) (BG) (BU) (AG) (BU) (BG)
                 (BU) (AU) (AG) (BG) (AG) (BU) (BG) (AG) (AU) (AU)
                 (BU) (BG) (AG) (BU) (AG) (BU) (AG) (AU) (BU) (BG)
                 (AG) (BG) (AU) (BG) (BU) (AG) (AU) (BU) (AG) (AG)
                 (BG) (AU) (BU) (BG) (AG) (BU) (AU) (BU) (BG) (AG)
                 (AU) (BU) (AG) (BG) (BG) (AG) (AU) (BU) (BG) (BU)
                 (BU) (AU) (BG) (AU) (BU) (AG) (AG) (BG) (BU) (AU)
                 (BU) (AG) (BG) (BU) (AG) (AU) (BU) (AG) (BG) (AG)
                 (AU) (BU) (BG) (AG) (BU) (AG) (BU) (AU) (AG) (AU)
                 (BU) (AU) (AG) (AG) (BG) (BG) (BU) (AG) (AU) (BU)
                 (AU) (BG) (BU) (BG) (AG) (AU) (AG) (BU) (BU) (BG)
                 (AU) (AG) (BG) (AG) (AU) (AG) (BU) (BU) (BG) (BG)
                 (AU) (AG) (BU) (AU) (AU) (BU) (BG) (AG) (AU) (BG)
                 (BU) (BG) (AG) (BU) (AU) (AG) (BU) (BG) (AG) (AU)
                 (AG) (AG) (BG) (AU) (BU) (BU) (AU) (BG) (AG) (AU)
                 (BG) (AG) (BU) (AG) (BG) (BU) (AU) (BG) (BU) (AU)
                 (AG) (BG) (BU) (BG) (AG) (BU) (AG) (AU) (BG) (AG)
                 (AU) (BU) (AU) (AG) (BU) (AU) (BG) (AG) (AU) (BG)
                 (BU) (BG) (BU) (BG) (AG) (AU) (BG) (BU) (AU) (AU)
                 (BU) (AG) (BU) (BG) (AG) (BG) (BU) (AU) (AG) (AU)
                 (AG) (AU) (BG) (BU) (AG) (BG) (AG) (BU) (BG) (AU)
                 (BU) (BG) (AU) (AG) (BU) (BG) (AU) (AG) (BU) (BG)
                 (AU) (BU) (AG) (BG) (AG) (BU) (AU) (AU) (BG) (BU)
                 (BG) (AU) (AG) (BG) (BU) (AG) (BU) (AG) (BU) (AU)
                 (AG) (AG) (AU) (BG) (BU) (BG) (AG) (AU) (BU) (AG)
                 (BG) (AG) (AU) (BU) (BG) (AU) (BU) (AG) (BG) (AU)
                 (BU) (AU) (BG) (AG) (BU) (BU) (AU) (AG) (AU) (BG)
                 (AG) (BU) (AU) (BG) (AU) (BU) (BU) (AG) (BG) (BG)
                 (AG) (BU) (AU) (AG) (BG) (AU) (AU) (BU) (AG) (BG)
                 (BU) (AG) (AG) (BU) (AU) (BG) (AU) (BG) (AG) (AU)
                 (BU) (BU) (AG) (BG) (AU) (BG) (BU) (AG) (AG) (AG)
                 (BU) (AU) (BG) (AU) (BU) (AU) (BG) (BU) (AG) (BU)
                 (AG) (AU) (BG) (AU) (BG) (BU) (AG) (BG) (BU) (AG)
                 (AU) (BG) (AG) (AG) (AG) (BU) (BU) (BG) (AU) (AG)
                 (BU) (AU) (BU) (AU) (BG) (BG) (AG) (AU) (BU) (BG)
                 (AU) (AG) (BG) (AU) (BU) (BG) (BU) (AG) (AU) (AU)
                 (AU) (AG) (BG) (AG) (BG) (AU) (BU) (AG) (BU) (AU)
                 (AG) (BG) (BG) (BU) (BG) (AG) (AU) (BG) (AU) (BU)
                 (AG) (BU) (AU) (BG) (AU) (AG) (BG) (BU) (BU) (AG)
                 (BG) (BU) (AU) (BG) (AG) (BG) (AU) (BU) (AU) (AG)
                 (BU) (BG) (AU) (BU) (AG) (AU) (BG) (BU) (BG) (BU)
                 (BU) (AG) (BG) (AG) (BG) (AU) (BG) (AU) (BU) (AU)
                 (AG) (AU) (AG) (BG) (BU) (AU) (AG) (BU) (BG) (AG)
                 (AU) (BG) (AU) (BU) (AG) (BG) (AU) (BG) (AG) (AU)
                 (BG) (AU) (BU) (AU) (BG) (BU) (AG) (BG) (AU) (AG)
                 (AG) (BG) (AU) (BU) (AG) (AU) (BG) (BU) (AU) (AG)
                 (BG) (AU) (BG) (BU) (AU) (AG) (BG) (AG) (AU) (BU)
                 (AU) (BG) (BG) (AG) (BU) (AU) (AG) (BU) (AG) (BU)
                 (AU) (BG) (BG) (AU) (BU) (BG) (AU) (AG) (BG) (BU)
                 (AG) (AU) (BU) (AU) (AG) (BG) (BG) (AU) (AG) (BG)
                 (BU) (AU) (BU) (BU) (AU) (BG) (AG) (BG) (AG) (BU)
                 (AU) (BG) (AG) (BU) (AU) (AU) (BG) (AG) (BU) (BG)
                 (AU) (BG) (AG) (AU) (BU) (BG) (AG) (BU) (BG) (AG)
                 (AU) (BU) (AU) (AU) (BU) (BG) (BG) (AU) (AG) (BG)
                 (AU) (BG) (AG) (BU) (AG) (BU) (BG) (BU) (AU) (AG)
                 (AU) (BG) (BU) (AU) (BG) (AG) (AU) (BG) (AG) (BU)
                 (AU) (BU) (BG) (AG) (BG) (AU) (BG) (BG) (AU) (BU)
                 (AG) (AU) (AU) (BU) (BG) (BG) (AU) (BU) (AG) (AU)
                 (BG) (BG) (BU) (AU) (AG) (BU) (AG) (BU) (BG) (AG)
                 (BG) (BU) (AU) (BG) (AG) (AU) (AG) (BU) (BG) (AU)
                 (BG) (AG) (BU) (AU) (BG) (AU) (BU) (AG) (BU) (BG)
                 (AG) (AU) (AG) (BU) (BU) (AU) (AG) (BG) (BU) (AU)
                 (BG) (AG) (BU) (AU) (BG) (AG) (BU) (AG) (AU) (AU)
                 (BG) (BG) (BU) (BG) (AU) (AG) (BU) (BG) (AU) (BG)
                 (BG) (BU) (AG) (AU) (BG) (AG) (BU) (AG) (AU) (BU)
                 (AU) (BU) (AG) (BG) (AU) (BG) (AU) (AG) (BU) (AU)
                 (BG) (BG) (AG) (AU) (BG) (BU) (BG) (AU) (BU) (BG)
                 (AG) (AU) (BG) (AU) (BU) (BG) (AU) (BG) (AG) (BU)
                 (AU) (AG) (BU) (BG) (AG) (AU) (BU) (AG) (BG) (BU)
                 (BG) (AU) (AG) (AG) (AU) (BG) (BU) (BU) (BG) (AU)
                 (BU) (AG) (AU) (BU) (AG) (AG) (BG) (BU) (AG) (BG)
                 (AU) (BU) (AU) (AG) (BG) (BU) (AU) (BG) (AG) (BG)
                 (AU) (BU) (BU) (AG) (AU) (BU) (BG) (BG) (AU) (AG)
                 (AG) (BU) (AU) (BG) (AG) (AG) (BU) (AG) (AU) (BU)
                 (BG) (BG) (AU) (AU) (AG) (BG) (BU) (BG) (AU) (BU)
                 (AG) (AU) (BG) (BU) (AU) (AG) (BU) (BG) (AG) (AU)
                 (BG) (AG) (BG) (AU) (BU) (BG) (BG) (AG) (BU) (AG)
                 (AG) (BU) (AU) (BU) (AU) (AG) (BG) (AG) (BU) (AG)
                 (AU) (BU) (BG) (BU) (BG) (AU) (AU) (AG) (BG) (AG)
                 (AU) (AG) (BU) (BU) (AG) (AG) (BU) (AU) (BG) (BU)
                 (BG) (AG) (AU) (BG) (AG) (AU) (BU) (AG) (BG) (AU)
                 (BU) (BG) (AG) (BU) (AG) (AG) (AU) (BG) (AU) (BU)
                 (AG) (BU) (BU) (AG) (BU) (AU) (BU) (BG) (AG) (BU)
                 (AU) (BU) (BG) (AU) (AG) (AU) (BU) (AG) (BU) (AU)
                 (AG) (BU) (BG) (AG) (BU) (AG) (BU) (AG) (AU) (AG)
                 (AU) (BU) (BG) (AG) (BU) (AG) (BG) (BU) (AG) (AU)
                 (BG) (BU) (AU) (AG) (BU) (BG) (AU) (AG) (BG) (AU)
                 (AU) (BU) (AG) (BG) (BU) (BU) (AG) (AG) (AU) (BU)
                 (AU) (BU) (BG) (AG) (AG) (BG) (AU) (BU) (BG) (AU)
                 (AG) (BG) (BU) (BG) (AU) (AU) (BG) (AU) (BU) (BG)
                 (AG) (BG) (BU) (AU) (AG) (BU) (AU) (AG) (BG) (AG)
                 (BU) (AG) (BU) (AU) (BG) (AG) (AU) (BG) (AU) (BU)
                 (BG) (AU) (BG) (AU) (BG) (BU) (AG) (AU) (BG) (BU)
                 (AU) (BG) (BG) (AG) (BU) (AU) (AG) (BU) (BG) (AG)
                 (AU) (BU) (BU) (AG) (BG) (AU) (AG) (BU) (AU) (BG)
                 (AG) (BU) (AG) (BU) (AU) (BG) (AG)
 The electronic state is 1-AG.
 Alpha  occ. eigenvalues -- -345.98731-345.98731-345.98551 -41.85760 -41.85760
 Alpha  occ. eigenvalues --  -41.85555 -36.94051 -36.94050 -36.93841 -36.93204
 Alpha  occ. eigenvalues --  -36.93204 -36.93201 -36.93201 -36.93004 -36.92999
 Alpha  occ. eigenvalues --  -14.22306 -14.22306 -14.22099 -14.22099 -14.22074
 Alpha  occ. eigenvalues --  -14.22074 -14.22072 -14.22072 -14.22071 -14.22071
 Alpha  occ. eigenvalues --  -14.21858 -14.21857 -14.21222 -14.21222 -14.21222
 Alpha  occ. eigenvalues --  -14.21222 -14.21213 -14.21213 -14.21212 -14.21212
 Alpha  occ. eigenvalues --  -14.21056 -14.21055 -14.21055 -14.21055 -10.18853
 Alpha  occ. eigenvalues --  -10.18853 -10.18847 -10.18847 -10.18811 -10.18811
 Alpha  occ. eigenvalues --  -10.18811 -10.18811 -10.18721 -10.18721 -10.18718
 Alpha  occ. eigenvalues --  -10.18718 -10.18716 -10.18716 -10.18713 -10.18713
 Alpha  occ. eigenvalues --  -10.18641 -10.18640 -10.18635 -10.18635 -10.18607
 Alpha  occ. eigenvalues --  -10.18606 -10.18601 -10.18601 -10.12039 -10.12039
 Alpha  occ. eigenvalues --  -10.12038 -10.12038 -10.11987 -10.11987 -10.11952
 Alpha  occ. eigenvalues --  -10.11952 -10.11947 -10.11947 -10.11910 -10.11910
 Alpha  occ. eigenvalues --  -10.11799 -10.11798 -10.11798 -10.11798 -10.11753
 Alpha  occ. eigenvalues --  -10.11753 -10.11753 -10.11753 -10.11729 -10.11729
 Alpha  occ. eigenvalues --  -10.11729 -10.11729 -10.11613 -10.11612 -10.11608
 Alpha  occ. eigenvalues --  -10.11608 -10.11575 -10.11575 -10.11574 -10.11574
 Alpha  occ. eigenvalues --  -10.11564 -10.11564 -10.11562 -10.11562 -10.11562
 Alpha  occ. eigenvalues --  -10.11562 -10.11528 -10.11528 -10.11516 -10.11516
 Alpha  occ. eigenvalues --  -10.11516 -10.11516 -10.11507 -10.11507 -10.11505
 Alpha  occ. eigenvalues --  -10.11505 -10.11446 -10.11446 -10.11446 -10.11446
 Alpha  occ. eigenvalues --  -10.11416 -10.11416 -10.11415 -10.11415 -10.11383
 Alpha  occ. eigenvalues --  -10.11383 -10.11343 -10.11343 -10.11340 -10.11340
 Alpha  occ. eigenvalues --  -10.11336 -10.11335 -10.11332 -10.11332 -10.11302
 Alpha  occ. eigenvalues --  -10.11302 -10.11123 -10.11123 -10.11083 -10.11083
 Alpha  occ. eigenvalues --   -4.80813  -4.80813  -4.80617  -3.25403  -3.25403
 Alpha  occ. eigenvalues --   -3.25202  -3.23974  -3.23974  -3.23964  -3.23964
 Alpha  occ. eigenvalues --   -3.23786  -3.23766  -1.15611  -1.15385  -1.15018
 Alpha  occ. eigenvalues --   -1.14019  -1.14015  -1.13898  -1.13822  -1.13687
 Alpha  occ. eigenvalues --   -1.13447  -1.11047  -1.10964  -1.10749  -1.08676
 Alpha  occ. eigenvalues --   -1.08634  -1.08455  -1.04404  -1.04372  -1.04357
 Alpha  occ. eigenvalues --   -1.04349  -1.04206  -1.04192  -1.01275  -1.01216
 Alpha  occ. eigenvalues --   -1.01014  -1.00290  -1.00285  -1.00185  -1.00005
 Alpha  occ. eigenvalues --   -0.99990  -0.99963  -0.99896  -0.99863  -0.99683
 Alpha  occ. eigenvalues --   -0.99633  -0.99592  -0.99553  -0.91711  -0.91669
 Alpha  occ. eigenvalues --   -0.91472  -0.90506  -0.90479  -0.90322  -0.90311
 Alpha  occ. eigenvalues --   -0.90189  -0.90155  -0.90083  -0.89935  -0.89909
 Alpha  occ. eigenvalues --   -0.89814  -0.89808  -0.89802  -0.89761  -0.89563
 Alpha  occ. eigenvalues --   -0.89491  -0.89479  -0.89462  -0.89379  -0.89346
 Alpha  occ. eigenvalues --   -0.89290  -0.89190  -0.85799  -0.85761  -0.85583
 Alpha  occ. eigenvalues --   -0.83035  -0.82989  -0.82982  -0.82959  -0.82848
 Alpha  occ. eigenvalues --   -0.82718  -0.77495  -0.77445  -0.77428  -0.77342
 Alpha  occ. eigenvalues --   -0.77165  -0.77077  -0.76527  -0.76495  -0.76445
 Alpha  occ. eigenvalues --   -0.76439  -0.76250  -0.76210  -0.75753  -0.75700
 Alpha  occ. eigenvalues --   -0.75493  -0.75391  -0.75387  -0.75240  -0.72979
 Alpha  occ. eigenvalues --   -0.72909  -0.72881  -0.72855  -0.72807  -0.72770
 Alpha  occ. eigenvalues --   -0.72671  -0.72670  -0.72616  -0.71737  -0.71664
 Alpha  occ. eigenvalues --   -0.71462  -0.69134  -0.69127  -0.68933  -0.68027
 Alpha  occ. eigenvalues --   -0.68020  -0.68019  -0.68014  -0.67850  -0.67845
 Alpha  occ. eigenvalues --   -0.66671  -0.66663  -0.66499  -0.66357  -0.66355
 Alpha  occ. eigenvalues --   -0.66317  -0.66306  -0.66216  -0.66175  -0.63261
 Alpha  occ. eigenvalues --   -0.62778  -0.62718  -0.62701  -0.62647  -0.62628
 Alpha  occ. eigenvalues --   -0.62627  -0.62570  -0.62493  -0.62480  -0.62395
 Alpha  occ. eigenvalues --   -0.62391  -0.62221  -0.62034  -0.62005  -0.61151
 Alpha  occ. eigenvalues --   -0.61127  -0.61013  -0.60562  -0.60546  -0.60543
 Alpha  occ. eigenvalues --   -0.60528  -0.60512  -0.60338  -0.60321  -0.60296
 Alpha  occ. eigenvalues --   -0.59277  -0.59276  -0.59234  -0.59179  -0.59091
 Alpha  occ. eigenvalues --   -0.58945  -0.58908  -0.58626  -0.58524  -0.58506
 Alpha  occ. eigenvalues --   -0.58322  -0.58253  -0.58238  -0.58110  -0.58071
 Alpha  occ. eigenvalues --   -0.57972  -0.57970  -0.57786  -0.57762  -0.57729
 Alpha  occ. eigenvalues --   -0.57669  -0.57623  -0.57589  -0.56932  -0.56903
 Alpha  occ. eigenvalues --   -0.56678  -0.56610  -0.56578  -0.56330  -0.56326
 Alpha  occ. eigenvalues --   -0.56189  -0.56094  -0.56065  -0.55985  -0.55920
 Alpha  occ. eigenvalues --   -0.55868  -0.55808  -0.55609  -0.55337  -0.54992
 Alpha  occ. eigenvalues --   -0.54987  -0.54796  -0.54785  -0.54761  -0.54686
 Alpha  occ. eigenvalues --   -0.54678  -0.54589  -0.54582  -0.53985  -0.53483
 Alpha  occ. eigenvalues --   -0.53481  -0.53341  -0.52630  -0.52490  -0.52178
 Alpha  occ. eigenvalues --   -0.52065  -0.51323  -0.51258  -0.50997  -0.50658
 Alpha  occ. eigenvalues --   -0.50175  -0.49509  -0.49418  -0.49264  -0.48704
 Alpha  occ. eigenvalues --   -0.48697  -0.48463  -0.48396  -0.48328  -0.48291
 Alpha  occ. eigenvalues --   -0.48193  -0.48189  -0.48156  -0.48132  -0.48009
 Alpha  occ. eigenvalues --   -0.47824  -0.47579  -0.47566  -0.47549  -0.47534
 Alpha  occ. eigenvalues --   -0.47381  -0.47373  -0.47339  -0.47302  -0.47289
 Alpha  occ. eigenvalues --   -0.47194  -0.47094  -0.46731  -0.46714  -0.46502
 Alpha  occ. eigenvalues --   -0.46056  -0.45597  -0.45586  -0.45479  -0.45453
 Alpha  occ. eigenvalues --   -0.45351  -0.45274  -0.45222  -0.45208  -0.45156
 Alpha  occ. eigenvalues --   -0.43937  -0.43590  -0.43403  -0.43366  -0.43310
 Alpha  occ. eigenvalues --   -0.43163  -0.42625  -0.42491  -0.42356  -0.39729
 Alpha  occ. eigenvalues --   -0.39688  -0.39665  -0.39624  -0.39561  -0.39471
 Alpha  occ. eigenvalues --   -0.38823  -0.38234  -0.37920  -0.37831  -0.37717
 Alpha  occ. eigenvalues --   -0.37662  -0.36981  -0.36606  -0.36495  -0.36356
 Alpha  occ. eigenvalues --   -0.36305  -0.36092  -0.36000  -0.35785  -0.35730
 Alpha  occ. eigenvalues --   -0.35693  -0.35557  -0.35552  -0.35468  -0.35324
 Alpha  occ. eigenvalues --   -0.35156  -0.35072  -0.35057  -0.34883  -0.34803
 Alpha  occ. eigenvalues --   -0.34721  -0.34700  -0.34691  -0.34051  -0.33564
 Alpha  occ. eigenvalues --   -0.33530  -0.33245  -0.33114  -0.24181  -0.23379
 Alpha  occ. eigenvalues --   -0.22711
 Alpha virt. eigenvalues --   -0.06770  -0.05955  -0.05510  -0.05491  -0.05192
 Alpha virt. eigenvalues --   -0.04088   0.02543   0.03313   0.03673   0.03732
 Alpha virt. eigenvalues --    0.04058   0.04117   0.04284   0.04606   0.04785
 Alpha virt. eigenvalues --    0.04929   0.04978   0.05203   0.05265   0.05504
 Alpha virt. eigenvalues --    0.05592   0.07995   0.08123   0.09477   0.09627
 Alpha virt. eigenvalues --    0.09727   0.09802   0.09985   0.10052   0.10504
 Alpha virt. eigenvalues --    0.10510   0.10683   0.10722   0.10768   0.10998
 Alpha virt. eigenvalues --    0.11249   0.11339   0.11629   0.11634   0.11928
 Alpha virt. eigenvalues --    0.11962   0.12063   0.12234   0.12459   0.12528
 Alpha virt. eigenvalues --    0.12849   0.13070   0.13222   0.13380   0.13384
 Alpha virt. eigenvalues --    0.13537   0.13591   0.13651   0.13936   0.13975
 Alpha virt. eigenvalues --    0.14040   0.14128   0.14139   0.14273   0.14421
 Alpha virt. eigenvalues --    0.14584   0.14651   0.14905   0.14934   0.14966
 Alpha virt. eigenvalues --    0.15223   0.15651   0.15782   0.15862   0.16048
 Alpha virt. eigenvalues --    0.16130   0.16255   0.16449   0.16779   0.16820
 Alpha virt. eigenvalues --    0.17607   0.17644   0.17921   0.18039   0.18182
 Alpha virt. eigenvalues --    0.18240   0.18348   0.18439   0.18979   0.19164
 Alpha virt. eigenvalues --    0.19977   0.20020   0.20139   0.20278   0.20289
 Alpha virt. eigenvalues --    0.20405   0.20471   0.20604   0.20799   0.20833
 Alpha virt. eigenvalues --    0.20844   0.20910   0.21085   0.21218   0.21295
 Alpha virt. eigenvalues --    0.21368   0.21722   0.21735   0.21788   0.21983
 Alpha virt. eigenvalues --    0.22385   0.22554   0.22745   0.22759   0.22870
 Alpha virt. eigenvalues --    0.23072   0.23179   0.23858   0.23930   0.24346
 Alpha virt. eigenvalues --    0.24985   0.24987   0.25102   0.25126   0.25149
 Alpha virt. eigenvalues --    0.25293   0.25560   0.25743   0.25820   0.25891
 Alpha virt. eigenvalues --    0.25920   0.26111   0.26181   0.26233   0.26398
 Alpha virt. eigenvalues --    0.26488   0.26587   0.26631   0.26891   0.26943
 Alpha virt. eigenvalues --    0.27013   0.27136   0.27442   0.27535   0.27563
 Alpha virt. eigenvalues --    0.27680   0.27731   0.27811   0.27850   0.27883
 Alpha virt. eigenvalues --    0.27946   0.28165   0.28268   0.28333   0.28349
 Alpha virt. eigenvalues --    0.28448   0.28496   0.28780   0.28847   0.28885
 Alpha virt. eigenvalues --    0.29061   0.29091   0.29129   0.29400   0.29413
 Alpha virt. eigenvalues --    0.29438   0.29440   0.29497   0.29596   0.29726
 Alpha virt. eigenvalues --    0.29750   0.29810   0.29818   0.29829   0.29867
 Alpha virt. eigenvalues --    0.30147   0.30175   0.30261   0.30264   0.30373
 Alpha virt. eigenvalues --    0.30409   0.30534   0.30537   0.30539   0.30686
 Alpha virt. eigenvalues --    0.30753   0.30846   0.30849   0.30966   0.31049
 Alpha virt. eigenvalues --    0.31283   0.31320   0.31485   0.31507   0.31681
 Alpha virt. eigenvalues --    0.31743   0.31786   0.31909   0.32037   0.32124
 Alpha virt. eigenvalues --    0.32152   0.32218   0.32233   0.32508   0.32512
 Alpha virt. eigenvalues --    0.32512   0.32712   0.32897   0.32949   0.33063
 Alpha virt. eigenvalues --    0.33064   0.33116   0.33439   0.33519   0.33873
 Alpha virt. eigenvalues --    0.33915   0.34001   0.34196   0.34404   0.34417
 Alpha virt. eigenvalues --    0.34821   0.34845   0.34924   0.35000   0.35156
 Alpha virt. eigenvalues --    0.35209   0.35301   0.35382   0.35590   0.35706
 Alpha virt. eigenvalues --    0.35876   0.35882   0.36043   0.36211   0.36335
 Alpha virt. eigenvalues --    0.36341   0.36368   0.36413   0.36474   0.36656
 Alpha virt. eigenvalues --    0.36813   0.36989   0.36995   0.37295   0.37347
 Alpha virt. eigenvalues --    0.37700   0.37714   0.38034   0.38059   0.38190
 Alpha virt. eigenvalues --    0.38230   0.38366   0.38460   0.38686   0.38710
 Alpha virt. eigenvalues --    0.38747   0.38930   0.39063   0.39243   0.39315
 Alpha virt. eigenvalues --    0.39385   0.39409   0.39522   0.39539   0.39656
 Alpha virt. eigenvalues --    0.39735   0.39755   0.40042   0.40069   0.40228
 Alpha virt. eigenvalues --    0.40239   0.40350   0.40504   0.40715   0.40798
 Alpha virt. eigenvalues --    0.40924   0.40967   0.40983   0.41115   0.41152
 Alpha virt. eigenvalues --    0.41155   0.41261   0.41433   0.41457   0.41586
 Alpha virt. eigenvalues --    0.41675   0.41686   0.41867   0.41909   0.41979
 Alpha virt. eigenvalues --    0.42049   0.42107   0.42310   0.42435   0.42451
 Alpha virt. eigenvalues --    0.42609   0.42763   0.42799   0.42824   0.42931
 Alpha virt. eigenvalues --    0.43116   0.43137   0.43253   0.43751   0.43798
 Alpha virt. eigenvalues --    0.43886   0.44074   0.44128   0.44136   0.44203
 Alpha virt. eigenvalues --    0.44328   0.44427   0.44499   0.44561   0.44711
 Alpha virt. eigenvalues --    0.44723   0.44846   0.44903   0.44941   0.44990
 Alpha virt. eigenvalues --    0.45168   0.45276   0.45479   0.45499   0.45582
 Alpha virt. eigenvalues --    0.45680   0.45734   0.45818   0.45827   0.45991
 Alpha virt. eigenvalues --    0.46230   0.46241   0.46429   0.46493   0.46501
 Alpha virt. eigenvalues --    0.46556   0.46675   0.46706   0.46887   0.46897
 Alpha virt. eigenvalues --    0.47050   0.47124   0.47238   0.47580   0.47604
 Alpha virt. eigenvalues --    0.47849   0.47918   0.47928   0.47973   0.48059
 Alpha virt. eigenvalues --    0.48106   0.48179   0.48180   0.48304   0.48418
 Alpha virt. eigenvalues --    0.48444   0.48628   0.48765   0.48882   0.48951
 Alpha virt. eigenvalues --    0.48979   0.49058   0.49184   0.49213   0.49231
 Alpha virt. eigenvalues --    0.49441   0.49490   0.49628   0.49706   0.49880
 Alpha virt. eigenvalues --    0.49904   0.50149   0.50368   0.50411   0.50430
 Alpha virt. eigenvalues --    0.50583   0.50692   0.50723   0.50746   0.50871
 Alpha virt. eigenvalues --    0.50903   0.51093   0.51123   0.51132   0.51233
 Alpha virt. eigenvalues --    0.51256   0.51349   0.51356   0.51491   0.51546
 Alpha virt. eigenvalues --    0.51567   0.51711   0.51786   0.51994   0.52024
 Alpha virt. eigenvalues --    0.52024   0.52188   0.52441   0.52508   0.52580
 Alpha virt. eigenvalues --    0.52830   0.52940   0.53041   0.53242   0.53285
 Alpha virt. eigenvalues --    0.53302   0.53394   0.53412   0.53431   0.53641
 Alpha virt. eigenvalues --    0.53693   0.53776   0.53832   0.54073   0.54101
 Alpha virt. eigenvalues --    0.54239   0.54284   0.54583   0.54608   0.54665
 Alpha virt. eigenvalues --    0.54701   0.54776   0.54911   0.55103   0.55264
 Alpha virt. eigenvalues --    0.55336   0.55378   0.55535   0.55547   0.55875
 Alpha virt. eigenvalues --    0.56062   0.56071   0.56102   0.56251   0.56469
 Alpha virt. eigenvalues --    0.56499   0.56533   0.56725   0.56746   0.56878
 Alpha virt. eigenvalues --    0.56897   0.57235   0.57346   0.57352   0.57394
 Alpha virt. eigenvalues --    0.57619   0.57781   0.57910   0.58286   0.58305
 Alpha virt. eigenvalues --    0.58396   0.58533   0.58609   0.58729   0.58963
 Alpha virt. eigenvalues --    0.59074   0.59084   0.59123   0.59539   0.59542
 Alpha virt. eigenvalues --    0.59552   0.59704   0.59974   0.60021   0.60367
 Alpha virt. eigenvalues --    0.60410   0.60536   0.60557   0.60695   0.60798
 Alpha virt. eigenvalues --    0.61005   0.61034   0.61114   0.61324   0.61348
 Alpha virt. eigenvalues --    0.61407   0.61506   0.61526   0.61635   0.61677
 Alpha virt. eigenvalues --    0.61808   0.61997   0.62165   0.62273   0.62346
 Alpha virt. eigenvalues --    0.62370   0.62515   0.62634   0.63031   0.63099
 Alpha virt. eigenvalues --    0.63163   0.63290   0.63343   0.63360   0.63562
 Alpha virt. eigenvalues --    0.63658   0.63740   0.63811   0.64222   0.64273
 Alpha virt. eigenvalues --    0.64283   0.64453   0.64681   0.64861   0.64893
 Alpha virt. eigenvalues --    0.65186   0.65292   0.65524   0.65594   0.65820
 Alpha virt. eigenvalues --    0.65848   0.65973   0.66042   0.66532   0.66624
 Alpha virt. eigenvalues --    0.66675   0.66806   0.66849   0.66960   0.67083
 Alpha virt. eigenvalues --    0.67331   0.67376   0.67621   0.67786   0.67886
 Alpha virt. eigenvalues --    0.68085   0.68092   0.68197   0.68263   0.68354
 Alpha virt. eigenvalues --    0.68583   0.68731   0.68738   0.68840   0.69133
 Alpha virt. eigenvalues --    0.69429   0.69521   0.69811   0.69876   0.69879
 Alpha virt. eigenvalues --    0.70030   0.70283   0.70312   0.70458   0.70638
 Alpha virt. eigenvalues --    0.70751   0.71099   0.71139   0.71144   0.71343
 Alpha virt. eigenvalues --    0.71415   0.71479   0.71642   0.71689   0.71896
 Alpha virt. eigenvalues --    0.71902   0.71926   0.72329   0.72366   0.72404
 Alpha virt. eigenvalues --    0.72606   0.72680   0.72761   0.72881   0.73055
 Alpha virt. eigenvalues --    0.73142   0.73155   0.73282   0.73444   0.73699
 Alpha virt. eigenvalues --    0.73718   0.73724   0.73728   0.73821   0.73954
 Alpha virt. eigenvalues --    0.74174   0.74342   0.74447   0.74581   0.74610
 Alpha virt. eigenvalues --    0.74826   0.74871   0.74957   0.75057   0.75078
 Alpha virt. eigenvalues --    0.75185   0.75300   0.75489   0.75666   0.75676
 Alpha virt. eigenvalues --    0.75749   0.76120   0.76177   0.76426   0.76461
 Alpha virt. eigenvalues --    0.76463   0.76510   0.76565   0.76819   0.76851
 Alpha virt. eigenvalues --    0.76936   0.77081   0.77257   0.77316   0.77376
 Alpha virt. eigenvalues --    0.77486   0.77619   0.77734   0.77786   0.77823
 Alpha virt. eigenvalues --    0.77916   0.77987   0.78315   0.78558   0.78588
 Alpha virt. eigenvalues --    0.78693   0.78776   0.78817   0.78879   0.79031
 Alpha virt. eigenvalues --    0.79103   0.79147   0.79447   0.79772   0.79836
 Alpha virt. eigenvalues --    0.79882   0.80156   0.80230   0.80270   0.80318
 Alpha virt. eigenvalues --    0.80481   0.80524   0.80524   0.80587   0.80621
 Alpha virt. eigenvalues --    0.81015   0.81065   0.81068   0.81324   0.81385
 Alpha virt. eigenvalues --    0.81489   0.81603   0.81635   0.81812   0.81827
 Alpha virt. eigenvalues --    0.81839   0.81973   0.82102   0.82118   0.82301
 Alpha virt. eigenvalues --    0.82307   0.82394   0.82545   0.82567   0.82813
 Alpha virt. eigenvalues --    0.82854   0.82975   0.83001   0.83042   0.83072
 Alpha virt. eigenvalues --    0.83154   0.83296   0.83321   0.83345   0.83531
 Alpha virt. eigenvalues --    0.83769   0.83892   0.83978   0.83998   0.84071
 Alpha virt. eigenvalues --    0.84281   0.84403   0.84444   0.84644   0.84649
 Alpha virt. eigenvalues --    0.84771   0.85127   0.85179   0.85185   0.85279
 Alpha virt. eigenvalues --    0.85470   0.85514   0.85577   0.85640   0.85661
 Alpha virt. eigenvalues --    0.85782   0.85930   0.86019   0.86215   0.86255
 Alpha virt. eigenvalues --    0.86323   0.86426   0.86454   0.86822   0.86880
 Alpha virt. eigenvalues --    0.86985   0.87197   0.87334   0.87389   0.87407
 Alpha virt. eigenvalues --    0.87415   0.87713   0.87776   0.87815   0.88083
 Alpha virt. eigenvalues --    0.88127   0.88225   0.88308   0.88333   0.88545
 Alpha virt. eigenvalues --    0.88755   0.88780   0.88885   0.88917   0.88939
 Alpha virt. eigenvalues --    0.88962   0.89240   0.89292   0.89411   0.89413
 Alpha virt. eigenvalues --    0.89595   0.89622   0.89625   0.89737   0.89817
 Alpha virt. eigenvalues --    0.90217   0.90378   0.90451   0.90462   0.90613
 Alpha virt. eigenvalues --    0.90729   0.90820   0.91114   0.91150   0.91175
 Alpha virt. eigenvalues --    0.91317   0.91656   0.91671   0.91808   0.91816
 Alpha virt. eigenvalues --    0.91868   0.92086   0.92333   0.92845   0.92913
 Alpha virt. eigenvalues --    0.92944   0.93050   0.93199   0.93255   0.93270
 Alpha virt. eigenvalues --    0.93770   0.93775   0.93893   0.94118   0.94209
 Alpha virt. eigenvalues --    0.94220   0.94338   0.94798   0.94909   0.94942
 Alpha virt. eigenvalues --    0.95066   0.95100   0.95171   0.95583   0.95895
 Alpha virt. eigenvalues --    0.96054   0.96315   0.96435   0.96585   0.96594
 Alpha virt. eigenvalues --    0.96636   0.96832   0.96904   0.97123   0.97274
 Alpha virt. eigenvalues --    0.97343   0.97391   0.97462   0.97584   0.97663
 Alpha virt. eigenvalues --    0.98100   0.98263   0.98306   0.98413   0.98563
 Alpha virt. eigenvalues --    0.98664   0.98843   0.98984   0.99045   0.99168
 Alpha virt. eigenvalues --    0.99256   0.99283   0.99619   0.99715   0.99783
 Alpha virt. eigenvalues --    1.00130   1.00170   1.00603   1.00714   1.00803
 Alpha virt. eigenvalues --    1.01027   1.01060   1.01109   1.01370   1.01391
 Alpha virt. eigenvalues --    1.01599   1.01665   1.01727   1.02014   1.02085
 Alpha virt. eigenvalues --    1.02187   1.02310   1.02352   1.02498   1.02690
 Alpha virt. eigenvalues --    1.02781   1.02810   1.03053   1.03264   1.03465
 Alpha virt. eigenvalues --    1.03604   1.03633   1.03772   1.03877   1.03894
 Alpha virt. eigenvalues --    1.03968   1.04332   1.04550   1.04553   1.04576
 Alpha virt. eigenvalues --    1.04715   1.04893   1.05025   1.05060   1.05234
 Alpha virt. eigenvalues --    1.05541   1.05557   1.05601   1.06022   1.06206
 Alpha virt. eigenvalues --    1.06339   1.06461   1.06584   1.06691   1.06861
 Alpha virt. eigenvalues --    1.07151   1.07232   1.07349   1.07378   1.07590
 Alpha virt. eigenvalues --    1.07702   1.07810   1.07900   1.07904   1.07988
 Alpha virt. eigenvalues --    1.08117   1.08327   1.08711   1.08770   1.08836
 Alpha virt. eigenvalues --    1.08861   1.09050   1.09305   1.09621   1.09663
 Alpha virt. eigenvalues --    1.09782   1.09988   1.10139   1.10263   1.10317
 Alpha virt. eigenvalues --    1.10327   1.10530   1.10648   1.10678   1.10845
 Alpha virt. eigenvalues --    1.11223   1.11276   1.11392   1.11599   1.11655
 Alpha virt. eigenvalues --    1.11788   1.11789   1.11884   1.11917   1.12070
 Alpha virt. eigenvalues --    1.12191   1.12682   1.12915   1.13153   1.13421
 Alpha virt. eigenvalues --    1.13564   1.13618   1.13916   1.13956   1.14038
 Alpha virt. eigenvalues --    1.14293   1.14311   1.14487   1.14985   1.15052
 Alpha virt. eigenvalues --    1.15200   1.15572   1.15581   1.15743   1.15915
 Alpha virt. eigenvalues --    1.16187   1.16191   1.16413   1.16449   1.16689
 Alpha virt. eigenvalues --    1.16765   1.17200   1.17253   1.17411   1.17605
 Alpha virt. eigenvalues --    1.17833   1.17846   1.17964   1.18154   1.18300
 Alpha virt. eigenvalues --    1.18481   1.18709   1.18783   1.19125   1.19159
 Alpha virt. eigenvalues --    1.19376   1.19555   1.19778   1.19930   1.19968
 Alpha virt. eigenvalues --    1.20098   1.20115   1.20391   1.20553   1.20836
 Alpha virt. eigenvalues --    1.20896   1.21139   1.21167   1.21292   1.21395
 Alpha virt. eigenvalues --    1.21546   1.21558   1.21689   1.22088   1.22507
 Alpha virt. eigenvalues --    1.22570   1.22608   1.22629   1.22854   1.22933
 Alpha virt. eigenvalues --    1.22949   1.23314   1.23432   1.23669   1.23758
 Alpha virt. eigenvalues --    1.23840   1.23976   1.24390   1.24401   1.24524
 Alpha virt. eigenvalues --    1.24737   1.24795   1.24932   1.25081   1.25144
 Alpha virt. eigenvalues --    1.25152   1.25586   1.25771   1.25777   1.25984
 Alpha virt. eigenvalues --    1.26049   1.26201   1.26449   1.26472   1.26926
 Alpha virt. eigenvalues --    1.26975   1.27008   1.27305   1.27369   1.27395
 Alpha virt. eigenvalues --    1.27629   1.27635   1.28031   1.28213   1.28213
 Alpha virt. eigenvalues --    1.28271   1.28377   1.28753   1.28888   1.29207
 Alpha virt. eigenvalues --    1.29319   1.29436   1.29516   1.29587   1.29804
 Alpha virt. eigenvalues --    1.29829   1.29958   1.30069   1.30210   1.30288
 Alpha virt. eigenvalues --    1.30437   1.30642   1.31024   1.31191   1.31203
 Alpha virt. eigenvalues --    1.31219   1.31261   1.31610   1.31841   1.32001
 Alpha virt. eigenvalues --    1.32214   1.32275   1.32403   1.32820   1.32894
 Alpha virt. eigenvalues --    1.33110   1.33303   1.33440   1.33479   1.33629
 Alpha virt. eigenvalues --    1.34030   1.34033   1.34067   1.34074   1.34148
 Alpha virt. eigenvalues --    1.34272   1.34473   1.35152   1.35250   1.35404
 Alpha virt. eigenvalues --    1.35529   1.35624   1.35720   1.35894   1.35982
 Alpha virt. eigenvalues --    1.36055   1.36318   1.36501   1.36572   1.36600
 Alpha virt. eigenvalues --    1.36821   1.37144   1.37286   1.37525   1.37612
 Alpha virt. eigenvalues --    1.37684   1.37707   1.37887   1.37903   1.37996
 Alpha virt. eigenvalues --    1.38199   1.38472   1.38674   1.38745   1.38756
 Alpha virt. eigenvalues --    1.38942   1.39044   1.39339   1.39442   1.39605
 Alpha virt. eigenvalues --    1.39757   1.39883   1.40008   1.40062   1.40389
 Alpha virt. eigenvalues --    1.40473   1.40628   1.40664   1.40759   1.40909
 Alpha virt. eigenvalues --    1.41060   1.41220   1.41548   1.41564   1.41838
 Alpha virt. eigenvalues --    1.41869   1.42262   1.42285   1.42590   1.42789
 Alpha virt. eigenvalues --    1.42834   1.42900   1.43211   1.43272   1.43296
 Alpha virt. eigenvalues --    1.43341   1.43406   1.43716   1.43740   1.43792
 Alpha virt. eigenvalues --    1.44044   1.44280   1.44333   1.44539   1.44609
 Alpha virt. eigenvalues --    1.44935   1.44941   1.44998   1.45004   1.45522
 Alpha virt. eigenvalues --    1.45543   1.45544   1.45852   1.45908   1.46167
 Alpha virt. eigenvalues --    1.46220   1.46400   1.46586   1.46664   1.46672
 Alpha virt. eigenvalues --    1.46779   1.46829   1.47108   1.47156   1.47402
 Alpha virt. eigenvalues --    1.47485   1.47683   1.47795   1.47822   1.48413
 Alpha virt. eigenvalues --    1.48427   1.48436   1.48534   1.48746   1.49014
 Alpha virt. eigenvalues --    1.49049   1.49124   1.49269   1.49515   1.49813
 Alpha virt. eigenvalues --    1.49888   1.49900   1.49978   1.50159   1.50308
 Alpha virt. eigenvalues --    1.50342   1.50495   1.50496   1.50584   1.50668
 Alpha virt. eigenvalues --    1.50723   1.51333   1.51353   1.51447   1.51469
 Alpha virt. eigenvalues --    1.51785   1.51823   1.51869   1.51983   1.52236
 Alpha virt. eigenvalues --    1.52675   1.52758   1.52915   1.52955   1.53050
 Alpha virt. eigenvalues --    1.53462   1.53548   1.53587   1.53616   1.53809
 Alpha virt. eigenvalues --    1.53837   1.54199   1.54294   1.54313   1.54367
 Alpha virt. eigenvalues --    1.54575   1.54980   1.54984   1.55305   1.55618
 Alpha virt. eigenvalues --    1.55673   1.55683   1.55805   1.55995   1.56028
 Alpha virt. eigenvalues --    1.56509   1.56536   1.56597   1.56611   1.56727
 Alpha virt. eigenvalues --    1.56737   1.56984   1.57066   1.57374   1.57475
 Alpha virt. eigenvalues --    1.57639   1.57740   1.57802   1.57941   1.57954
 Alpha virt. eigenvalues --    1.58222   1.58333   1.58346   1.58426   1.58521
 Alpha virt. eigenvalues --    1.59039   1.59073   1.59092   1.59412   1.59533
 Alpha virt. eigenvalues --    1.59721   1.59918   1.59973   1.60088   1.60157
 Alpha virt. eigenvalues --    1.60566   1.60601   1.60720   1.60834   1.60932
 Alpha virt. eigenvalues --    1.60992   1.61355   1.61508   1.61944   1.62047
 Alpha virt. eigenvalues --    1.62081   1.62353   1.62704   1.62910   1.63295
 Alpha virt. eigenvalues --    1.63418   1.63638   1.63744   1.63784   1.63818
 Alpha virt. eigenvalues --    1.64199   1.64423   1.64659   1.64739   1.65032
 Alpha virt. eigenvalues --    1.65160   1.65301   1.65493   1.65726   1.65770
 Alpha virt. eigenvalues --    1.65913   1.66018   1.66207   1.66370   1.66428
 Alpha virt. eigenvalues --    1.66701   1.66809   1.66813   1.66988   1.67115
 Alpha virt. eigenvalues --    1.67463   1.67597   1.67838   1.67913   1.67925
 Alpha virt. eigenvalues --    1.68382   1.68428   1.68514   1.68801   1.69040
 Alpha virt. eigenvalues --    1.69217   1.69246   1.69489   1.69602   1.69704
 Alpha virt. eigenvalues --    1.69806   1.69898   1.69996   1.70177   1.70790
 Alpha virt. eigenvalues --    1.70914   1.70968   1.70969   1.71026   1.71324
 Alpha virt. eigenvalues --    1.71444   1.71461   1.71551   1.71795   1.71851
 Alpha virt. eigenvalues --    1.72182   1.72466   1.72510   1.72564   1.72655
 Alpha virt. eigenvalues --    1.72790   1.72918   1.72933   1.73154   1.73484
 Alpha virt. eigenvalues --    1.73546   1.73705   1.73808   1.73825   1.74130
 Alpha virt. eigenvalues --    1.74180   1.74278   1.74369   1.74534   1.74547
 Alpha virt. eigenvalues --    1.74759   1.74808   1.74860   1.74911   1.75402
 Alpha virt. eigenvalues --    1.75407   1.75554   1.75635   1.75797   1.75829
 Alpha virt. eigenvalues --    1.76072   1.76316   1.76514   1.76670   1.76740
 Alpha virt. eigenvalues --    1.76779   1.76931   1.77179   1.77186   1.77432
 Alpha virt. eigenvalues --    1.77509   1.77606   1.77906   1.77910   1.77967
 Alpha virt. eigenvalues --    1.78001   1.78541   1.78738   1.78920   1.79025
 Alpha virt. eigenvalues --    1.79092   1.79241   1.79266   1.79318   1.79340
 Alpha virt. eigenvalues --    1.79499   1.79533   1.79731   1.80016   1.80162
 Alpha virt. eigenvalues --    1.80568   1.80624   1.80758   1.80791   1.80880
 Alpha virt. eigenvalues --    1.81384   1.81406   1.81453   1.81670   1.81677
 Alpha virt. eigenvalues --    1.81722   1.82085   1.82226   1.82253   1.82376
 Alpha virt. eigenvalues --    1.82541   1.82880   1.82938   1.82989   1.83370
 Alpha virt. eigenvalues --    1.83416   1.83573   1.83582   1.83601   1.83724
 Alpha virt. eigenvalues --    1.83836   1.84238   1.84403   1.84422   1.84524
 Alpha virt. eigenvalues --    1.84673   1.84725   1.85243   1.85283   1.85458
 Alpha virt. eigenvalues --    1.85767   1.85829   1.85859   1.86296   1.86316
 Alpha virt. eigenvalues --    1.86408   1.86699   1.86791   1.86792   1.87132
 Alpha virt. eigenvalues --    1.87142   1.87313   1.87446   1.87540   1.87553
 Alpha virt. eigenvalues --    1.87632   1.88212   1.88232   1.88411   1.88413
 Alpha virt. eigenvalues --    1.88561   1.88822   1.88858   1.89011   1.89079
 Alpha virt. eigenvalues --    1.89096   1.89300   1.89329   1.89453   1.89551
 Alpha virt. eigenvalues --    1.89595   1.89892   1.90104   1.90176   1.90324
 Alpha virt. eigenvalues --    1.90476   1.90547   1.90739   1.91141   1.91350
 Alpha virt. eigenvalues --    1.91404   1.91501   1.91597   1.91685   1.92185
 Alpha virt. eigenvalues --    1.92318   1.92973   1.92979   1.92993   1.93020
 Alpha virt. eigenvalues --    1.93140   1.93143   1.93399   1.93610   1.93708
 Alpha virt. eigenvalues --    1.93790   1.93878   1.94253   1.94408   1.94524
 Alpha virt. eigenvalues --    1.94737   1.94912   1.94957   1.94972   1.95087
 Alpha virt. eigenvalues --    1.95360   1.95363   1.95420   1.95678   1.95858
 Alpha virt. eigenvalues --    1.95995   1.96198   1.96674   1.96749   1.96968
 Alpha virt. eigenvalues --    1.97109   1.97266   1.97407   1.97848   1.98011
 Alpha virt. eigenvalues --    1.98088   1.98344   1.98528   1.98570   1.98649
 Alpha virt. eigenvalues --    1.98758   1.99002   1.99062   1.99264   1.99490
 Alpha virt. eigenvalues --    1.99512   1.99696   1.99921   2.00058   2.00352
 Alpha virt. eigenvalues --    2.00516   2.00607   2.00826   2.00855   2.01273
 Alpha virt. eigenvalues --    2.01330   2.01361   2.01498   2.01551   2.01786
 Alpha virt. eigenvalues --    2.01918   2.02194   2.02490   2.02671   2.02779
 Alpha virt. eigenvalues --    2.02885   2.03189   2.03386   2.03429   2.03556
 Alpha virt. eigenvalues --    2.04040   2.04244   2.04425   2.04646   2.04771
 Alpha virt. eigenvalues --    2.05092   2.05248   2.05494   2.05681   2.05743
 Alpha virt. eigenvalues --    2.05796   2.06584   2.06943   2.07158   2.07175
 Alpha virt. eigenvalues --    2.07207   2.07464   2.07557   2.07844   2.07890
 Alpha virt. eigenvalues --    2.08194   2.08304   2.08365   2.08428   2.08792
 Alpha virt. eigenvalues --    2.09314   2.09721   2.09758   2.09786   2.09868
 Alpha virt. eigenvalues --    2.09955   2.10584   2.10823   2.10899   2.10988
 Alpha virt. eigenvalues --    2.11310   2.11681   2.11728   2.12081   2.12483
 Alpha virt. eigenvalues --    2.12517   2.12788   2.12912   2.12983   2.12984
 Alpha virt. eigenvalues --    2.13417   2.13478   2.14000   2.14032   2.14103
 Alpha virt. eigenvalues --    2.14551   2.14649   2.14704   2.14811   2.15779
 Alpha virt. eigenvalues --    2.15834   2.15943   2.16002   2.16751   2.16949
 Alpha virt. eigenvalues --    2.17139   2.17255   2.17508   2.17530   2.17545
 Alpha virt. eigenvalues --    2.17551   2.18236   2.18363   2.18627   2.18990
 Alpha virt. eigenvalues --    2.19404   2.19463   2.19946   2.19976   2.20082
 Alpha virt. eigenvalues --    2.20096   2.20287   2.20462   2.20604   2.20792
 Alpha virt. eigenvalues --    2.21209   2.21285   2.21603   2.21753   2.22010
 Alpha virt. eigenvalues --    2.22291   2.22591   2.22999   2.23082   2.23288
 Alpha virt. eigenvalues --    2.23362   2.23423   2.23515   2.23855   2.24411
 Alpha virt. eigenvalues --    2.24494   2.24713   2.24723   2.24850   2.25122
 Alpha virt. eigenvalues --    2.25944   2.26217   2.26462   2.26506   2.26885
 Alpha virt. eigenvalues --    2.26921   2.26946   2.27694   2.28077   2.28090
 Alpha virt. eigenvalues --    2.28329   2.28406   2.28738   2.28772   2.28911
 Alpha virt. eigenvalues --    2.28984   2.29191   2.29472   2.29608   2.29819
 Alpha virt. eigenvalues --    2.30018   2.30335   2.30623   2.30751   2.31050
 Alpha virt. eigenvalues --    2.31460   2.31487   2.31497   2.31754   2.31845
 Alpha virt. eigenvalues --    2.31902   2.32186   2.32443   2.32493   2.33354
 Alpha virt. eigenvalues --    2.33469   2.33687   2.33765   2.34175   2.34337
 Alpha virt. eigenvalues --    2.34490   2.34735   2.35009   2.35430   2.35857
 Alpha virt. eigenvalues --    2.35987   2.35990   2.36933   2.36936   2.37015
 Alpha virt. eigenvalues --    2.37070   2.37436   2.37450   2.37592   2.37771
 Alpha virt. eigenvalues --    2.37875   2.37989   2.38056   2.38645   2.38876
 Alpha virt. eigenvalues --    2.38899   2.39067   2.39290   2.39690   2.39734
 Alpha virt. eigenvalues --    2.40016   2.40238   2.40515   2.40788   2.41026
 Alpha virt. eigenvalues --    2.41127   2.41381   2.41504   2.41895   2.42053
 Alpha virt. eigenvalues --    2.42118   2.42150   2.42265   2.42372   2.42491
 Alpha virt. eigenvalues --    2.42703   2.42833   2.43263   2.43477   2.43491
 Alpha virt. eigenvalues --    2.43815   2.43829   2.43962   2.43990   2.44188
 Alpha virt. eigenvalues --    2.44338   2.44577   2.44934   2.45124   2.45150
 Alpha virt. eigenvalues --    2.45376   2.45620   2.45884   2.45929   2.45982
 Alpha virt. eigenvalues --    2.46090   2.46367   2.46448   2.46884   2.47166
 Alpha virt. eigenvalues --    2.47511   2.47855   2.47986   2.48281   2.48318
 Alpha virt. eigenvalues --    2.48651   2.48914   2.49035   2.49201   2.49229
 Alpha virt. eigenvalues --    2.49407   2.49715   2.50198   2.50449   2.50468
 Alpha virt. eigenvalues --    2.50553   2.50579   2.50796   2.51035   2.51316
 Alpha virt. eigenvalues --    2.51355   2.51740   2.51975   2.51988   2.52455
 Alpha virt. eigenvalues --    2.52532   2.52547   2.52775   2.52959   2.52968
 Alpha virt. eigenvalues --    2.53246   2.53626   2.53698   2.53728   2.53971
 Alpha virt. eigenvalues --    2.54271   2.54305   2.54570   2.54625   2.54693
 Alpha virt. eigenvalues --    2.54941   2.55463   2.55862   2.55894   2.55929
 Alpha virt. eigenvalues --    2.56134   2.56347   2.56654   2.56961   2.57019
 Alpha virt. eigenvalues --    2.57071   2.57185   2.57295   2.57663   2.57694
 Alpha virt. eigenvalues --    2.57695   2.57749   2.57792   2.58133   2.58255
 Alpha virt. eigenvalues --    2.58880   2.59007   2.59097   2.59414   2.59493
 Alpha virt. eigenvalues --    2.59782   2.59784   2.60022   2.60238   2.60535
 Alpha virt. eigenvalues --    2.60574   2.60772   2.61138   2.61164   2.61482
 Alpha virt. eigenvalues --    2.61580   2.61830   2.61858   2.62261   2.62382
 Alpha virt. eigenvalues --    2.62567   2.62923   2.63545   2.63556   2.63566
 Alpha virt. eigenvalues --    2.63862   2.64305   2.64620   2.64942   2.65025
 Alpha virt. eigenvalues --    2.65039   2.65477   2.65548   2.65857   2.65942
 Alpha virt. eigenvalues --    2.65946   2.66350   2.66825   2.67275   2.67501
 Alpha virt. eigenvalues --    2.67631   2.67639   2.67824   2.68197   2.68213
 Alpha virt. eigenvalues --    2.68220   2.68316   2.68636   2.68642   2.69192
 Alpha virt. eigenvalues --    2.69259   2.70029   2.70301   2.70699   2.70730
 Alpha virt. eigenvalues --    2.71050   2.71164   2.71353   2.71424   2.73200
 Alpha virt. eigenvalues --    2.73206   2.73311   2.73347   2.73564   2.74153
 Alpha virt. eigenvalues --    2.74358   2.74402   2.74410   2.74913   2.75149
 Alpha virt. eigenvalues --    2.75276   2.75448   2.75586   2.76010   2.76155
 Alpha virt. eigenvalues --    2.76338   2.76932   2.77006   2.77253   2.77368
 Alpha virt. eigenvalues --    2.77718   2.77765   2.77827   2.78046   2.78181
 Alpha virt. eigenvalues --    2.78275   2.78510   2.78631   2.78673   2.78999
 Alpha virt. eigenvalues --    2.79115   2.79321   2.79356   2.79464   2.79660
 Alpha virt. eigenvalues --    2.79763   2.79949   2.80290   2.80406   2.80559
 Alpha virt. eigenvalues --    2.80806   2.80838   2.80966   2.81194   2.81236
 Alpha virt. eigenvalues --    2.81241   2.81358   2.81553   2.81659   2.81833
 Alpha virt. eigenvalues --    2.82019   2.82098   2.82602   2.82648   2.82942
 Alpha virt. eigenvalues --    2.83180   2.83276   2.83509   2.83576   2.83631
 Alpha virt. eigenvalues --    2.83936   2.84013   2.84471   2.84642   2.84804
 Alpha virt. eigenvalues --    2.84880   2.84922   2.85170   2.85400   2.86022
 Alpha virt. eigenvalues --    2.86284   2.86322   2.86968   2.87146   2.87820
 Alpha virt. eigenvalues --    2.87832   2.87929   2.88799   2.88887   2.88961
 Alpha virt. eigenvalues --    2.89120   2.89884   2.89956   2.90472   2.90625
 Alpha virt. eigenvalues --    2.91509   2.91605   2.91877   2.91958   2.92027
 Alpha virt. eigenvalues --    2.92428   2.92562   2.92625   2.93001   2.93083
 Alpha virt. eigenvalues --    2.93128   2.93398   2.93628   2.93775   2.94711
 Alpha virt. eigenvalues --    2.94918   2.94918   2.94992   2.95050   2.95423
 Alpha virt. eigenvalues --    2.95726   2.95769   2.96189   2.96393   2.96425
 Alpha virt. eigenvalues --    2.97048   2.97064   2.97388   2.97549   2.97578
 Alpha virt. eigenvalues --    2.98187   2.98214   2.98363   2.98478   2.98705
 Alpha virt. eigenvalues --    2.98801   2.99329   2.99415   2.99501   2.99782
 Alpha virt. eigenvalues --    2.99977   3.00083   3.00112   3.00449   3.00484
 Alpha virt. eigenvalues --    3.00524   3.00751   3.00955   3.00970   3.00978
 Alpha virt. eigenvalues --    3.01211   3.01337   3.01613   3.01670   3.01796
 Alpha virt. eigenvalues --    3.01815   3.01932   3.01938   3.02595   3.02884
 Alpha virt. eigenvalues --    3.02899   3.03114   3.03181   3.03340   3.03479
 Alpha virt. eigenvalues --    3.03614   3.03691   3.03721   3.03945   3.04288
 Alpha virt. eigenvalues --    3.04311   3.04922   3.04961   3.05177   3.05322
 Alpha virt. eigenvalues --    3.05676   3.05842   3.06194   3.06278   3.06354
 Alpha virt. eigenvalues --    3.06615   3.06847   3.06863   3.07125   3.07242
 Alpha virt. eigenvalues --    3.07404   3.07757   3.07785   3.07858   3.08310
 Alpha virt. eigenvalues --    3.08381   3.08390   3.08454   3.08707   3.08956
 Alpha virt. eigenvalues --    3.09223   3.09680   3.09706   3.09847   3.09888
 Alpha virt. eigenvalues --    3.09983   3.10469   3.10606   3.10609   3.11041
 Alpha virt. eigenvalues --    3.11117   3.11329   3.11404   3.11436   3.12031
 Alpha virt. eigenvalues --    3.12232   3.12442   3.12477   3.12528   3.12532
 Alpha virt. eigenvalues --    3.13130   3.13272   3.13288   3.13392   3.13466
 Alpha virt. eigenvalues --    3.13621   3.13653   3.13758   3.13933   3.14159
 Alpha virt. eigenvalues --    3.14204   3.14492   3.14771   3.15047   3.15084
 Alpha virt. eigenvalues --    3.15291   3.15306   3.15793   3.15804   3.15942
 Alpha virt. eigenvalues --    3.16222   3.16431   3.16776   3.16816   3.17013
 Alpha virt. eigenvalues --    3.17662   3.17700   3.18084   3.18096   3.18650
 Alpha virt. eigenvalues --    3.18731   3.18880   3.19363   3.19379   3.19401
 Alpha virt. eigenvalues --    3.19615   3.19691   3.20155   3.20430   3.20689
 Alpha virt. eigenvalues --    3.20728   3.20752   3.20967   3.21079   3.21350
 Alpha virt. eigenvalues --    3.21520   3.21601   3.21901   3.21962   3.22033
 Alpha virt. eigenvalues --    3.22111   3.22290   3.22473   3.22661   3.22814
 Alpha virt. eigenvalues --    3.22819   3.23003   3.23104   3.23354   3.23457
 Alpha virt. eigenvalues --    3.23554   3.23695   3.23835   3.23847   3.24226
 Alpha virt. eigenvalues --    3.24391   3.24578   3.24659   3.24816   3.24937
 Alpha virt. eigenvalues --    3.25326   3.25492   3.25608   3.25750   3.25832
 Alpha virt. eigenvalues --    3.25867   3.25901   3.26177   3.26586   3.26618
 Alpha virt. eigenvalues --    3.26621   3.27056   3.27115   3.27154   3.27379
 Alpha virt. eigenvalues --    3.27645   3.27888   3.28013   3.28839   3.28915
 Alpha virt. eigenvalues --    3.28957   3.29098   3.29272   3.29285   3.29542
 Alpha virt. eigenvalues --    3.29613   3.29652   3.29993   3.30041   3.30311
 Alpha virt. eigenvalues --    3.30332   3.30723   3.30729   3.30943   3.31095
 Alpha virt. eigenvalues --    3.31111   3.31337   3.31540   3.31604   3.31739
 Alpha virt. eigenvalues --    3.31809   3.32143   3.32325   3.32559   3.32630
 Alpha virt. eigenvalues --    3.32741   3.32967   3.33065   3.33081   3.33175
 Alpha virt. eigenvalues --    3.33496   3.33557   3.33690   3.34085   3.34211
 Alpha virt. eigenvalues --    3.34213   3.34382   3.34528   3.34730   3.34756
 Alpha virt. eigenvalues --    3.34869   3.35380   3.35561   3.35702   3.35756
 Alpha virt. eigenvalues --    3.35887   3.36089   3.36216   3.36402   3.36449
 Alpha virt. eigenvalues --    3.36897   3.37105   3.37294   3.37645   3.37727
 Alpha virt. eigenvalues --    3.37772   3.37922   3.38163   3.38334   3.38594
 Alpha virt. eigenvalues --    3.38939   3.38962   3.38968   3.39355   3.39380
 Alpha virt. eigenvalues --    3.39667   3.39869   3.39982   3.39985   3.40070
 Alpha virt. eigenvalues --    3.40394   3.40488   3.40803   3.41021   3.41184
 Alpha virt. eigenvalues --    3.41376   3.41512   3.41524   3.41659   3.41789
 Alpha virt. eigenvalues --    3.42203   3.42359   3.42485   3.42639   3.42647
 Alpha virt. eigenvalues --    3.42665   3.43017   3.43074   3.43290   3.43370
 Alpha virt. eigenvalues --    3.43539   3.43691   3.43791   3.43911   3.44176
 Alpha virt. eigenvalues --    3.44209   3.44470   3.44638   3.44894   3.45105
 Alpha virt. eigenvalues --    3.45430   3.45533   3.45614   3.45699   3.45780
 Alpha virt. eigenvalues --    3.45911   3.46056   3.46167   3.46185   3.46473
 Alpha virt. eigenvalues --    3.46663   3.46704   3.47053   3.47244   3.47514
 Alpha virt. eigenvalues --    3.47533   3.47873   3.48067   3.48077   3.48244
 Alpha virt. eigenvalues --    3.48468   3.48520   3.48765   3.49137   3.49301
 Alpha virt. eigenvalues --    3.49637   3.49762   3.49899   3.50081   3.50118
 Alpha virt. eigenvalues --    3.50620   3.50687   3.50703   3.50788   3.51209
 Alpha virt. eigenvalues --    3.51257   3.51525   3.51646   3.51856   3.52081
 Alpha virt. eigenvalues --    3.52206   3.52576   3.52811   3.52875   3.52980
 Alpha virt. eigenvalues --    3.53105   3.53182   3.53493   3.53832   3.54297
 Alpha virt. eigenvalues --    3.54378   3.54591   3.54851   3.54899   3.55134
 Alpha virt. eigenvalues --    3.55426   3.55457   3.55682   3.55699   3.56142
 Alpha virt. eigenvalues --    3.56548   3.56598   3.56607   3.56902   3.56947
 Alpha virt. eigenvalues --    3.56995   3.57422   3.57518   3.57655   3.57767
 Alpha virt. eigenvalues --    3.57995   3.58085   3.58287   3.58319   3.58435
 Alpha virt. eigenvalues --    3.58611   3.58703   3.58855   3.59110   3.59299
 Alpha virt. eigenvalues --    3.59328   3.59536   3.59759   3.59933   3.60033
 Alpha virt. eigenvalues --    3.60216   3.60223   3.60503   3.60655   3.60791
 Alpha virt. eigenvalues --    3.60927   3.60948   3.61495   3.61585   3.61666
 Alpha virt. eigenvalues --    3.61703   3.61819   3.61921   3.62271   3.62578
 Alpha virt. eigenvalues --    3.62656   3.62686   3.62726   3.63316   3.63469
 Alpha virt. eigenvalues --    3.63687   3.63841   3.64059   3.64403   3.64418
 Alpha virt. eigenvalues --    3.64439   3.64456   3.64642   3.64648   3.64913
 Alpha virt. eigenvalues --    3.65035   3.65338   3.65371   3.65429   3.65814
 Alpha virt. eigenvalues --    3.66020   3.66021   3.66230   3.66771   3.67062
 Alpha virt. eigenvalues --    3.67115   3.67189   3.67227   3.67538   3.67704
 Alpha virt. eigenvalues --    3.67818   3.68196   3.68348   3.68437   3.68505
 Alpha virt. eigenvalues --    3.68759   3.69294   3.69395   3.69465   3.69466
 Alpha virt. eigenvalues --    3.69924   3.70037   3.70809   3.70818   3.71384
 Alpha virt. eigenvalues --    3.71567   3.71678   3.71763   3.72252   3.72558
 Alpha virt. eigenvalues --    3.72676   3.72750   3.72950   3.73135   3.73300
 Alpha virt. eigenvalues --    3.73487   3.73609   3.73680   3.74273   3.74386
 Alpha virt. eigenvalues --    3.74428   3.74449   3.74610   3.74817   3.75169
 Alpha virt. eigenvalues --    3.75571   3.75641   3.76000   3.76137   3.76237
 Alpha virt. eigenvalues --    3.76347   3.76650   3.76761   3.77287   3.77541
 Alpha virt. eigenvalues --    3.77589   3.78024   3.78045   3.78186   3.78733
 Alpha virt. eigenvalues --    3.79059   3.79093   3.79790   3.79797   3.79966
 Alpha virt. eigenvalues --    3.80319   3.80392   3.80757   3.81138   3.81191
 Alpha virt. eigenvalues --    3.81466   3.81623   3.82253   3.82328   3.82562
 Alpha virt. eigenvalues --    3.82646   3.82772   3.83520   3.83694   3.84012
 Alpha virt. eigenvalues --    3.85018   3.85266   3.85515   3.85663   3.85815
 Alpha virt. eigenvalues --    3.85972   3.86418   3.86531   3.86848   3.86898
 Alpha virt. eigenvalues --    3.87060   3.87201   3.87790   3.87863   3.87984
 Alpha virt. eigenvalues --    3.88174   3.88596   3.89108   3.89943   3.90377
 Alpha virt. eigenvalues --    3.90523   3.90548   3.91174   3.91292   3.91768
 Alpha virt. eigenvalues --    3.91947   3.92379   3.93501   3.93697   3.94373
 Alpha virt. eigenvalues --    3.94707   3.94806   3.94811   3.95533   3.95941
 Alpha virt. eigenvalues --    3.96602   3.96918   3.97295   3.97479   3.97509
 Alpha virt. eigenvalues --    3.97601   3.97884   3.98690   3.99077   3.99252
 Alpha virt. eigenvalues --    3.99800   4.00321   4.00532   4.01065   4.01144
 Alpha virt. eigenvalues --    4.01260   4.01600   4.01982   4.02616   4.02950
 Alpha virt. eigenvalues --    4.03614   4.04177   4.04511   4.04626   4.05049
 Alpha virt. eigenvalues --    4.05097   4.05217   4.05921   4.05985   4.06135
 Alpha virt. eigenvalues --    4.06270   4.06755   4.07170   4.08401   4.08429
 Alpha virt. eigenvalues --    4.08887   4.09309   4.09485   4.10232   4.10241
 Alpha virt. eigenvalues --    4.10317   4.10589   4.10630   4.10695   4.10753
 Alpha virt. eigenvalues --    4.11280   4.11416   4.11656   4.12186   4.12481
 Alpha virt. eigenvalues --    4.12498   4.12566   4.12762   4.12871   4.12909
 Alpha virt. eigenvalues --    4.14236   4.15260   4.15355   4.15381   4.15741
 Alpha virt. eigenvalues --    4.15797   4.16575   4.17089   4.17693   4.17705
 Alpha virt. eigenvalues --    4.17725   4.18010   4.18207   4.19035   4.19813
 Alpha virt. eigenvalues --    4.20874   4.21403   4.21986   4.22590   4.23029
 Alpha virt. eigenvalues --    4.24615   4.24934   4.25566   4.25756   4.26825
 Alpha virt. eigenvalues --    4.27740   4.27807   4.28263   4.28638   4.29056
 Alpha virt. eigenvalues --    4.29444   4.29500   4.29619   4.30371   4.30573
 Alpha virt. eigenvalues --    4.31303   4.31617   4.31626   4.31734   4.33074
 Alpha virt. eigenvalues --    4.33599   4.33861   4.35074   4.36406   4.36440
 Alpha virt. eigenvalues --    4.36552   4.36943   4.38123   4.38682   4.38808
 Alpha virt. eigenvalues --    4.39168   4.39754   4.40004   4.40217   4.40334
 Alpha virt. eigenvalues --    4.40651   4.40781   4.40955   4.41386   4.41596
 Alpha virt. eigenvalues --    4.41808   4.42895   4.42909   4.43166   4.43888
 Alpha virt. eigenvalues --    4.44349   4.45194   4.45306   4.45431   4.45876
 Alpha virt. eigenvalues --    4.45992   4.46706   4.46936   4.47368   4.47475
 Alpha virt. eigenvalues --    4.48183   4.48324   4.48848   4.51496   4.51993
 Alpha virt. eigenvalues --    4.52589   4.52807   4.52906   4.52963   4.53662
 Alpha virt. eigenvalues --    4.53699   4.54105   4.56199   4.57000   4.57308
 Alpha virt. eigenvalues --    4.57921   4.64135   4.64188   4.65268   4.65300
 Alpha virt. eigenvalues --    4.65333   4.65359   4.65497   4.66570   4.66634
 Alpha virt. eigenvalues --    4.70264   4.70622   4.72161   4.72523   4.73841
 Alpha virt. eigenvalues --    4.81028   4.81085   4.81497   4.81744   4.82489
 Alpha virt. eigenvalues --    4.82589   4.82748   4.83226   4.83885   4.84115
 Alpha virt. eigenvalues --    4.84982   4.85343   4.87315   4.87663   4.88429
 Alpha virt. eigenvalues --    4.88458   4.89134   4.89390   4.91053   4.91321
 Alpha virt. eigenvalues --    4.91514   4.91849   4.93500   4.93726   4.94840
 Alpha virt. eigenvalues --    4.95282   4.96503   4.96523   5.00559   5.01072
 Alpha virt. eigenvalues --    5.03210   5.03530   5.03888   5.04000   5.04480
 Alpha virt. eigenvalues --    5.04614   5.05281   5.05667   5.06106   5.06761
 Alpha virt. eigenvalues --    5.07071   5.07636   5.07793   5.08118   5.08310
 Alpha virt. eigenvalues --    5.08689   5.09644   5.10305   5.10399   5.10988
 Alpha virt. eigenvalues --    5.11664   5.12264   5.12677   5.13446   5.14837
 Alpha virt. eigenvalues --    5.15114   5.16244   5.16446   5.16473   5.17153
 Alpha virt. eigenvalues --    5.17836   5.18552   5.19406   5.21017   5.21534
 Alpha virt. eigenvalues --    5.21663   5.21935   5.22543   5.23039   5.24022
 Alpha virt. eigenvalues --    5.24143   5.24284   5.24530   5.27099   5.27833
 Alpha virt. eigenvalues --    5.28244   5.30848   5.32702   5.32774   5.34919
 Alpha virt. eigenvalues --    5.34950   5.36496   5.37549   5.37673   5.38261
 Alpha virt. eigenvalues --    5.38334   5.38415   5.38907   5.42504   5.42677
 Alpha virt. eigenvalues --    5.43419   5.44714   5.44810   5.46163   5.46439
 Alpha virt. eigenvalues --    5.46763   5.46800   5.47875   5.48986   5.49983
 Alpha virt. eigenvalues --    5.50136   5.50432   5.50720   5.51441   5.51457
 Alpha virt. eigenvalues --    5.51560   5.51864   5.51898   5.57085   5.59037
 Alpha virt. eigenvalues --    5.59114   5.60743   5.60789   5.61110   5.63958
 Alpha virt. eigenvalues --    5.71185   5.71433   5.72866   5.72945   5.74040
 Alpha virt. eigenvalues --    5.74092   5.74295   5.74731   5.78085   5.78470
 Alpha virt. eigenvalues --    5.82540   5.82907   6.00182   6.01327   6.01337
 Alpha virt. eigenvalues --    6.02793   6.08774   6.11488   6.15345   6.16056
 Alpha virt. eigenvalues --    6.19259   6.62079   6.62109   6.62405   6.62880
 Alpha virt. eigenvalues --    6.63040   6.63676   6.63859   6.63945   6.64160
 Alpha virt. eigenvalues --    6.65331   6.65346   6.65384   6.65414   6.66187
 Alpha virt. eigenvalues --    6.66216   6.79300   6.79469   6.79502   6.79720
 Alpha virt. eigenvalues --    6.80375   6.80753  21.76129  21.80644  21.83238
 Alpha virt. eigenvalues --   21.84933  21.89680  21.90334  21.92854  21.94535
 Alpha virt. eigenvalues --   22.04003  22.05377  22.07937  22.09692  22.12003
 Alpha virt. eigenvalues --   22.12172  22.13151  22.14952  22.17915  22.18150
 Alpha virt. eigenvalues --   22.21661  22.21878  22.22098  22.22850  22.23051
 Alpha virt. eigenvalues --   22.25093  22.25390  22.25532  22.25687  22.26304
 Alpha virt. eigenvalues --   22.27646  22.28145  22.28237  22.28357  22.29593
 Alpha virt. eigenvalues --   22.29841  22.31128  22.31463  22.31706  22.31955
 Alpha virt. eigenvalues --   22.33751  22.34236  22.35381  22.37122  22.37611
 Alpha virt. eigenvalues --   22.38078  22.38336  22.38587  22.39436  22.43778
 Alpha virt. eigenvalues --   22.49444  22.50707  22.51382  22.52018  22.52651
 Alpha virt. eigenvalues --   22.53325  22.55173  22.56660  22.58713  22.58847
 Alpha virt. eigenvalues --   22.61244  22.62607  22.64440  22.64646  22.64870
 Alpha virt. eigenvalues --   22.65166  22.65284  22.66661  22.66863  22.67652
 Alpha virt. eigenvalues --   22.69966  22.70587  22.70861  22.73665  22.73809
 Alpha virt. eigenvalues --   22.74155  22.77304  22.78340  22.79114  22.79692
 Alpha virt. eigenvalues --   22.80274  22.83791  22.85338  22.85394  22.85486
 Alpha virt. eigenvalues --   22.90287  23.34891  23.35118  23.36581  23.37401
 Alpha virt. eigenvalues --   23.37893  23.38161  23.38460  23.39230  23.40089
 Alpha virt. eigenvalues --   23.41125  23.41254  23.42660  32.26050  32.26681
 Alpha virt. eigenvalues --   32.30001  32.31719  32.32892  32.32985  32.51047
 Alpha virt. eigenvalues --   32.53004  32.57228  32.57995  32.58232  32.63230
 Alpha virt. eigenvalues --   32.63311  32.64924  32.65280  32.65517  32.67940
 Alpha virt. eigenvalues --   32.73837  32.75820  32.76392  32.79447  32.82162
 Alpha virt. eigenvalues --   32.82580  32.86468
          Condensed to atoms (all electrons):
 Mulliken charges:
               1
     1  C   -0.104965
     2  C   -0.077101
     3  C   -0.203075
     4  C    0.040788
     5  C    0.132732
     6  C   -0.223238
     7  C    0.409521
     8  C    0.396197
     9  N   -0.293782
    10  N   -0.573163
    11  N   -0.561415
    12  H    0.121331
    13  H    0.121534
    14  H    0.146897
    15  H    0.137765
    16  C   -0.093027
    17  C   -0.093027
    18  C   -0.207371
    19  C    0.095414
    20  C    0.095414
    21  C   -0.207371
    22  C    0.335864
    23  C    0.335864
    24  N   -0.299475
    25  N   -0.561415
    26  H    0.123896
    27  H    0.123896
    28  H    0.135420
    29  H    0.135420
    30  C   -0.082903
    31  C   -0.082903
    32  C   -0.246455
    33  C    0.121125
    34  C    0.121125
    35  C   -0.246455
    36  C    0.394320
    37  C    0.394320
    38  N   -0.284352
    39  N   -0.573163
    40  H    0.125236
    41  H    0.125236
    42  H    0.138444
    43  H    0.138444
    44  C   -0.077101
    45  C   -0.104965
    46  C   -0.223238
    47  C    0.132732
    48  C    0.040788
    49  C   -0.203075
    50  C    0.396197
    51  C    0.409521
    52  N   -0.293782
    53  H    0.121534
    54  H    0.121331
    55  H    0.137765
    56  H    0.146897
    57  Zn  -0.175249
    58  C   -0.084751
    59  C   -0.084751
    60  C   -0.228280
    61  C    0.112982
    62  C    0.112982
    63  C   -0.228280
    64  C    0.400036
    65  C    0.400036
    66  N   -0.349664
    67  N   -0.619765
    68  N   -0.619765
    69  H    0.116002
    70  H    0.116002
    71  H    0.136450
    72  H    0.136450
    73  C   -0.069508
    74  C   -0.069508
    75  C   -0.265374
    76  C    0.090525
    77  C    0.090525
    78  C   -0.265374
    79  C    0.416728
    80  C    0.416728
    81  N   -0.307925
    82  N   -0.619765
    83  H    0.120558
    84  H    0.120558
    85  H    0.121051
    86  H    0.121051
    87  C   -0.069508
    88  C   -0.069508
    89  C   -0.265374
    90  C    0.090525
    91  C    0.090525
    92  C   -0.265374
    93  C    0.416728
    94  C    0.416728
    95  N   -0.307925
    96  N   -0.619765
    97  H    0.120558
    98  H    0.120558
    99  H    0.121051
   100  H    0.121051
   101  C   -0.084751
   102  C   -0.084751
   103  C   -0.228280
   104  C    0.112982
   105  C    0.112982
   106  C   -0.228280
   107  C    0.400036
   108  C    0.400036
   109  N   -0.349664
   110  H    0.116002
   111  H    0.116002
   112  H    0.136450
   113  H    0.136450
   114  Zn   0.606757
   115  C   -0.077101
   116  C   -0.104965
   117  C   -0.223238
   118  C    0.132732
   119  C    0.040788
   120  C   -0.203075
   121  C    0.396197
   122  C    0.409521
   123  N   -0.293782
   124  N   -0.561415
   125  N   -0.573163
   126  H    0.121534
   127  H    0.121331
   128  H    0.137765
   129  H    0.146897
   130  C   -0.082903
   131  C   -0.082903
   132  C   -0.246455
   133  C    0.121125
   134  C    0.121125
   135  C   -0.246455
   136  C    0.394320
   137  C    0.394320
   138  N   -0.284352
   139  N   -0.573163
   140  H    0.125236
   141  H    0.125236
   142  H    0.138444
   143  H    0.138444
   144  C   -0.093027
   145  C   -0.093027
   146  C   -0.207371
   147  C    0.095414
   148  C    0.095414
   149  C   -0.207371
   150  C    0.335864
   151  C    0.335864
   152  N   -0.299475
   153  N   -0.561415
   154  H    0.123896
   155  H    0.123896
   156  H    0.135420
   157  H    0.135420
   158  C   -0.104965
   159  C   -0.077101
   160  C   -0.203075
   161  C    0.040788
   162  C    0.132732
   163  C   -0.223238
   164  C    0.409521
   165  C    0.396197
   166  N   -0.293782
   167  H    0.121331
   168  H    0.121534
   169  H    0.146897
   170  H    0.137765
   171  Zn  -0.175249
 Sum of Mulliken charges =  -0.00000
 Mulliken charges with hydrogens summed into heavy atoms:
               1
     1  C    0.016366
     2  C    0.044433
     3  C   -0.056179
     4  C    0.040788
     5  C    0.132732
     6  C   -0.085474
     7  C    0.409521
     8  C    0.396197
     9  N   -0.293782
    10  N   -0.573163
    11  N   -0.561415
    16  C    0.030870
    17  C    0.030870
    18  C   -0.071951
    19  C    0.095414
    20  C    0.095414
    21  C   -0.071951
    22  C    0.335864
    23  C    0.335864
    24  N   -0.299475
    25  N   -0.561415
    30  C    0.042334
    31  C    0.042334
    32  C   -0.108011
    33  C    0.121125
    34  C    0.121125
    35  C   -0.108011
    36  C    0.394320
    37  C    0.394320
    38  N   -0.284352
    39  N   -0.573163
    44  C    0.044433
    45  C    0.016366
    46  C   -0.085474
    47  C    0.132732
    48  C    0.040788
    49  C   -0.056179
    50  C    0.396197
    51  C    0.409521
    52  N   -0.293782
    57  Zn  -0.175249
    58  C    0.031250
    59  C    0.031250
    60  C   -0.091830
    61  C    0.112982
    62  C    0.112982
    63  C   -0.091830
    64  C    0.400036
    65  C    0.400036
    66  N   -0.349664
    67  N   -0.619765
    68  N   -0.619765
    73  C    0.051050
    74  C    0.051050
    75  C   -0.144323
    76  C    0.090525
    77  C    0.090525
    78  C   -0.144323
    79  C    0.416728
    80  C    0.416728
    81  N   -0.307925
    82  N   -0.619765
    87  C    0.051050
    88  C    0.051050
    89  C   -0.144323
    90  C    0.090525
    91  C    0.090525
    92  C   -0.144323
    93  C    0.416728
    94  C    0.416728
    95  N   -0.307925
    96  N   -0.619765
   101  C    0.031250
   102  C    0.031250
   103  C   -0.091830
   104  C    0.112982
   105  C    0.112982
   106  C   -0.091830
   107  C    0.400036
   108  C    0.400036
   109  N   -0.349664
   114  Zn   0.606757
   115  C    0.044433
   116  C    0.016366
   117  C   -0.085474
   118  C    0.132732
   119  C    0.040788
   120  C   -0.056179
   121  C    0.396197
   122  C    0.409521
   123  N   -0.293782
   124  N   -0.561415
   125  N   -0.573163
   130  C    0.042334
   131  C    0.042334
   132  C   -0.108011
   133  C    0.121125
   134  C    0.121125
   135  C   -0.108011
   136  C    0.394320
   137  C    0.394320
   138  N   -0.284352
   139  N   -0.573163
   144  C    0.030870
   145  C    0.030870
   146  C   -0.071951
   147  C    0.095414
   148  C    0.095414
   149  C   -0.071951
   150  C    0.335864
   151  C    0.335864
   152  N   -0.299475
   153  N   -0.561415
   158  C    0.016366
   159  C    0.044433
   160  C   -0.056179
   161  C    0.040788
   162  C    0.132732
   163  C   -0.085474
   164  C    0.409521
   165  C    0.396197
   166  N   -0.293782
   171  Zn  -0.175249
 Electronic spatial extent (au):  <R**2>=          97314.4986
 Charge=              0.0000 electrons
 Dipole moment (field-independent basis, Debye):
    X=             -0.0000    Y=             -0.0000    Z=             -0.0000  Tot=              0.0000
 Quadrupole moment (field-independent basis, Debye-Ang):
   XX=           -752.8835   YY=           -636.7569   ZZ=           -637.2049
   XY=             -2.1491   XZ=              0.0000   YZ=              0.0000
 Traceless Quadrupole moment (field-independent basis, Debye-Ang):
   XX=            -77.2684   YY=             38.8582   ZZ=             38.4102
   XY=             -2.1491   XZ=              0.0000   YZ=              0.0000
 Octapole moment (field-independent basis, Debye-Ang**2):
  XXX=             -0.0000  YYY=             -0.0000  ZZZ=             -0.0000  XYY=              0.0000
  XXY=              0.0000  XXZ=              0.0000  XZZ=             -0.0000  YZZ=             -0.0000
  YYZ=             -0.0000  XYZ=             -0.0000
 Hexadecapole moment (field-independent basis, Debye-Ang**3):
 XXXX=         -33513.8992 YYYY=         -50795.2253 ZZZZ=         -40650.0703 XXXY=          -9909.3992
 XXXZ=             -0.0000 YYYX=          -8481.5179 YYYZ=             -0.0000 ZZZX=              0.0000
 ZZZY=             -0.0000 XXYY=         -15381.4797 XXZZ=         -13403.4275 YYZZ=         -16282.0128
 XXYZ=             -0.0000 YYXZ=             -0.0000 ZZXY=          -2875.5402
 N-N= 3.491690360691D+04 E-N=-9.423667814488D+04  KE= 1.030023926602D+04
 Symmetry AG   KE= 4.028083475617D+03
 Symmetry BG   KE= 1.418079635960D+03
 Symmetry AU   KE= 1.621629136306D+03
 Symmetry BU   KE= 3.232447018139D+03
 Leave Link  601 at Wed Oct 22 16:52:29 2025, MaxMem= 13421772800 cpu:       925.0
 (Enter /opt/g09/l9999.exe)

 Test job not archived.
 1\1\ WCSS.PL-BEM-CMOKC406W\SP\RLC-BLYP TD-FC\Gen\C96H48N24Zn3\SERGEY\2
 2-Oct-2025\0\\#p td(nstates=8) lc-blyp/gen iop(3/107=0400000000, 3/108
 =0400000000) geom=check guess=read\\ZnPc dimer lc-blyp(mu=0.4)/def2-tz
 vp(-f), monomer geom b3pw/631dp\\0,1\C,0,0.70282505,6.55507353,0.\C,0,
 -0.70282505,6.55507353,0.\C,0,1.42385811,5.3647644,0.\C,0,0.70355705,4
 .17204132,0.\C,0,-0.70355705,4.17204132,0.\C,0,-1.42385811,5.3647644,0
 .\C,0,1.11636308,2.77432121,0.\C,0,-1.11636308,2.77432121,0.\N,0,0.,1.
 98231715,0.\N,0,-2.38508318,2.38508318,0.\N,0,2.38508318,2.38508318,0.
 \H,0,1.23253009,7.5037036,0.\H,0,-1.23253009,7.5037036,0.\H,0,2.509174
 19,5.35528741,0.\H,0,-2.50917419,5.35528741,0.\C,0,6.55507353,-0.70282
 505,0.\C,0,6.55507353,0.70282505,0.\C,0,5.3647644,-1.42385811,0.\C,0,4
 .17204132,-0.70355705,0.\C,0,4.17204132,0.70355705,0.\C,0,5.3647644,1.
 42385811,0.\C,0,2.77432121,-1.11636308,0.\C,0,2.77432121,1.11636308,0.
 \N,0,1.98231715,0.,0.\N,0,2.38508318,-2.38508318,0.\H,0,7.5037036,-1.2
 3253009,0.\H,0,7.5037036,1.23253009,0.\H,0,5.35528741,-2.50917419,0.\H
 ,0,5.35528741,2.50917419,0.\C,0,-6.55507353,0.70282505,0.\C,0,-6.55507
 353,-0.70282505,0.\C,0,-5.3647644,1.42385811,0.\C,0,-4.17204132,0.7035
 5705,0.\C,0,-4.17204132,-0.70355705,0.\C,0,-5.3647644,-1.42385811,0.\C
 ,0,-2.77432121,1.11636308,0.\C,0,-2.77432121,-1.11636308,0.\N,0,-1.982
 31715,0.,0.\N,0,-2.38508318,-2.38508318,0.\H,0,-7.5037036,1.23253009,0
 .\H,0,-7.5037036,-1.23253009,0.\H,0,-5.35528741,2.50917419,0.\H,0,-5.3
 5528741,-2.50917419,0.\C,0,-0.70282505,-6.55507353,0.\C,0,0.70282505,-
 6.55507353,0.\C,0,-1.42385811,-5.3647644,0.\C,0,-0.70355705,-4.1720413
 2,0.\C,0,0.70355705,-4.17204132,0.\C,0,1.42385811,-5.3647644,0.\C,0,-1
 .11636308,-2.77432121,0.\C,0,1.11636308,-2.77432121,0.\N,0,0.,-1.98231
 715,0.\H,0,-1.23253009,-7.5037036,0.\H,0,1.23253009,-7.5037036,0.\H,0,
 -2.50917419,-5.35528741,0.\H,0,2.50917419,-5.35528741,0.\Zn,0,0.,0.,0.
 \C,0,2.70282505,6.55507353,3.3\C,0,1.29717495,6.55507353,3.3\C,0,3.423
 85811,5.3647644,3.3\C,0,2.70355705,4.17204132,3.3\C,0,1.29644295,4.172
 04132,3.3\C,0,0.57614189,5.3647644,3.3\C,0,3.11636308,2.77432121,3.3\C
 ,0,0.88363692,2.77432121,3.3\N,0,2.,1.98231715,3.3\N,0,-0.38508318,2.3
 8508318,3.3\N,0,4.38508318,2.38508318,3.3\H,0,3.23253009,7.5037036,3.3
 \H,0,0.76746991,7.5037036,3.3\H,0,4.50917419,5.35528741,3.3\H,0,-0.509
 17419,5.35528741,3.3\C,0,8.55507353,-0.70282505,3.3\C,0,8.55507353,0.7
 0282505,3.3\C,0,7.3647644,-1.42385811,3.3\C,0,6.17204132,-0.70355705,3
 .3\C,0,6.17204132,0.70355705,3.3\C,0,7.3647644,1.42385811,3.3\C,0,4.77
 432121,-1.11636308,3.3\C,0,4.77432121,1.11636308,3.3\N,0,3.98231715,0.
 ,3.3\N,0,4.38508318,-2.38508318,3.3\H,0,9.5037036,-1.23253009,3.3\H,0,
 9.5037036,1.23253009,3.3\H,0,7.35528741,-2.50917419,3.3\H,0,7.35528741
 ,2.50917419,3.3\C,0,-4.55507353,0.70282505,3.3\C,0,-4.55507353,-0.7028
 2505,3.3\C,0,-3.3647644,1.42385811,3.3\C,0,-2.17204132,0.70355705,3.3\
 C,0,-2.17204132,-0.70355705,3.3\C,0,-3.3647644,-1.42385811,3.3\C,0,-0.
 77432121,1.11636308,3.3\C,0,-0.77432121,-1.11636308,3.3\N,0,0.01768285
 ,0.,3.3\N,0,-0.38508318,-2.38508318,3.3\H,0,-5.5037036,1.23253009,3.3\
 H,0,-5.5037036,-1.23253009,3.3\H,0,-3.35528741,2.50917419,3.3\H,0,-3.3
 5528741,-2.50917419,3.3\C,0,1.29717495,-6.55507353,3.3\C,0,2.70282505,
 -6.55507353,3.3\C,0,0.57614189,-5.3647644,3.3\C,0,1.29644295,-4.172041
 32,3.3\C,0,2.70355705,-4.17204132,3.3\C,0,3.42385811,-5.3647644,3.3\C,
 0,0.88363692,-2.77432121,3.3\C,0,3.11636308,-2.77432121,3.3\N,0,2.,-1.
 98231715,3.3\H,0,0.76746991,-7.5037036,3.3\H,0,3.23253009,-7.5037036,3
 .3\H,0,-0.50917419,-5.35528741,3.3\H,0,4.50917419,-5.35528741,3.3\Zn,0
 ,2.,0.,3.3\C,0,4.70282505,6.55507353,6.6\C,0,3.29717495,6.55507353,6.6
 \C,0,5.42385811,5.3647644,6.6\C,0,4.70355705,4.17204132,6.6\C,0,3.2964
 4295,4.17204132,6.6\C,0,2.57614189,5.3647644,6.6\C,0,5.11636308,2.7743
 2121,6.6\C,0,2.88363692,2.77432121,6.6\N,0,4.,1.98231715,6.6\N,0,1.614
 91682,2.38508318,6.6\N,0,6.38508318,2.38508318,6.6\H,0,5.23253009,7.50
 37036,6.6\H,0,2.76746991,7.5037036,6.6\H,0,6.50917419,5.35528741,6.6\H
 ,0,1.49082581,5.35528741,6.6\C,0,10.55507353,-0.70282505,6.6\C,0,10.55
 507353,0.70282505,6.6\C,0,9.3647644,-1.42385811,6.6\C,0,8.17204132,-0.
 70355705,6.6\C,0,8.17204132,0.70355705,6.6\C,0,9.3647644,1.42385811,6.
 6\C,0,6.77432121,-1.11636308,6.6\C,0,6.77432121,1.11636308,6.6\N,0,5.9
 8231715,0.,6.6\N,0,6.38508318,-2.38508318,6.6\H,0,11.5037036,-1.232530
 09,6.6\H,0,11.5037036,1.23253009,6.6\H,0,9.35528741,-2.50917419,6.6\H,
 0,9.35528741,2.50917419,6.6\C,0,-2.55507353,0.70282505,6.6\C,0,-2.5550
 7353,-0.70282505,6.6\C,0,-1.3647644,1.42385811,6.6\C,0,-0.17204132,0.7
 0355705,6.6\C,0,-0.17204132,-0.70355705,6.6\C,0,-1.3647644,-1.42385811
 ,6.6\C,0,1.22567879,1.11636308,6.6\C,0,1.22567879,-1.11636308,6.6\N,0,
 2.01768285,0.,6.6\N,0,1.61491682,-2.38508318,6.6\H,0,-3.5037036,1.2325
 3009,6.6\H,0,-3.5037036,-1.23253009,6.6\H,0,-1.35528741,2.50917419,6.6
 \H,0,-1.35528741,-2.50917419,6.6\C,0,3.29717495,-6.55507353,6.6\C,0,4.
 70282505,-6.55507353,6.6\C,0,2.57614189,-5.3647644,6.6\C,0,3.29644295,
 -4.17204132,6.6\C,0,4.70355705,-4.17204132,6.6\C,0,5.42385811,-5.36476
 44,6.6\C,0,2.88363692,-2.77432121,6.6\C,0,5.11636308,-2.77432121,6.6\N
 ,0,4.,-1.98231715,6.6\H,0,2.76746991,-7.5037036,6.6\H,0,5.23253009,-7.
 5037036,6.6\H,0,1.49082581,-5.35528741,6.6\H,0,6.50917419,-5.35528741,
 6.6\Zn,0,4.,0.,6.6\\Version=ES64L-G09RevE.01\State=1-AG\HF=-10327.0748
 252\RMSD=7.751e-09\PG=C02H [O(Zn1),C2(N1.N1),SGH(N6Zn2),X(C96H48N16)]\
 \@


          EVOLUTION
 IN THE BEGINNING GOD MADE MAN.
 HE WORKED THE DIRT WITH HIS HANDS.
 THEN GOD DECIDED TO GIVE MAN SCIENCE,
 MAN SHOULD BE USEFUL (LIKE AN APPLIANCE.)
 BUT SOON MAN'S KNOWLEDGE GREW TOO GREAT,
 TO THE HEADING SCIENCE HE COULDN'T RELATE
 SO GOD SAID "LETS HAVE DIFFERENT FIELDS,
 WE'LL DIVIDE THEM UP, SEE WHAT IT YIELDS."
 ENTER PHYSICS, CHEMISTRY, BIO
 THEY SPRANG UP AROUND THE NILE.
 BUT CHEMISTRY SURPASSED THE REST
 FAR AND AWAY IT WAS THE BEST.
 EXPERIMENT WAS GOD'S DECREE
 EXPERIMENT DID CHEMISTS WITH LOTS OF GLEE
 BUT SOON THEIR TESTS BEGAN TO BOG,
 THEY FOUND THEMSELVES DEEP IN A FOG.
 "GIVE US SOME HELP" THEY CRIED TO GOD.
 GOD LOOKED AROUND, THEN GAVE THE NOD.
 ENTER EINSTEIN, HEISENBERG, BOHR,
 REACTION PATHS WERE CLEAR ONCE MORE.
 WITH THEORISTS GOD SEND DIRECTION
 AND THEN HE STOPPED, HE'D MADE PERFECTION.
          -- THOMAS A. HOLME, 1981
 Job cpu time:       3 days  5 hours  2 minutes 35.3 seconds.
 File lengths (MBytes):  RWF=  20707 Int=      0 D2E=      0 Chk=   3240 Scr=      1
 Normal termination of Gaussian 09 at Wed Oct 22 16:52:31 2025.
