 Entering Gaussian System, Link 0=g09
 Input=ZnPc3_34_17.gjf
 Output=ZnPc3_34_17.log
 Initial command:
 /opt/g09/l1.exe "/home/sergey/scratch/Gau-3468471.inp" -scrdir="/home/sergey/scratch/"
 Entering Link 1 = /opt/g09/l1.exe PID=   3468473.
  
 Copyright (c) 1988,1990,1992,1993,1995,1998,2003,2009,2015,
            Gaussian, Inc.  All Rights Reserved.
  
 This is part of the Gaussian(R) 09 program.  It is based on
 the Gaussian(R) 03 system (copyright 2003, Gaussian, Inc.),
 the Gaussian(R) 98 system (copyright 1998, Gaussian, Inc.),
 the Gaussian(R) 94 system (copyright 1995, Gaussian, Inc.),
 the Gaussian 92(TM) system (copyright 1992, Gaussian, Inc.),
 the Gaussian 90(TM) system (copyright 1990, Gaussian, Inc.),
 the Gaussian 88(TM) system (copyright 1988, Gaussian, Inc.),
 the Gaussian 86(TM) system (copyright 1986, Carnegie Mellon
 University), and the Gaussian 82(TM) system (copyright 1983,
 Carnegie Mellon University). Gaussian is a federally registered
 trademark of Gaussian, Inc.
  
 This software contains proprietary and confidential information,
 including trade secrets, belonging to Gaussian, Inc.
  
 This software is provided under written license and may be
 used, copied, transmitted, or stored only in accord with that
 written license.
  
 The following legend is applicable only to US Government
 contracts under FAR:
  
                    RESTRICTED RIGHTS LEGEND
  
 Use, reproduction and disclosure by the US Government is
 subject to restrictions as set forth in subparagraphs (a)
 and (c) of the Commercial Computer Software - Restricted
 Rights clause in FAR 52.227-19.
  
 Gaussian, Inc.
 340 Quinnipiac St., Bldg. 40, Wallingford CT 06492
  
  
 ---------------------------------------------------------------
 Warning -- This program may not be used in any manner that
 competes with the business of Gaussian, Inc. or will provide
 assistance to any competitor of Gaussian, Inc.  The licensee
 of this program is prohibited from giving any competitor of
 Gaussian, Inc. access to this program.  By using this program,
 the user acknowledges that Gaussian, Inc. is engaged in the
 business of creating and licensing software in the field of
 computational chemistry and represents and warrants to the
 licensee that it is not a competitor of Gaussian, Inc. and that
 it will not use this program in any manner prohibited above.
 ---------------------------------------------------------------
  

 Cite this work as:
 Gaussian 09, Revision E.01,
 M. J. Frisch, G. W. Trucks, H. B. Schlegel, G. E. Scuseria, 
 M. A. Robb, J. R. Cheeseman, G. Scalmani, V. Barone, B. Mennucci, 
 G. A. Petersson, H. Nakatsuji, M. Caricato, X. Li, H. P. Hratchian, 
 A. F. Izmaylov, J. Bloino, G. Zheng, J. L. Sonnenberg, M. Hada, 
 M. Ehara, K. Toyota, R. Fukuda, J. Hasegawa, M. Ishida, T. Nakajima, 
 Y. Honda, O. Kitao, H. Nakai, T. Vreven, J. A. Montgomery, Jr., 
 J. E. Peralta, F. Ogliaro, M. Bearpark, J. J. Heyd, E. Brothers, 
 K. N. Kudin, V. N. Staroverov, T. Keith, R. Kobayashi, J. Normand, 
 K. Raghavachari, A. Rendell, J. C. Burant, S. S. Iyengar, J. Tomasi, 
 M. Cossi, N. Rega, J. M. Millam, M. Klene, J. E. Knox, J. B. Cross, 
 V. Bakken, C. Adamo, J. Jaramillo, R. Gomperts, R. E. Stratmann, 
 O. Yazyev, A. J. Austin, R. Cammi, C. Pomelli, J. W. Ochterski, 
 R. L. Martin, K. Morokuma, V. G. Zakrzewski, G. A. Voth, 
 P. Salvador, J. J. Dannenberg, S. Dapprich, A. D. Daniels, 
 O. Farkas, J. B. Foresman, J. V. Ortiz, J. Cioslowski, 
 and D. J. Fox, Gaussian, Inc., Wallingford CT, 2013.
 
 ******************************************
 Gaussian 09:  ES64L-G09RevE.01 30-Nov-2015
                21-Oct-2025 
 ******************************************
 %chk=ZnPc3_34_17.chk
 %nprocshared=8
 Will use up to    8 processors via shared memory.
 %mem=16GB
 Default route:  MaxDisk=100GW
 ---------------------------------------------------------
 #p lc-blyp/def2svp iop(3/107=0400000000,3/108=0400000000)
 ---------------------------------------------------------
 1/38=1/1;
 2/12=2,17=6,18=5,40=1/2;
 3/5=43,7=101,11=2,16=1,25=1,30=1,74=1000402,107=400000000,108=400000000/1,2,3;
 4//1;
 5/5=2,38=5/2;
 6/7=2,8=2,9=2,10=2,28=1/1;
 99/5=1,9=1/99;
 Leave Link    1 at Tue Oct 21 00:38:01 2025, MaxMem=  2147483648 cpu:         0.2
 (Enter /opt/g09/l101.exe)
 -----------------------------------
 ZnPc dimer, monomer geom b3pw/631dp
 -----------------------------------
 Symbolic Z-matrix:
 Charge =  0 Multiplicity = 1
 C                     0.70283   6.55507   0. 
 C                    -0.70283   6.55507   0. 
 C                     1.42386   5.36476   0. 
 C                     0.70356   4.17204   0. 
 C                    -0.70356   4.17204   0. 
 C                    -1.42386   5.36476   0. 
 C                     1.11636   2.77432   0. 
 C                    -1.11636   2.77432   0. 
 N                     0.        1.98232   0. 
 N                    -2.38508   2.38508   0. 
 N                     2.38508   2.38508   0. 
 H                     1.23253   7.5037    0. 
 H                    -1.23253   7.5037    0. 
 H                     2.50917   5.35529   0. 
 H                    -2.50917   5.35529   0. 
 C                     6.55507  -0.70283   0. 
 C                     6.55507   0.70283   0. 
 C                     5.36476  -1.42386   0. 
 C                     4.17204  -0.70356   0. 
 C                     4.17204   0.70356   0. 
 C                     5.36476   1.42386   0. 
 C                     2.77432  -1.11636   0. 
 C                     2.77432   1.11636   0. 
 N                     1.98232   0.        0. 
 N                     2.38508  -2.38508   0. 
 H                     7.5037   -1.23253   0. 
 H                     7.5037    1.23253   0. 
 H                     5.35529  -2.50917   0. 
 H                     5.35529   2.50917   0. 
 C                    -6.55507   0.70283   0. 
 C                    -6.55507  -0.70283   0. 
 C                    -5.36476   1.42386   0. 
 C                    -4.17204   0.70356   0. 
 C                    -4.17204  -0.70356   0. 
 C                    -5.36476  -1.42386   0. 
 C                    -2.77432   1.11636   0. 
 C                    -2.77432  -1.11636   0. 
 N                    -1.98232   0.        0. 
 N                    -2.38508  -2.38508   0. 
 H                    -7.5037    1.23253   0. 
 H                    -7.5037   -1.23253   0. 
 H                    -5.35529   2.50917   0. 
 H                    -5.35529  -2.50917   0. 
 C                    -0.70283  -6.55507   0. 
 C                     0.70283  -6.55507   0. 
 C                    -1.42386  -5.36476   0. 
 C                    -0.70356  -4.17204   0. 
 C                     0.70356  -4.17204   0. 
 C                     1.42386  -5.36476   0. 
 C                    -1.11636  -2.77432   0. 
 C                     1.11636  -2.77432   0. 
 N                     0.       -1.98232   0. 
 H                    -1.23253  -7.5037    0. 
 H                     1.23253  -7.5037    0. 
 H                    -2.50917  -5.35529   0. 
 H                     2.50917  -5.35529   0. 
 Zn                    0.        0.        0. 
 C                     2.45283   6.55507   3.4 
 C                     1.04717   6.55507   3.4 
 C                     3.17386   5.36476   3.4 
 C                     2.45356   4.17204   3.4 
 C                     1.04644   4.17204   3.4 
 C                     0.32614   5.36476   3.4 
 C                     2.86636   2.77432   3.4 
 C                     0.63364   2.77432   3.4 
 N                     1.75      1.98232   3.4 
 N                    -0.63508   2.38508   3.4 
 N                     4.13508   2.38508   3.4 
 H                     2.98253   7.5037    3.4 
 H                     0.51747   7.5037    3.4 
 H                     4.25917   5.35529   3.4 
 H                    -0.75917   5.35529   3.4 
 C                     8.30507  -0.70283   3.4 
 C                     8.30507   0.70283   3.4 
 C                     7.11476  -1.42386   3.4 
 C                     5.92204  -0.70356   3.4 
 C                     5.92204   0.70356   3.4 
 C                     7.11476   1.42386   3.4 
 C                     4.52432  -1.11636   3.4 
 C                     4.52432   1.11636   3.4 
 N                     3.73232   0.        3.4 
 N                     4.13508  -2.38508   3.4 
 H                     9.2537   -1.23253   3.4 
 H                     9.2537    1.23253   3.4 
 H                     7.10529  -2.50917   3.4 
 H                     7.10529   2.50917   3.4 
 C                    -4.80507   0.70283   3.4 
 C                    -4.80507  -0.70283   3.4 
 C                    -3.61476   1.42386   3.4 
 C                    -2.42204   0.70356   3.4 
 C                    -2.42204  -0.70356   3.4 
 C                    -3.61476  -1.42386   3.4 
 C                    -1.02432   1.11636   3.4 
 C                    -1.02432  -1.11636   3.4 
 N                    -0.23232   0.        3.4 
 N                    -0.63508  -2.38508   3.4 
 H                    -5.7537    1.23253   3.4 
 H                    -5.7537   -1.23253   3.4 
 H                    -3.60529   2.50917   3.4 
 H                    -3.60529  -2.50917   3.4 
 C                     1.04717  -6.55507   3.4 
 C                     2.45283  -6.55507   3.4 
 C                     0.32614  -5.36476   3.4 
 C                     1.04644  -4.17204   3.4 
 C                     2.45356  -4.17204   3.4 
 C                     3.17386  -5.36476   3.4 
 C                     0.63364  -2.77432   3.4 
 C                     2.86636  -2.77432   3.4 
 N                     1.75     -1.98232   3.4 
 H                     0.51747  -7.5037    3.4 
 H                     2.98253  -7.5037    3.4 
 H                    -0.75917  -5.35529   3.4 
 H                     4.25917  -5.35529   3.4 
 Zn                    1.75      0.        3.4 
 C                     4.20283   6.55507   6.8 
 C                     2.79717   6.55507   6.8 
 C                     4.92386   5.36476   6.8 
 C                     4.20356   4.17204   6.8 
 C                     2.79644   4.17204   6.8 
 C                     2.07614   5.36476   6.8 
 C                     4.61636   2.77432   6.8 
 C                     2.38364   2.77432   6.8 
 N                     3.5       1.98232   6.8 
 N                     1.11492   2.38508   6.8 
 N                     5.88508   2.38508   6.8 
 H                     4.73253   7.5037    6.8 
 H                     2.26747   7.5037    6.8 
 H                     6.00917   5.35529   6.8 
 H                     0.99083   5.35529   6.8 
 C                     10.05507  -0.70283   6.8 
 C                     10.05507   0.70283   6.8 
 C                     8.86476  -1.42386   6.8 
 C                     7.67204  -0.70356   6.8 
 C                     7.67204   0.70356   6.8 
 C                     8.86476   1.42386   6.8 
 C                     6.27432  -1.11636   6.8 
 C                     6.27432   1.11636   6.8 
 N                     5.48232   0.        6.8 
 N                     5.88508  -2.38508   6.8 
 H                     11.0037  -1.23253   6.8 
 H                     11.0037   1.23253   6.8 
 H                     8.85529  -2.50917   6.8 
 H                     8.85529   2.50917   6.8 
 C                    -3.05507   0.70283   6.8 
 C                    -3.05507  -0.70283   6.8 
 C                    -1.86476   1.42386   6.8 
 C                    -0.67204   0.70356   6.8 
 C                    -0.67204  -0.70356   6.8 
 C                    -1.86476  -1.42386   6.8 
 C                     0.72568   1.11636   6.8 
 C                     0.72568  -1.11636   6.8 
 N                     1.51768   0.        6.8 
 N                     1.11492  -2.38508   6.8 
 H                    -4.0037    1.23253   6.8 
 H                    -4.0037   -1.23253   6.8 
 H                    -1.85529   2.50917   6.8 
 H                    -1.85529  -2.50917   6.8 
 C                     2.79717  -6.55507   6.8 
 C                     4.20283  -6.55507   6.8 
 C                     2.07614  -5.36476   6.8 
 C                     2.79644  -4.17204   6.8 
 C                     4.20356  -4.17204   6.8 
 C                     4.92386  -5.36476   6.8 
 C                     2.38364  -2.77432   6.8 
 C                     4.61636  -2.77432   6.8 
 N                     3.5      -1.98232   6.8 
 H                     2.26747  -7.5037    6.8 
 H                     4.73253  -7.5037    6.8 
 H                     0.99083  -5.35529   6.8 
 H                     6.00917  -5.35529   6.8 
 Zn                    3.5       0.        6.8 
 
 NAtoms=    171 NQM=      171 NQMF=       0 NMMI=      0 NMMIF=      0
                NMic=       0 NMicF=      0.
                    Isotopes and Nuclear Properties:
 (Nuclear quadrupole moments (NQMom) in fm**2, nuclear magnetic moments (NMagM)
  in nuclear magnetons)

  Atom         1           2           3           4           5           6           7           8           9          10
 IAtWgt=          12          12          12          12          12          12          12          12          14          14
 AtmWgt=  12.0000000  12.0000000  12.0000000  12.0000000  12.0000000  12.0000000  12.0000000  12.0000000  14.0030740  14.0030740
 NucSpn=           0           0           0           0           0           0           0           0           2           2
 AtZEff=   0.0000000   0.0000000   0.0000000   0.0000000   0.0000000   0.0000000   0.0000000   0.0000000   0.0000000   0.0000000
 NQMom=    0.0000000   0.0000000   0.0000000   0.0000000   0.0000000   0.0000000   0.0000000   0.0000000   2.0440000   2.0440000
 NMagM=    0.0000000   0.0000000   0.0000000   0.0000000   0.0000000   0.0000000   0.0000000   0.0000000   0.4037610   0.4037610
 AtZNuc=   6.0000000   6.0000000   6.0000000   6.0000000   6.0000000   6.0000000   6.0000000   6.0000000   7.0000000   7.0000000

  Atom        11          12          13          14          15          16          17          18          19          20
 IAtWgt=          14           1           1           1           1          12          12          12          12          12
 AtmWgt=  14.0030740   1.0078250   1.0078250   1.0078250   1.0078250  12.0000000  12.0000000  12.0000000  12.0000000  12.0000000
 NucSpn=           2           1           1           1           1           0           0           0           0           0
 AtZEff=   0.0000000   0.0000000   0.0000000   0.0000000   0.0000000   0.0000000   0.0000000   0.0000000   0.0000000   0.0000000
 NQMom=    2.0440000   0.0000000   0.0000000   0.0000000   0.0000000   0.0000000   0.0000000   0.0000000   0.0000000   0.0000000
 NMagM=    0.4037610   2.7928460   2.7928460   2.7928460   2.7928460   0.0000000   0.0000000   0.0000000   0.0000000   0.0000000
 AtZNuc=   7.0000000   1.0000000   1.0000000   1.0000000   1.0000000   6.0000000   6.0000000   6.0000000   6.0000000   6.0000000

  Atom        21          22          23          24          25          26          27          28          29          30
 IAtWgt=          12          12          12          14          14           1           1           1           1          12
 AtmWgt=  12.0000000  12.0000000  12.0000000  14.0030740  14.0030740   1.0078250   1.0078250   1.0078250   1.0078250  12.0000000
 NucSpn=           0           0           0           2           2           1           1           1           1           0
 AtZEff=   0.0000000   0.0000000   0.0000000   0.0000000   0.0000000   0.0000000   0.0000000   0.0000000   0.0000000   0.0000000
 NQMom=    0.0000000   0.0000000   0.0000000   2.0440000   2.0440000   0.0000000   0.0000000   0.0000000   0.0000000   0.0000000
 NMagM=    0.0000000   0.0000000   0.0000000   0.4037610   0.4037610   2.7928460   2.7928460   2.7928460   2.7928460   0.0000000
 AtZNuc=   6.0000000   6.0000000   6.0000000   7.0000000   7.0000000   1.0000000   1.0000000   1.0000000   1.0000000   6.0000000

  Atom        31          32          33          34          35          36          37          38          39          40
 IAtWgt=          12          12          12          12          12          12          12          14          14           1
 AtmWgt=  12.0000000  12.0000000  12.0000000  12.0000000  12.0000000  12.0000000  12.0000000  14.0030740  14.0030740   1.0078250
 NucSpn=           0           0           0           0           0           0           0           2           2           1
 AtZEff=   0.0000000   0.0000000   0.0000000   0.0000000   0.0000000   0.0000000   0.0000000   0.0000000   0.0000000   0.0000000
 NQMom=    0.0000000   0.0000000   0.0000000   0.0000000   0.0000000   0.0000000   0.0000000   2.0440000   2.0440000   0.0000000
 NMagM=    0.0000000   0.0000000   0.0000000   0.0000000   0.0000000   0.0000000   0.0000000   0.4037610   0.4037610   2.7928460
 AtZNuc=   6.0000000   6.0000000   6.0000000   6.0000000   6.0000000   6.0000000   6.0000000   7.0000000   7.0000000   1.0000000

  Atom        41          42          43          44          45          46          47          48          49          50
 IAtWgt=           1           1           1          12          12          12          12          12          12          12
 AtmWgt=   1.0078250   1.0078250   1.0078250  12.0000000  12.0000000  12.0000000  12.0000000  12.0000000  12.0000000  12.0000000
 NucSpn=           1           1           1           0           0           0           0           0           0           0
 AtZEff=   0.0000000   0.0000000   0.0000000   0.0000000   0.0000000   0.0000000   0.0000000   0.0000000   0.0000000   0.0000000
 NQMom=    0.0000000   0.0000000   0.0000000   0.0000000   0.0000000   0.0000000   0.0000000   0.0000000   0.0000000   0.0000000
 NMagM=    2.7928460   2.7928460   2.7928460   0.0000000   0.0000000   0.0000000   0.0000000   0.0000000   0.0000000   0.0000000
 AtZNuc=   1.0000000   1.0000000   1.0000000   6.0000000   6.0000000   6.0000000   6.0000000   6.0000000   6.0000000   6.0000000

  Atom        51          52          53          54          55          56          57          58          59          60
 IAtWgt=          12          14           1           1           1           1          64          12          12          12
 AtmWgt=  12.0000000  14.0030740   1.0078250   1.0078250   1.0078250   1.0078250  63.9291454  12.0000000  12.0000000  12.0000000
 NucSpn=           0           2           1           1           1           1           0           0           0           0
 AtZEff=   0.0000000   0.0000000   0.0000000   0.0000000   0.0000000   0.0000000   0.0000000   0.0000000   0.0000000   0.0000000
 NQMom=    0.0000000   2.0440000   0.0000000   0.0000000   0.0000000   0.0000000   0.0000000   0.0000000   0.0000000   0.0000000
 NMagM=    0.0000000   0.4037610   2.7928460   2.7928460   2.7928460   2.7928460   0.0000000   0.0000000   0.0000000   0.0000000
 AtZNuc=   6.0000000   7.0000000   1.0000000   1.0000000   1.0000000   1.0000000  30.0000000   6.0000000   6.0000000   6.0000000

  Atom        61          62          63          64          65          66          67          68          69          70
 IAtWgt=          12          12          12          12          12          14          14          14           1           1
 AtmWgt=  12.0000000  12.0000000  12.0000000  12.0000000  12.0000000  14.0030740  14.0030740  14.0030740   1.0078250   1.0078250
 NucSpn=           0           0           0           0           0           2           2           2           1           1
 AtZEff=   0.0000000   0.0000000   0.0000000   0.0000000   0.0000000   0.0000000   0.0000000   0.0000000   0.0000000   0.0000000
 NQMom=    0.0000000   0.0000000   0.0000000   0.0000000   0.0000000   2.0440000   2.0440000   2.0440000   0.0000000   0.0000000
 NMagM=    0.0000000   0.0000000   0.0000000   0.0000000   0.0000000   0.4037610   0.4037610   0.4037610   2.7928460   2.7928460
 AtZNuc=   6.0000000   6.0000000   6.0000000   6.0000000   6.0000000   7.0000000   7.0000000   7.0000000   1.0000000   1.0000000

  Atom        71          72          73          74          75          76          77          78          79          80
 IAtWgt=           1           1          12          12          12          12          12          12          12          12
 AtmWgt=   1.0078250   1.0078250  12.0000000  12.0000000  12.0000000  12.0000000  12.0000000  12.0000000  12.0000000  12.0000000
 NucSpn=           1           1           0           0           0           0           0           0           0           0
 AtZEff=   0.0000000   0.0000000   0.0000000   0.0000000   0.0000000   0.0000000   0.0000000   0.0000000   0.0000000   0.0000000
 NQMom=    0.0000000   0.0000000   0.0000000   0.0000000   0.0000000   0.0000000   0.0000000   0.0000000   0.0000000   0.0000000
 NMagM=    2.7928460   2.7928460   0.0000000   0.0000000   0.0000000   0.0000000   0.0000000   0.0000000   0.0000000   0.0000000
 AtZNuc=   1.0000000   1.0000000   6.0000000   6.0000000   6.0000000   6.0000000   6.0000000   6.0000000   6.0000000   6.0000000

  Atom        81          82          83          84          85          86          87          88          89          90
 IAtWgt=          14          14           1           1           1           1          12          12          12          12
 AtmWgt=  14.0030740  14.0030740   1.0078250   1.0078250   1.0078250   1.0078250  12.0000000  12.0000000  12.0000000  12.0000000
 NucSpn=           2           2           1           1           1           1           0           0           0           0
 AtZEff=   0.0000000   0.0000000   0.0000000   0.0000000   0.0000000   0.0000000   0.0000000   0.0000000   0.0000000   0.0000000
 NQMom=    2.0440000   2.0440000   0.0000000   0.0000000   0.0000000   0.0000000   0.0000000   0.0000000   0.0000000   0.0000000
 NMagM=    0.4037610   0.4037610   2.7928460   2.7928460   2.7928460   2.7928460   0.0000000   0.0000000   0.0000000   0.0000000
 AtZNuc=   7.0000000   7.0000000   1.0000000   1.0000000   1.0000000   1.0000000   6.0000000   6.0000000   6.0000000   6.0000000

  Atom        91          92          93          94          95          96          97          98          99         100
 IAtWgt=          12          12          12          12          14          14           1           1           1           1
 AtmWgt=  12.0000000  12.0000000  12.0000000  12.0000000  14.0030740  14.0030740   1.0078250   1.0078250   1.0078250   1.0078250
 NucSpn=           0           0           0           0           2           2           1           1           1           1
 AtZEff=   0.0000000   0.0000000   0.0000000   0.0000000   0.0000000   0.0000000   0.0000000   0.0000000   0.0000000   0.0000000
 NQMom=    0.0000000   0.0000000   0.0000000   0.0000000   2.0440000   2.0440000   0.0000000   0.0000000   0.0000000   0.0000000
 NMagM=    0.0000000   0.0000000   0.0000000   0.0000000   0.4037610   0.4037610   2.7928460   2.7928460   2.7928460   2.7928460
 AtZNuc=   6.0000000   6.0000000   6.0000000   6.0000000   7.0000000   7.0000000   1.0000000   1.0000000   1.0000000   1.0000000

  Atom       101         102         103         104         105         106         107         108         109         110
 IAtWgt=          12          12          12          12          12          12          12          12          14           1
 AtmWgt=  12.0000000  12.0000000  12.0000000  12.0000000  12.0000000  12.0000000  12.0000000  12.0000000  14.0030740   1.0078250
 NucSpn=           0           0           0           0           0           0           0           0           2           1
 AtZEff=   0.0000000   0.0000000   0.0000000   0.0000000   0.0000000   0.0000000   0.0000000   0.0000000   0.0000000   0.0000000
 NQMom=    0.0000000   0.0000000   0.0000000   0.0000000   0.0000000   0.0000000   0.0000000   0.0000000   2.0440000   0.0000000
 NMagM=    0.0000000   0.0000000   0.0000000   0.0000000   0.0000000   0.0000000   0.0000000   0.0000000   0.4037610   2.7928460
 AtZNuc=   6.0000000   6.0000000   6.0000000   6.0000000   6.0000000   6.0000000   6.0000000   6.0000000   7.0000000   1.0000000

  Atom       111         112         113         114         115         116         117         118         119         120
 IAtWgt=           1           1           1          64          12          12          12          12          12          12
 AtmWgt=   1.0078250   1.0078250   1.0078250  63.9291454  12.0000000  12.0000000  12.0000000  12.0000000  12.0000000  12.0000000
 NucSpn=           1           1           1           0           0           0           0           0           0           0
 AtZEff=   0.0000000   0.0000000   0.0000000   0.0000000   0.0000000   0.0000000   0.0000000   0.0000000   0.0000000   0.0000000
 NQMom=    0.0000000   0.0000000   0.0000000   0.0000000   0.0000000   0.0000000   0.0000000   0.0000000   0.0000000   0.0000000
 NMagM=    2.7928460   2.7928460   2.7928460   0.0000000   0.0000000   0.0000000   0.0000000   0.0000000   0.0000000   0.0000000
 AtZNuc=   1.0000000   1.0000000   1.0000000  30.0000000   6.0000000   6.0000000   6.0000000   6.0000000   6.0000000   6.0000000

  Atom       121         122         123         124         125         126         127         128         129         130
 IAtWgt=          12          12          14          14          14           1           1           1           1          12
 AtmWgt=  12.0000000  12.0000000  14.0030740  14.0030740  14.0030740   1.0078250   1.0078250   1.0078250   1.0078250  12.0000000
 NucSpn=           0           0           2           2           2           1           1           1           1           0
 AtZEff=   0.0000000   0.0000000   0.0000000   0.0000000   0.0000000   0.0000000   0.0000000   0.0000000   0.0000000   0.0000000
 NQMom=    0.0000000   0.0000000   2.0440000   2.0440000   2.0440000   0.0000000   0.0000000   0.0000000   0.0000000   0.0000000
 NMagM=    0.0000000   0.0000000   0.4037610   0.4037610   0.4037610   2.7928460   2.7928460   2.7928460   2.7928460   0.0000000
 AtZNuc=   6.0000000   6.0000000   7.0000000   7.0000000   7.0000000   1.0000000   1.0000000   1.0000000   1.0000000   6.0000000

  Atom       131         132         133         134         135         136         137         138         139         140
 IAtWgt=          12          12          12          12          12          12          12          14          14           1
 AtmWgt=  12.0000000  12.0000000  12.0000000  12.0000000  12.0000000  12.0000000  12.0000000  14.0030740  14.0030740   1.0078250
 NucSpn=           0           0           0           0           0           0           0           2           2           1
 AtZEff=   0.0000000   0.0000000   0.0000000   0.0000000   0.0000000   0.0000000   0.0000000   0.0000000   0.0000000   0.0000000
 NQMom=    0.0000000   0.0000000   0.0000000   0.0000000   0.0000000   0.0000000   0.0000000   2.0440000   2.0440000   0.0000000
 NMagM=    0.0000000   0.0000000   0.0000000   0.0000000   0.0000000   0.0000000   0.0000000   0.4037610   0.4037610   2.7928460
 AtZNuc=   6.0000000   6.0000000   6.0000000   6.0000000   6.0000000   6.0000000   6.0000000   7.0000000   7.0000000   1.0000000

  Atom       141         142         143         144         145         146         147         148         149         150
 IAtWgt=           1           1           1          12          12          12          12          12          12          12
 AtmWgt=   1.0078250   1.0078250   1.0078250  12.0000000  12.0000000  12.0000000  12.0000000  12.0000000  12.0000000  12.0000000
 NucSpn=           1           1           1           0           0           0           0           0           0           0
 AtZEff=   0.0000000   0.0000000   0.0000000   0.0000000   0.0000000   0.0000000   0.0000000   0.0000000   0.0000000   0.0000000
 NQMom=    0.0000000   0.0000000   0.0000000   0.0000000   0.0000000   0.0000000   0.0000000   0.0000000   0.0000000   0.0000000
 NMagM=    2.7928460   2.7928460   2.7928460   0.0000000   0.0000000   0.0000000   0.0000000   0.0000000   0.0000000   0.0000000
 AtZNuc=   1.0000000   1.0000000   1.0000000   6.0000000   6.0000000   6.0000000   6.0000000   6.0000000   6.0000000   6.0000000

  Atom       151         152         153         154         155         156         157         158         159         160
 IAtWgt=          12          14          14           1           1           1           1          12          12          12
 AtmWgt=  12.0000000  14.0030740  14.0030740   1.0078250   1.0078250   1.0078250   1.0078250  12.0000000  12.0000000  12.0000000
 NucSpn=           0           2           2           1           1           1           1           0           0           0
 AtZEff=   0.0000000   0.0000000   0.0000000   0.0000000   0.0000000   0.0000000   0.0000000   0.0000000   0.0000000   0.0000000
 NQMom=    0.0000000   2.0440000   2.0440000   0.0000000   0.0000000   0.0000000   0.0000000   0.0000000   0.0000000   0.0000000
 NMagM=    0.0000000   0.4037610   0.4037610   2.7928460   2.7928460   2.7928460   2.7928460   0.0000000   0.0000000   0.0000000
 AtZNuc=   6.0000000   7.0000000   7.0000000   1.0000000   1.0000000   1.0000000   1.0000000   6.0000000   6.0000000   6.0000000

  Atom       161         162         163         164         165         166         167         168         169         170
 IAtWgt=          12          12          12          12          12          14           1           1           1           1
 AtmWgt=  12.0000000  12.0000000  12.0000000  12.0000000  12.0000000  14.0030740   1.0078250   1.0078250   1.0078250   1.0078250
 NucSpn=           0           0           0           0           0           2           1           1           1           1
 AtZEff=   0.0000000   0.0000000   0.0000000   0.0000000   0.0000000   0.0000000   0.0000000   0.0000000   0.0000000   0.0000000
 NQMom=    0.0000000   0.0000000   0.0000000   0.0000000   0.0000000   2.0440000   0.0000000   0.0000000   0.0000000   0.0000000
 NMagM=    0.0000000   0.0000000   0.0000000   0.0000000   0.0000000   0.4037610   2.7928460   2.7928460   2.7928460   2.7928460
 AtZNuc=   6.0000000   6.0000000   6.0000000   6.0000000   6.0000000   7.0000000   1.0000000   1.0000000   1.0000000   1.0000000

  Atom       171
 IAtWgt=          64
 AtmWgt=  63.9291454
 NucSpn=           0
 AtZEff=   0.0000000
 NQMom=    0.0000000
 NMagM=    0.0000000
 AtZNuc=  30.0000000
 Leave Link  101 at Tue Oct 21 00:38:01 2025, MaxMem=  2147483648 cpu:         0.6
 (Enter /opt/g09/l202.exe)
 Stoichiometry    C96H48N24Zn3
 Framework group  C2H[O(Zn),C2(N.N),SGH(N6Zn2),X(C96H48N16)]
 Deg. of freedom   128
 Full point group                 C2H     NOp   4
 Largest Abelian subgroup         C2H     NOp   4
 Largest concise Abelian subgroup C2H     NOp   4
                         Standard orientation:                         
 ---------------------------------------------------------------------
 Center     Atomic      Atomic             Coordinates (Angstroms)
 Number     Number       Type             X           Y           Z
 ---------------------------------------------------------------------
      1          6           0        3.400000    1.047175    6.555074
      2          6           0        3.400000    2.452825    6.555074
      3          6           0        3.400000    0.326142    5.364764
      4          6           0        3.400000    1.046443    4.172041
      5          6           0        3.400000    2.453557    4.172041
      6          6           0        3.400000    3.173858    5.364764
      7          6           0        3.400000    0.633637    2.774321
      8          6           0        3.400000    2.866363    2.774321
      9          7           0        3.400000    1.750000    1.982317
     10          7           0        3.400000    4.135083    2.385083
     11          7           0        3.400000   -0.635083    2.385083
     12          1           0        3.400000    0.517470    7.503704
     13          1           0        3.400000    2.982530    7.503704
     14          1           0        3.400000   -0.759174    5.355287
     15          1           0        3.400000    4.259174    5.355287
     16          6           0        3.400000   -4.805074   -0.702825
     17          6           0        3.400000   -4.805074    0.702825
     18          6           0        3.400000   -3.614764   -1.423858
     19          6           0        3.400000   -2.422041   -0.703557
     20          6           0        3.400000   -2.422041    0.703557
     21          6           0        3.400000   -3.614764    1.423858
     22          6           0        3.400000   -1.024321   -1.116363
     23          6           0        3.400000   -1.024321    1.116363
     24          7           0        3.400000   -0.232317   -0.000000
     25          7           0        3.400000   -0.635083   -2.385083
     26          1           0        3.400000   -5.753704   -1.232530
     27          1           0        3.400000   -5.753704    1.232530
     28          1           0        3.400000   -3.605287   -2.509174
     29          1           0        3.400000   -3.605287    2.509174
     30          6           0        3.400000    8.305074    0.702825
     31          6           0        3.400000    8.305074   -0.702825
     32          6           0        3.400000    7.114764    1.423858
     33          6           0        3.400000    5.922041    0.703557
     34          6           0        3.400000    5.922041   -0.703557
     35          6           0        3.400000    7.114764   -1.423858
     36          6           0        3.400000    4.524321    1.116363
     37          6           0        3.400000    4.524321   -1.116363
     38          7           0        3.400000    3.732317   -0.000000
     39          7           0        3.400000    4.135083   -2.385083
     40          1           0        3.400000    9.253704    1.232530
     41          1           0        3.400000    9.253704   -1.232530
     42          1           0        3.400000    7.105287    2.509174
     43          1           0        3.400000    7.105287   -2.509174
     44          6           0        3.400000    2.452825   -6.555074
     45          6           0        3.400000    1.047175   -6.555074
     46          6           0        3.400000    3.173858   -5.364764
     47          6           0        3.400000    2.453557   -4.172041
     48          6           0        3.400000    1.046443   -4.172041
     49          6           0        3.400000    0.326142   -5.364764
     50          6           0        3.400000    2.866363   -2.774321
     51          6           0        3.400000    0.633637   -2.774321
     52          7           0        3.400000    1.750000   -1.982317
     53          1           0        3.400000    2.982530   -7.503704
     54          1           0        3.400000    0.517470   -7.503704
     55          1           0        3.400000    4.259174   -5.355287
     56          1           0        3.400000   -0.759174   -5.355287
     57         30           0        3.400000    1.750000   -0.000000
     58          6           0        0.000000   -0.702825    6.555074
     59          6           0       -0.000000    0.702825    6.555074
     60          6           0        0.000000   -1.423858    5.364764
     61          6           0        0.000000   -0.703557    4.172041
     62          6           0       -0.000000    0.703557    4.172041
     63          6           0       -0.000000    1.423858    5.364764
     64          6           0        0.000000   -1.116363    2.774321
     65          6           0       -0.000000    1.116363    2.774321
     66          7           0       -0.000000   -0.000000    1.982317
     67          7           0       -0.000000    2.385083    2.385083
     68          7           0        0.000000   -2.385083    2.385083
     69          1           0        0.000000   -1.232530    7.503704
     70          1           0       -0.000000    1.232530    7.503704
     71          1           0        0.000000   -2.509174    5.355287
     72          1           0       -0.000000    2.509174    5.355287
     73          6           0        0.000000   -6.555074   -0.702825
     74          6           0        0.000000   -6.555074    0.702825
     75          6           0        0.000000   -5.364764   -1.423858
     76          6           0        0.000000   -4.172041   -0.703557
     77          6           0        0.000000   -4.172041    0.703557
     78          6           0        0.000000   -5.364764    1.423858
     79          6           0        0.000000   -2.774321   -1.116363
     80          6           0        0.000000   -2.774321    1.116363
     81          7           0        0.000000   -1.982317    0.000000
     82          7           0        0.000000   -2.385083   -2.385083
     83          1           0        0.000000   -7.503704   -1.232530
     84          1           0        0.000000   -7.503704    1.232530
     85          1           0        0.000000   -5.355287   -2.509174
     86          1           0        0.000000   -5.355287    2.509174
     87          6           0       -0.000000    6.555074    0.702825
     88          6           0       -0.000000    6.555074   -0.702825
     89          6           0       -0.000000    5.364764    1.423858
     90          6           0       -0.000000    4.172041    0.703557
     91          6           0       -0.000000    4.172041   -0.703557
     92          6           0       -0.000000    5.364764   -1.423858
     93          6           0       -0.000000    2.774321    1.116363
     94          6           0       -0.000000    2.774321   -1.116363
     95          7           0       -0.000000    1.982317    0.000000
     96          7           0       -0.000000    2.385083   -2.385083
     97          1           0       -0.000000    7.503704    1.232530
     98          1           0       -0.000000    7.503704   -1.232530
     99          1           0       -0.000000    5.355287    2.509174
    100          1           0       -0.000000    5.355287   -2.509174
    101          6           0       -0.000000    0.702825   -6.555074
    102          6           0        0.000000   -0.702825   -6.555074
    103          6           0       -0.000000    1.423858   -5.364764
    104          6           0       -0.000000    0.703557   -4.172041
    105          6           0        0.000000   -0.703557   -4.172041
    106          6           0        0.000000   -1.423858   -5.364764
    107          6           0       -0.000000    1.116363   -2.774321
    108          6           0        0.000000   -1.116363   -2.774321
    109          7           0       -0.000000   -0.000000   -1.982317
    110          1           0       -0.000000    1.232530   -7.503704
    111          1           0        0.000000   -1.232530   -7.503704
    112          1           0       -0.000000    2.509174   -5.355287
    113          1           0        0.000000   -2.509174   -5.355287
    114         30           0        0.000000    0.000000    0.000000
    115          6           0       -3.400000   -2.452825    6.555074
    116          6           0       -3.400000   -1.047175    6.555074
    117          6           0       -3.400000   -3.173858    5.364764
    118          6           0       -3.400000   -2.453557    4.172041
    119          6           0       -3.400000   -1.046443    4.172041
    120          6           0       -3.400000   -0.326142    5.364764
    121          6           0       -3.400000   -2.866363    2.774321
    122          6           0       -3.400000   -0.633637    2.774321
    123          7           0       -3.400000   -1.750000    1.982317
    124          7           0       -3.400000    0.635083    2.385083
    125          7           0       -3.400000   -4.135083    2.385083
    126          1           0       -3.400000   -2.982530    7.503704
    127          1           0       -3.400000   -0.517470    7.503704
    128          1           0       -3.400000   -4.259174    5.355287
    129          1           0       -3.400000    0.759174    5.355287
    130          6           0       -3.400000   -8.305074   -0.702825
    131          6           0       -3.400000   -8.305074    0.702825
    132          6           0       -3.400000   -7.114764   -1.423858
    133          6           0       -3.400000   -5.922041   -0.703557
    134          6           0       -3.400000   -5.922041    0.703557
    135          6           0       -3.400000   -7.114764    1.423858
    136          6           0       -3.400000   -4.524321   -1.116363
    137          6           0       -3.400000   -4.524321    1.116363
    138          7           0       -3.400000   -3.732317   -0.000000
    139          7           0       -3.400000   -4.135083   -2.385083
    140          1           0       -3.400000   -9.253704   -1.232530
    141          1           0       -3.400000   -9.253704    1.232530
    142          1           0       -3.400000   -7.105287   -2.509174
    143          1           0       -3.400000   -7.105287    2.509174
    144          6           0       -3.400000    4.805074    0.702825
    145          6           0       -3.400000    4.805074   -0.702825
    146          6           0       -3.400000    3.614764    1.423858
    147          6           0       -3.400000    2.422041    0.703557
    148          6           0       -3.400000    2.422041   -0.703557
    149          6           0       -3.400000    3.614764   -1.423858
    150          6           0       -3.400000    1.024321    1.116363
    151          6           0       -3.400000    1.024321   -1.116363
    152          7           0       -3.400000    0.232317   -0.000000
    153          7           0       -3.400000    0.635083   -2.385083
    154          1           0       -3.400000    5.753704    1.232530
    155          1           0       -3.400000    5.753704   -1.232530
    156          1           0       -3.400000    3.605287    2.509174
    157          1           0       -3.400000    3.605287   -2.509174
    158          6           0       -3.400000   -1.047175   -6.555074
    159          6           0       -3.400000   -2.452825   -6.555074
    160          6           0       -3.400000   -0.326142   -5.364764
    161          6           0       -3.400000   -1.046443   -4.172041
    162          6           0       -3.400000   -2.453557   -4.172041
    163          6           0       -3.400000   -3.173858   -5.364764
    164          6           0       -3.400000   -0.633637   -2.774321
    165          6           0       -3.400000   -2.866363   -2.774321
    166          7           0       -3.400000   -1.750000   -1.982317
    167          1           0       -3.400000   -0.517470   -7.503704
    168          1           0       -3.400000   -2.982530   -7.503704
    169          1           0       -3.400000    0.759174   -5.355287
    170          1           0       -3.400000   -4.259174   -5.355287
    171         30           0       -3.400000   -1.750000   -0.000000
 ---------------------------------------------------------------------
 Rotational constants (GHZ):      0.0193343      0.0149448      0.0121441
 Leave Link  202 at Tue Oct 21 00:38:01 2025, MaxMem=  2147483648 cpu:         0.0
 (Enter /opt/g09/l301.exe)
 Standard basis: def2SVP (5D, 7F)
 Ernie: Thresh=  0.10000D-02 Tol=  0.10000D-05 Strict=F.
 There are   560 symmetry adapted cartesian basis functions of AG  symmetry.
 There are   513 symmetry adapted cartesian basis functions of BG  symmetry.
 There are   519 symmetry adapted cartesian basis functions of AU  symmetry.
 There are   556 symmetry adapted cartesian basis functions of BU  symmetry.
 There are   522 symmetry adapted basis functions of AG  symmetry.
 There are   484 symmetry adapted basis functions of BG  symmetry.
 There are   488 symmetry adapted basis functions of AU  symmetry.
 There are   519 symmetry adapted basis functions of BU  symmetry.
  2013 basis functions,  3579 primitive gaussians,  2148 cartesian basis functions
   441 alpha electrons      441 beta electrons
       nuclear repulsion energy     34813.2242179828 Hartrees.
 IExCor=10402 DFT=T Ex=LC-B+HF Corr=LYP ExCW=0 ScaHFX=  1.000000
 ScaDFX=  1.000000  1.000000  1.000000  1.000000 ScalE2=  1.000000  1.000000
 IRadAn=      0 IRanWt=     -1 IRanGd=            0 ICorTp=0 IEmpDi=  4
  HFx wShort=  0.000000 wLong=  0.400000 cFull=  0.000000 cShort=  0.000000 cLong=  1.000000
  DFx wShort=  0.000000 wLong=  0.400000 cFull=  0.000000 cShort=  0.000000 cLong=  1.000000
 NAtoms=  171 NActive=  171 NUniq=   46 SFac= 4.00D+00 NAtFMM=   60 NAOKFM=T Big=F
 Integral buffers will be    131072 words long.
 Raffenetti 2 integral format.
 Two-electron integral symmetry is turned on.
 Leave Link  301 at Tue Oct 21 00:38:01 2025, MaxMem=  2147483648 cpu:         0.2
 (Enter /opt/g09/l302.exe)
 NPDir=0 NMtPBC=     1 NCelOv=     1 NCel=       1 NClECP=     1 NCelD=      1
         NCelK=      1 NCelE2=     1 NClLst=     1 CellRange=     0.0.
 One-electron integrals computed using PRISM.
 One-electron integral symmetry used in STVInt
   4 Symmetry operations used in ECPInt.
 ECPInt:  NShTT=  402753 NPrTT= 1563852 LenC2=  274370 LenP2D=  608360.
 LDataN:  DoStor=T MaxTD1= 6 Len=  172
 NBasis=  2013 RedAO= T EigKep=  1.03D-04  NBF=   522   484   488   519
 NBsUse=  2013 1.00D-06 EigRej= -1.00D+00 NBFU=   522   484   488   519
 Precomputing XC quadrature grid using
 IXCGrd= 4 IRadAn=           0 IRanWt=          -1 IRanGd=           0 AccXCQ= 0.00D+00.
 Generated NRdTot=       0 NPtTot=           0 NUsed=           0 NTot=          32
 NSgBfM=  1632  1634  1634  1636  1637 MxSgAt=   171 MxSgA2=   171.
 Leave Link  302 at Tue Oct 21 00:38:04 2025, MaxMem=  2147483648 cpu:        30.0
 (Enter /opt/g09/l303.exe)
 DipDrv:  MaxL=1.
 Leave Link  303 at Tue Oct 21 00:38:05 2025, MaxMem=  2147483648 cpu:         3.4
 (Enter /opt/g09/l401.exe)
 ExpMin= 4.23D-02 ExpMax= 8.20D+04 ExpMxC= 1.23D+04 IAcc=2 IRadAn=         4 AccDes= 0.00D+00
 Harris functional with IExCor=10402 and IRadAn=       4 diagonalized for initial guess.
 HarFok:  IExCor=10402 AccDes= 0.00D+00 IRadAn=         4 IDoV= 1 UseB2=F ITyADJ=14
 ICtDFT=  3500011 ScaDFX=  1.000000  1.000000  1.000000  1.000000
 FoFCou: FMM=F IPFlag=           0 FMFlag=      100000 FMFlg1=        2000
         NFxFlg=           0 DoJE=T BraDBF=F KetDBF=T FulRan=T
         wScrn=  0.000000 ICntrl=     500 IOpCl=  0 I1Cent=   200000004 NGrid=           0
         NMat0=    1 NMatS0=      1 NMatT0=    0 NMatD0=    1 NMtDS0=    0 NMtDT0=    0
 Petite list used in FoFCou.
 Harris En= -10145.0251694619    
 JPrj=0 DoOrth=F DoCkMO=F.
 Initial guess orbital symmetries:
       Occupied  (AG) (AG) (BU) (AG) (AG) (BU) (BU) (AU) (BU) (AG)
                 (BG) (AU) (BU) (AG) (BU) (BU) (AG) (BU) (AG) (AU)
                 (AG) (BG) (BU) (AG) (AU) (BU) (AG) (AG) (BG) (BU)
                 (AU) (AG) (BU) (BG) (AU) (AG) (AU) (BG) (BU) (BG)
                 (AU) (BU) (BG) (AU) (AG) (BG) (AU) (BG) (AU) (BU)
                 (BG) (AG) (BU) (AG) (AU) (BU) (AG) (BU) (AG) (BG)
                 (BU) (AU) (AG) (AU) (AG) (BU) (AG) (BG) (BU) (AU)
                 (BG) (BU) (AG) (BG) (AU) (AU) (AG) (BG) (BU) (BU)
                 (AG) (BG) (BU) (AU) (AG) (BG) (AU) (BU) (AG) (AU)
                 (AG) (BG) (AU) (BG) (BU) (AG) (BU) (BU) (AG) (AU)
                 (BG) (BG) (AU) (BG) (BU) (AG) (AU) (BU) (BG) (AU)
                 (AG) (BG) (AU) (AG) (BU) (BG) (AU) (AG) (BU) (BG)
                 (AU) (BU) (BG) (AG) (BU) (AU) (BG) (AG) (AU) (BU)
                 (AG) (BG) (AU) (BU) (AG) (AG) (AG) (BU) (BU) (AU)
                 (AG) (BU) (BG) (AU) (BU) (AG) (BU) (AG) (BU) (AG)
                 (BU) (AU) (AG) (BG) (BU) (AU) (AG) (BU) (AG) (BG)
                 (AU) (BG) (AU) (BU) (BG) (AG) (BU) (AU) (AG) (BU)
                 (AG) (AG) (BU) (AG) (BU) (AU) (AG) (BG) (BU) (AU)
                 (AG) (BU) (AG) (BG) (AU) (BG) (AU) (BU) (BG) (BU)
                 (AG) (AG) (BU) (BG) (AU) (AG) (AU) (BG) (AU) (BU)
                 (AG) (BG) (BU) (AU) (AG) (BU) (AG) (BG) (AU) (BG)
                 (BU) (AU) (BG) (AG) (AU) (BU) (AG) (BU) (AG) (BU)
                 (AU) (AG) (BG) (BU) (AU) (AG) (BU) (AG) (BG) (AU)
                 (BG) (AG) (BU) (AG) (AU) (BU) (BG) (AG) (BU) (AU)
                 (BG) (AU) (BG) (BG) (AU) (BG) (AG) (BU) (AG) (BU)
                 (AU) (BG) (AG) (AU) (BU) (AG) (BU) (AG) (AU) (BU)
                 (BG) (AU) (AG) (BU) (AG) (BU) (AG) (BG) (BU) (AU)
                 (BG) (AU) (AG) (BG) (AU) (BU) (BG) (AU) (BG) (AG)
                 (BU) (AG) (BU) (AU) (BG) (AU) (AG) (BU) (AG) (BU)
                 (AG) (BU) (BG) (BG) (AU) (AU) (BU) (BG) (BU) (AG)
                 (BG) (BG) (AG) (AU) (AU) (BG) (AG) (AG) (BU) (AG)
                 (BU) (AU) (AG) (BG) (BU) (AU) (BG) (AU) (BG) (BU)
                 (AU) (BU) (BU) (AG) (AG) (BU) (AG) (BG) (AG) (BU)
                 (BG) (BG) (AU) (BU) (BG) (AU) (BU) (AU) (BG) (AG)
                 (BU) (AG) (AG) (BU) (AG) (BG) (AU) (BG) (AU) (AG)
                 (BU) (AG) (BU) (AG) (AU) (AU) (BU) (AG) (BG) (BU)
                 (AU) (AG) (BU) (BG) (BU) (BG) (AU) (AG) (AG) (BU)
                 (AG) (BU) (AG) (AU) (BU) (BG) (AU) (BU) (BG) (AG)
                 (AU) (BU) (AG) (BG) (AU) (BG) (AG) (BU) (BG) (AG)
                 (AG) (AU) (AU) (BU) (AG) (BU) (AU) (BG) (BG) (BG)
                 (AU) (BG) (AU) (BG) (AG) (BU) (AG) (AG) (BU) (AU)
                 (BU) (AG) (BG) (BU) (AU) (AG) (AU) (BG) (BU) (AG)
                 (BU) (AG) (BU) (BU) (AG) (BU) (BG) (AU) (BG) (AG)
                 (BG) (AU) (BU) (AG) (BG) (AU) (BG) (AU) (AG) (BU)
                 (AG)
       Virtual   (AG) (BG) (AU) (BU) (BG) (AG) (AU) (BU) (BU) (BG)
                 (AG) (AU) (BU) (AG) (BG) (AG) (BU) (AU) (AG) (BU)
                 (BG) (AU) (BG) (BG) (AG) (AU) (AU) (BU) (BG) (AG)
                 (AG) (BU) (AG) (AG) (AU) (BU) (AU) (BU) (BU) (AG)
                 (BG) (BU) (AU) (AG) (BG) (BU) (AG) (BG) (AU) (BU)
                 (AG) (BU) (AU) (BU) (BU) (AU) (AG) (AG) (BG) (AG)
                 (BG) (AG) (BG) (AG) (BU) (BG) (AU) (BU) (BG) (AU)
                 (BU) (AG) (AU) (BU) (BG) (AU) (AG) (BG) (AG) (AU)
                 (BG) (AU) (BU) (BU) (AU) (AG) (AU) (AG) (BG) (AG)
                 (BG) (BU) (AU) (BU) (BG) (AU) (AG) (BU) (AU) (BU)
                 (BG) (AG) (AU) (BU) (BG) (BG) (AU) (AG) (BG) (AG)
                 (BU) (AU) (AG) (AU) (BG) (BG) (BU) (AU) (BG) (AG)
                 (AU) (BG) (BU) (BU) (AG) (AU) (AG) (BG) (BU) (AU)
                 (AG) (AU) (AG) (BG) (BU) (BG) (AU) (AG) (BG) (BU)
                 (BG) (AU) (BU) (AG) (BU) (AG) (AU) (BG) (AU) (BG)
                 (AG) (BU) (AU) (BG) (AU) (BG) (BU) (AG) (AU) (BU)
                 (BG) (BG) (BU) (AG) (AU) (BU) (AG) (AU) (BG) (BU)
                 (AG) (AU) (BU) (AG) (BU) (AG) (AG) (BU) (AU) (BU)
                 (AG) (BG) (BG) (BU) (AG) (AG) (AU) (BU) (AG) (BU)
                 (BG) (AU) (AG) (BU) (AG) (AU) (AG) (BU) (AG) (AU)
                 (BG) (AG) (BU) (AU) (BG) (BU) (BU) (AG) (AU) (BG)
                 (BU) (BG) (AG) (BG) (AU) (AG) (BU) (AU) (AG) (BU)
                 (BG) (BU) (AU) (AG) (BG) (BU) (BG) (AU) (AG) (AU)
                 (AG) (BU) (AU) (BG) (AG) (BU) (AU) (AG) (BG) (AU)
                 (BG) (BU) (AG) (BG) (BU) (AG) (BU) (BG) (AU) (BU)
                 (AU) (AG) (BG) (AG) (AU) (BU) (BG) (AG) (BU) (BG)
                 (AU) (BG) (AG) (BU) (AU) (BG) (AG) (BU) (BG) (AU)
                 (AU) (BU) (AG) (AU) (AG) (BU) (BG) (AG) (BG) (BU)
                 (AU) (AG) (BU) (AU) (BU) (BG) (AU) (AG) (BG) (AU)
                 (BG) (BU) (BG) (BU) (AG) (AU) (BU) (BG) (AG) (AU)
                 (AG) (BU) (AU) (BG) (AG) (AU) (BU) (BU) (BG) (AU)
                 (AG) (AG) (BG) (AU) (AG) (BG) (BU) (AU) (BG) (BU)
                 (BG) (BU) (AU) (AG) (BG) (AU) (BU) (BG) (AG) (AG)
                 (BU) (BG) (AU) (AU) (BU) (BG) (AG) (AU) (BG) (AG)
                 (BU) (BU) (BG) (AU) (AG) (BG) (AU) (AG) (BG) (BU)
                 (AU) (BU) (BG) (AU) (AU) (BU) (AG) (AG) (BG) (AU)
                 (BU) (AG) (BG) (BG) (AU) (BU) (AU) (AG) (BU) (AU)
                 (BU) (AG) (BG) (AG) (BG) (BG) (BU) (AG) (BU) (AU)
                 (BG) (BU) (AU) (BG) (AG) (AU) (BG) (AG) (AU) (BU)
                 (AU) (BU) (AG) (BG) (AG) (BU) (AU) (BU) (AG) (AU)
                 (AG) (BG) (BU) (BG) (BU) (AG) (BG) (BU) (AU) (AG)
                 (AU) (BG) (BG) (BU) (AG) (BG) (AU) (AG) (AU) (BU)
                 (AG) (BG) (AU) (AG) (BU) (AU) (BU) (AG) (BG) (BG)
                 (BU) (AG) (AU) (AU) (BU) (AG) (BG) (AU) (BG) (AG)
                 (BU) (BG) (BU) (AG) (AU) (BU) (AU) (BU) (AG) (AU)
                 (BG) (BG) (AG) (AG) (AU) (BU) (AU) (BU) (BG) (AU)
                 (AG) (BG) (AG) (BU) (BG) (BU) (AG) (BU) (BG) (AU)
                 (AU) (AG) (AU) (BG) (BU) (AU) (BG) (AG) (BG) (AU)
                 (BU) (AG) (BG) (AU) (AG) (BU) (BG) (BG) (BU) (AU)
                 (BU) (AU) (BG) (AG) (BG) (AG) (BU) (AU) (AG) (BG)
                 (AU) (BU) (AU) (BG) (BG) (AG) (AU) (BU) (BU) (BG)
                 (AG) (AU) (BU) (AG) (BG) (BU) (AG) (AU) (AU) (BG)
                 (BU) (BG) (AG) (AU) (AU) (BG) (AG) (AG) (BU) (AU)
                 (BU) (BG) (AG) (BU) (AG) (AU) (AG) (BG) (BU) (AU)
                 (AG) (BG) (BU) (AU) (BG) (AG) (BU) (AU) (BU) (AG)
                 (BG) (BU) (AU) (BG) (AG) (AG) (BU) (BG) (AU) (AG)
                 (BU) (BG) (AU) (BU) (AG) (AU) (BG) (AU) (BG) (AG)
                 (BU) (AU) (BG) (BU) (AU) (AG) (BG) (AG) (BG) (BU)
                 (AG) (AU) (AU) (BU) (AU) (BG) (BG) (BU) (AG) (BG)
                 (BU) (AG) (AU) (AU) (BG) (AU) (AG) (BU) (BG) (AU)
                 (BG) (BU) (BU) (BG) (AG) (BG) (AU) (BU) (AG) (BG)
                 (AG) (AU) (BU) (BU) (AG) (AG) (AG) (BU) (AU) (BU)
                 (BG) (AU) (AG) (AU) (BU) (BG) (BU) (AG) (AU) (BU)
                 (AG) (BG) (BU) (AU) (AG) (BG) (AU) (BG) (AU) (AG)
                 (BG) (BU) (BU) (BG) (AG) (BG) (AU) (AU) (BU) (AG)
                 (BU) (BG) (AG) (BU) (AU) (AG) (BU) (AU) (BU) (BG)
                 (AU) (AG) (BU) (BG) (AG) (BG) (AG) (BU) (AG) (AU)
                 (BG) (BG) (BU) (AU) (AG) (AU) (BG) (AU) (BG) (BU)
                 (AG) (AG) (BG) (BG) (BU) (AG) (AU) (BU) (AG) (BU)
                 (AU) (AU) (BU) (BG) (AG) (BU) (BG) (AU) (BU) (AG)
                 (AU) (AG) (BG) (BU) (BU) (AG) (AG) (AU) (BU) (AU)
                 (BG) (AG) (BU) (BG) (AG) (AG) (BU) (BU) (BG) (AG)
                 (AG) (BU) (BU) (AU) (BG) (AG) (AU) (AG) (BU) (BG)
                 (AG) (BU) (BU) (BU) (BG) (AU) (AG) (BG) (AU) (BG)
                 (AG) (BU) (AG) (AU) (BU) (AG) (BG) (BU) (BG) (AU)
                 (BU) (AG) (BU) (AU) (AG) (AU) (BU) (AG) (AU) (BG)
                 (AG) (BG) (BU) (BG) (AG) (BU) (AU) (BU) (BG) (AU)
                 (AU) (AG) (BG) (BU) (BG) (AG) (AG) (AG) (AU) (BG)
                 (AU) (AU) (BG) (BU) (AU) (BG) (BG) (AU) (BU) (AG)
                 (AG) (BU) (BG) (AU) (AG) (BU) (AG) (AU) (AG) (BU)
                 (AG) (BU) (BG) (BG) (BU) (AU) (AG) (BG) (AG) (BU)
                 (AU) (BG) (BU) (AG) (BG) (AU) (AG) (BG) (AU) (BU)
                 (AU) (AU) (BG) (AG) (BG) (AU) (BU) (BG) (BG) (AG)
                 (AU) (BU) (BG) (BU) (AU) (AU) (AG) (BU) (BU) (AG)
                 (BG) (BG) (BU) (AU) (AG) (BU) (AG) (AU) (BG) (BU)
                 (BU) (AU) (BG) (AG) (BG) (BU) (AU) (BG) (BU) (AU)
                 (BG) (AG) (BU) (AU) (AU) (AG) (BG) (AG) (BU) (BG)
                 (AG) (AU) (BG) (BU) (AG) (BG) (BU) (AU) (AU) (AG)
                 (BG) (AU) (BU) (AG) (AU) (BU) (AG) (AU) (AG) (AG)
                 (AU) (BU) (AG) (AG) (BU) (BG) (BU) (AG) (BU) (AG)
                 (BG) (AU) (BU) (AG) (BU) (BU) (BG) (AG) (AG) (BU)
                 (AU) (BG) (AU) (AG) (BG) (BG) (AU) (BG) (BU) (AU)
                 (AG) (BG) (BG) (AU) (AG) (AU) (BU) (AG) (BG) (AU)
                 (AG) (BU) (AU) (AG) (BG) (BG) (AU) (BU) (BU) (AU)
                 (BU) (AG) (BU) (AG) (AG) (BU) (BG) (AU) (AG) (AG)
                 (BG) (BU) (BU) (AU) (BG) (BU) (BG) (AU) (AG) (AU)
                 (BU) (AU) (AG) (BG) (AG) (BU) (AU) (AG) (BU) (BG)
                 (AU) (BG) (AG) (BU) (AG) (BG) (AU) (AG) (BG) (AU)
                 (BU) (AG) (BU) (BG) (AU) (BU) (BG) (AG) (BU) (AG)
                 (AU) (BG) (BU) (AG) (AU) (BU) (BG) (AU) (AG) (AG)
                 (AU) (BG) (BU) (BG) (AG) (AU) (BU) (BG) (AG) (AU)
                 (AU) (BG) (BU) (AG) (BU) (AG) (AU) (BG) (BU) (AG)
                 (BU) (AU) (AG) (BG) (AU) (BG) (BU) (AU) (BG) (AU)
                 (BG) (AG) (BU) (AU) (BG) (AG) (BG) (BU) (AU) (BU)
                 (AG) (AG) (BU) (AG) (AU) (BG) (BU) (AG) (BU) (AG)
                 (AU) (BG) (AG) (AU) (BG) (BU) (BU) (AG) (AU) (BG)
                 (AG) (BU) (AU) (BU) (AG) (BG) (BU) (AG) (BG) (BU)
                 (AU) (AG) (BU) (AU) (AG) (BU) (AU) (AU) (BG) (BU)
                 (AG) (BG) (BG) (AG) (BU) (AU) (BG) (AG) (AG) (AU)
                 (BG) (BU) (BG) (BU) (AG) (BU) (AG) (AU) (AU) (BU)
                 (AG) (BG) (AU) (BU) (AG) (BG) (AG) (BG) (AU) (BU)
                 (AG) (BU) (BG) (AU) (BU) (BG) (AG) (BU) (AU) (BG)
                 (AG) (AU) (BG) (AU) (BG) (BU) (BU) (AG) (BG) (BU)
                 (AU) (AG) (BG) (AU) (AG) (BG) (AU) (AG) (BU) (AU)
                 (BG) (BU) (AG) (BU) (AU) (AU) (BG) (BU) (BG) (BU)
                 (AG) (BG) (BG) (AU) (AG) (AU) (BU) (BG) (BU) (AG)
                 (AU) (BU) (BG) (AU) (AG) (AU) (BU) (BG) (AG) (AG)
                 (BG) (AU) (BU) (BG) (AU) (BG) (BU) (AG) (AU) (AU)
                 (BG) (AU) (BU) (BG) (AG) (AU) (BG) (AU) (BU) (AG)
                 (BU) (AG) (BG) (AG) (AU) (AG) (BU) (AU) (BU) (BG)
                 (BU) (AG) (BG) (AU) (BG) (BG) (AG) (AU) (BU) (AU)
                 (BG) (BG) (AU) (BU) (AG) (AG) (BU) (AG) (AU) (BG)
                 (BU) (AG) (BU) (AU) (AG) (BG) (AU) (BG) (AU) (AG)
                 (AU) (BG) (BU) (BG) (AU) (BU) (AG) (BU) (AG) (BU)
                 (BG) (AG) (BG) (AU) (BU) (AG) (BU) (AU) (AG) (BU)
                 (BG) (BG) (AU) (AG) (BG) (AU) (BU) (BG) (AG) (BU)
                 (BU) (AU) (BG) (AG) (BU) (BG) (AG) (AU) (AG) (BU)
                 (BG) (AG) (BU) (AG) (AU) (BG) (AU) (BU) (AU) (BG)
                 (AG) (BG) (AU) (BU) (AG) (AU) (AG) (BU) (AG) (AU)
                 (BG) (BU) (BG) (AG) (AU) (BG) (BU) (AU) (BG) (AU)
                 (AU) (BU) (BU) (BG) (AG) (AG) (AU) (BG) (BG) (AG)
                 (BU) (BG) (AU) (AG) (BU) (AG) (AU) (BG) (AG) (AU)
                 (AU) (BU) (BG) (AG) (BG) (AU) (BU) (AG) (BU) (AU)
                 (AG) (BU) (AU) (AG) (BG) (BG) (AU) (AU) (BU) (BG)
                 (AG) (AU) (BG) (AG) (BU) (AU) (BG) (BU) (AG) (AU)
                 (BG) (AU) (BG) (AU) (BG) (BG) (AU) (AG) (BU) (AU)
                 (BU) (BG) (AG) (BU) (AG) (AU) (AG) (AU) (BU) (BG)
                 (BG) (BU) (AG) (AU) (BU) (BG) (AG) (BG) (AU) (AG)
                 (BU) (BU) (BG) (BG) (AG) (BU) (AU) (AG) (AU) (BG)
                 (AU) (AG) (AU) (AG) (BU) (AG) (BU) (BU) (AU) (AG)
                 (BG) (BU) (AG) (AG) (BU) (BG) (BU) (AG) (AU) (BG)
                 (AU) (AG) (AU) (BU) (BG) (BU) (BG) (AU) (AG) (AU)
                 (AU) (BG) (BU) (AG) (BG) (AU) (BU) (AU) (BG) (AU)
                 (BU) (AG) (BG) (AG) (AU) (BG) (AG) (AU) (BU) (BG)
                 (AG) (BU) (BG) (AU) (BG) (AG) (BU) (AG) (BU) (AU)
                 (BG) (AG) (BU) (AU) (BG) (BU) (BG) (AU) (AG) (BG)
                 (AU) (BG) (AU) (BU) (AU) (BG) (BU) (AG) (BG) (AG)
                 (BU) (BG) (AU) (AG) (AU) (BU) (BG) (AU) (BG) (BU)
                 (AG) (BU) (AG) (BG) (AU) (AG) (BU) (AU) (BU) (AG)
                 (AG) (AU) (BG) (BG) (BU) (AG) (AU) (BG) (BU) (AG)
                 (AG) (BU) (AU) (BG) (AU) (BU) (AG) (AU) (BG) (BU)
                 (AU) (BG) (BG) (AU) (BG) (BU) (AU) (BG) (AG) (AU)
                 (BU) (BU) (AG) (AG) (BG) (AU) (BU) (BG) (AG) (AG)
                 (BG) (AU) (AU) (BU) (AG) (BG) (BG) (BU) (AU) (AU)
                 (BG) (BG) (BU) (AG) (AU) (BG) (BU) (AU) (AU) (BG)
                 (BG) (AU) (BG) (AU) (BU) (BU) (BU) (AG) (AG) (BU)
                 (AU) (BU) (AG) (BG) (BU) (AU) (BU) (AU) (AG) (BG)
                 (BU) (AU)
 The electronic state of the initial guess is 1-AG.
 Leave Link  401 at Tue Oct 21 00:38:10 2025, MaxMem=  2147483648 cpu:        41.3
 (Enter /opt/g09/l502.exe)
 Closed shell SCF:
 Using DIIS extrapolation, IDIIS=  1040.
 Integral symmetry usage will be decided dynamically.
 IVT=    13902328 IEndB=    13902328 NGot=  2147483648 MDV=  2138214013
 LenX=  2138214013 LenY=  2133597961
 Requested convergence on RMS density matrix=1.00D-08 within 128 cycles.
 Requested convergence on MAX density matrix=1.00D-06.
 Requested convergence on             energy=1.00D-06.
 No special actions if energy rises.
 Fock matrices will be formed incrementally for  20 cycles.

 Cycle   1  Pass 1  IDiag  1:
 FoFJK:  IHMeth= 1 ICntrl=       0 DoSepK=T KAlg= 0 I1Cent=   0 FoldK=F
 IRaf=         1 NMat=   1 IRICut=       1 DoRegI=T DoRafI=F ISym2E= 1.
 FoFCou: FMM=F IPFlag=           0 FMFlag=      100000 FMFlg1=        2000
         NFxFlg=           0 DoJE=T BraDBF=F KetDBF=F FulRan=T
         wScrn=  0.000000 ICntrl=     500 IOpCl=  0 I1Cent=           0 NGrid=           0
         NMat0=    1 NMatS0=      1 NMatT0=    0 NMatD0=    1 NMtDS0=    0 NMtDT0=    0
 Petite list used in FoFCou.
 E= -10319.6461672112    
 DIIS: error= 6.87D-02 at cycle   1 NSaved=   1.
 NSaved= 1 IEnMin= 1 EnMin= -10319.6461672112     IErMin= 1 ErrMin= 6.87D-02
 ErrMax= 6.87D-02  0.00D+00 EMaxC= 1.00D-01 BMatC= 1.99D+00 BMatP= 1.99D+00
 IDIUse=3 WtCom= 3.13D-01 WtEn= 6.87D-01
 Coeff-Com:  0.100D+01
 Coeff-En:   0.100D+01
 Coeff:      0.100D+01
 Gap=     0.163 Goal=   None    Shift=    0.000
 GapD=    0.163 DampG=1.000 DampE=0.250 DampFc=0.2500 IDamp=-1.
 Damping current iteration by 2.50D-01
 RMSDP=2.49D-03 MaxDP=2.55D-01              OVMax= 1.77D-01

 Cycle   2  Pass 1  IDiag  1:
 RMSU=  5.57D-04    CP:  9.71D-01
 E= -10320.1651861071     Delta-E=       -0.519018895844 Rises=F Damp=T
 DIIS: error= 2.95D-02 at cycle   2 NSaved=   2.
 NSaved= 2 IEnMin= 2 EnMin= -10320.1651861071     IErMin= 2 ErrMin= 2.95D-02
 ErrMax= 2.95D-02  0.00D+00 EMaxC= 1.00D-01 BMatC= 5.10D-01 BMatP= 1.99D+00
 IDIUse=3 WtCom= 7.05D-01 WtEn= 2.95D-01
 Coeff-Com: -0.874D+00 0.187D+01
 Coeff-En:   0.000D+00 0.100D+01
 Coeff:     -0.616D+00 0.162D+01
 Gap=     0.189 Goal=   None    Shift=    0.000
 RMSDP=1.63D-03 MaxDP=2.25D-01 DE=-5.19D-01 OVMax= 8.64D-02

 Cycle   3  Pass 1  IDiag  1:
 RMSU=  6.42D-04    CP:  8.86D-01  3.00D+00
 E= -10321.0691287928     Delta-E=       -0.903942685771 Rises=F Damp=F
 DIIS: error= 1.31D-02 at cycle   3 NSaved=   3.
 NSaved= 3 IEnMin= 3 EnMin= -10321.0691287928     IErMin= 3 ErrMin= 1.31D-02
 ErrMax= 1.31D-02  0.00D+00 EMaxC= 1.00D-01 BMatC= 7.11D-02 BMatP= 5.10D-01
 IDIUse=3 WtCom= 8.69D-01 WtEn= 1.31D-01
 Coeff-Com:  0.121D+00 0.392D-01 0.840D+00
 Coeff-En:   0.000D+00 0.000D+00 0.100D+01
 Coeff:      0.105D+00 0.341D-01 0.861D+00
 Gap=     0.167 Goal=   None    Shift=    0.000
 RMSDP=2.29D-04 MaxDP=3.69D-02 DE=-9.04D-01 OVMax= 3.92D-02

 Cycle   4  Pass 1  IDiag  1:
 RMSU=  2.24D-04    CP:  8.84D-01  3.00D+00  1.06D+00
 E= -10321.1039494741     Delta-E=       -0.034820681307 Rises=F Damp=F
 DIIS: error= 3.02D-03 at cycle   4 NSaved=   4.
 NSaved= 4 IEnMin= 4 EnMin= -10321.1039494741     IErMin= 4 ErrMin= 3.02D-03
 ErrMax= 3.02D-03  0.00D+00 EMaxC= 1.00D-01 BMatC= 1.70D-02 BMatP= 7.11D-02
 IDIUse=3 WtCom= 9.70D-01 WtEn= 3.02D-02
 Coeff-Com:  0.163D+00-0.199D+00 0.490D+00 0.546D+00
 Coeff-En:   0.000D+00 0.000D+00 0.107D+00 0.893D+00
 Coeff:      0.158D+00-0.193D+00 0.478D+00 0.557D+00
 Gap=     0.170 Goal=   None    Shift=    0.000
 RMSDP=1.12D-04 MaxDP=8.52D-03 DE=-3.48D-02 OVMax= 2.78D-02

 Cycle   5  Pass 1  IDiag  1:
 RMSU=  6.04D-05    CP:  8.82D-01  3.00D+00  1.15D+00  6.82D-01
 E= -10321.1189205557     Delta-E=       -0.014971081539 Rises=F Damp=F
 DIIS: error= 7.04D-04 at cycle   5 NSaved=   5.
 NSaved= 5 IEnMin= 5 EnMin= -10321.1189205557     IErMin= 5 ErrMin= 7.04D-04
 ErrMax= 7.04D-04  0.00D+00 EMaxC= 1.00D-01 BMatC= 1.04D-03 BMatP= 1.70D-02
 IDIUse=3 WtCom= 9.93D-01 WtEn= 7.04D-03
 Coeff-Com:  0.370D-01-0.729D-01 0.548D-01 0.218D+00 0.763D+00
 Coeff-En:   0.000D+00 0.000D+00 0.000D+00 0.000D+00 0.100D+01
 Coeff:      0.368D-01-0.724D-01 0.544D-01 0.216D+00 0.765D+00
 Gap=     0.169 Goal=   None    Shift=    0.000
 RMSDP=3.41D-05 MaxDP=3.33D-03 DE=-1.50D-02 OVMax= 9.70D-03

 Cycle   6  Pass 1  IDiag  1:
 RMSU=  2.76D-05    CP:  8.81D-01  3.00D+00  1.16D+00  7.49D-01  9.21D-01
 E= -10321.1200252410     Delta-E=       -0.001104685325 Rises=F Damp=F
 DIIS: error= 3.12D-04 at cycle   6 NSaved=   6.
 NSaved= 6 IEnMin= 6 EnMin= -10321.1200252410     IErMin= 6 ErrMin= 3.12D-04
 ErrMax= 3.12D-04  0.00D+00 EMaxC= 1.00D-01 BMatC= 1.11D-04 BMatP= 1.04D-03
 IDIUse=3 WtCom= 9.97D-01 WtEn= 3.12D-03
 Coeff-Com: -0.621D-02-0.284D-03-0.220D-01 0.359D-01 0.310D+00 0.683D+00
 Coeff-En:   0.000D+00 0.000D+00 0.000D+00 0.000D+00 0.000D+00 0.100D+01
 Coeff:     -0.619D-02-0.283D-03-0.219D-01 0.357D-01 0.309D+00 0.684D+00
 Gap=     0.169 Goal=   None    Shift=    0.000
 RMSDP=1.08D-05 MaxDP=1.07D-03 DE=-1.10D-03 OVMax= 2.97D-03

 Cycle   7  Pass 1  IDiag  1:
 RMSU=  9.03D-06    CP:  8.80D-01  3.00D+00  1.16D+00  7.53D-01  1.01D+00
                    CP:  9.43D-01
 E= -10321.1201440814     Delta-E=       -0.000118840391 Rises=F Damp=F
 DIIS: error= 1.08D-04 at cycle   7 NSaved=   7.
 NSaved= 7 IEnMin= 7 EnMin= -10321.1201440814     IErMin= 7 ErrMin= 1.08D-04
 ErrMax= 1.08D-04  0.00D+00 EMaxC= 1.00D-01 BMatC= 1.45D-05 BMatP= 1.11D-04
 IDIUse=3 WtCom= 9.99D-01 WtEn= 1.08D-03
 Coeff-Com: -0.795D-02 0.985D-02-0.180D-01-0.115D-01 0.368D-01 0.288D+00
 Coeff-Com:  0.702D+00
 Coeff-En:   0.000D+00 0.000D+00 0.000D+00 0.000D+00 0.000D+00 0.000D+00
 Coeff-En:   0.100D+01
 Coeff:     -0.794D-02 0.984D-02-0.179D-01-0.115D-01 0.368D-01 0.288D+00
 Coeff:      0.703D+00
 Gap=     0.170 Goal=   None    Shift=    0.000
 RMSDP=4.11D-06 MaxDP=3.63D-04 DE=-1.19D-04 OVMax= 1.46D-03

 Cycle   8  Pass 1  IDiag  1:
 RMSU=  3.35D-06    CP:  8.80D-01  3.00D+00  1.16D+00  7.58D-01  1.01D+00
                    CP:  1.01D+00  9.17D-01
 E= -10321.1201676195     Delta-E=       -0.000023538116 Rises=F Damp=F
 DIIS: error= 5.94D-05 at cycle   8 NSaved=   8.
 NSaved= 8 IEnMin= 8 EnMin= -10321.1201676195     IErMin= 8 ErrMin= 5.94D-05
 ErrMax= 5.94D-05  0.00D+00 EMaxC= 1.00D-01 BMatC= 3.20D-06 BMatP= 1.45D-05
 IDIUse=1 WtCom= 1.00D+00 WtEn= 0.00D+00
 Coeff-Com: -0.109D-02 0.237D-02-0.363D-02-0.104D-01-0.444D-01-0.169D-01
 Coeff-Com:  0.311D+00 0.763D+00
 Coeff:     -0.109D-02 0.237D-02-0.363D-02-0.104D-01-0.444D-01-0.169D-01
 Coeff:      0.311D+00 0.763D+00
 Gap=     0.170 Goal=   None    Shift=    0.000
 RMSDP=2.03D-06 MaxDP=1.54D-04 DE=-2.35D-05 OVMax= 5.20D-04

 Cycle   9  Pass 1  IDiag  1:
 RMSU=  1.47D-06    CP:  8.80D-01  3.00D+00  1.16D+00  7.60D-01  1.03D+00
                    CP:  1.03D+00  1.03D+00  9.72D-01
 E= -10321.1201735472     Delta-E=       -0.000005927672 Rises=F Damp=F
 DIIS: error= 1.54D-05 at cycle   9 NSaved=   9.
 NSaved= 9 IEnMin= 9 EnMin= -10321.1201735472     IErMin= 9 ErrMin= 1.54D-05
 ErrMax= 1.54D-05  0.00D+00 EMaxC= 1.00D-01 BMatC= 3.96D-07 BMatP= 3.20D-06
 IDIUse=1 WtCom= 1.00D+00 WtEn= 0.00D+00
 Coeff-Com:  0.850D-03-0.574D-03 0.142D-02-0.177D-02-0.236D-01-0.605D-01
 Coeff-Com:  0.379D-02 0.261D+00 0.819D+00
 Coeff:      0.850D-03-0.574D-03 0.142D-02-0.177D-02-0.236D-01-0.605D-01
 Coeff:      0.379D-02 0.261D+00 0.819D+00
 Gap=     0.170 Goal=   None    Shift=    0.000
 RMSDP=8.55D-07 MaxDP=5.44D-05 DE=-5.93D-06 OVMax= 2.52D-04

 Cycle  10  Pass 1  IDiag  1:
 RMSU=  5.99D-07    CP:  8.80D-01  3.00D+00  1.16D+00  7.60D-01  1.03D+00
                    CP:  1.03D+00  1.05D+00  1.10D+00  1.22D+00
 E= -10321.1201746997     Delta-E=       -0.000001152519 Rises=F Damp=F
 DIIS: error= 1.07D-05 at cycle  10 NSaved=  10.
 NSaved=10 IEnMin=10 EnMin= -10321.1201746997     IErMin=10 ErrMin= 1.07D-05
 ErrMax= 1.07D-05  0.00D+00 EMaxC= 1.00D-01 BMatC= 7.61D-08 BMatP= 3.96D-07
 IDIUse=1 WtCom= 1.00D+00 WtEn= 0.00D+00
 Coeff-Com:  0.279D-03-0.347D-03 0.105D-02 0.179D-02 0.274D-02-0.167D-01
 Coeff-Com: -0.521D-01-0.689D-01 0.224D+00 0.908D+00
 Coeff:      0.279D-03-0.347D-03 0.105D-02 0.179D-02 0.274D-02-0.167D-01
 Coeff:     -0.521D-01-0.689D-01 0.224D+00 0.908D+00
 Gap=     0.170 Goal=   None    Shift=    0.000
 RMSDP=4.27D-07 MaxDP=2.59D-05 DE=-1.15D-06 OVMax= 1.48D-04

 Cycle  11  Pass 1  IDiag  1:
 RMSU=  2.91D-07    CP:  8.80D-01  3.00D+00  1.16D+00  7.60D-01  1.03D+00
                    CP:  1.03D+00  1.06D+00  1.15D+00  1.37D+00  1.12D+00
 E= -10321.1201749866     Delta-E=       -0.000000286898 Rises=F Damp=F
 DIIS: error= 5.77D-06 at cycle  11 NSaved=  11.
 NSaved=11 IEnMin=11 EnMin= -10321.1201749866     IErMin=11 ErrMin= 5.77D-06
 ErrMax= 5.77D-06  0.00D+00 EMaxC= 1.00D-01 BMatC= 2.58D-08 BMatP= 7.61D-08
 IDIUse=1 WtCom= 1.00D+00 WtEn= 0.00D+00
 Coeff-Com: -0.820D-05-0.113D-03 0.302D-03 0.139D-02 0.659D-02 0.270D-02
 Coeff-Com: -0.250D-01-0.861D-01-0.733D-01 0.420D+00 0.754D+00
 Coeff:     -0.820D-05-0.113D-03 0.302D-03 0.139D-02 0.659D-02 0.270D-02
 Coeff:     -0.250D-01-0.861D-01-0.733D-01 0.420D+00 0.754D+00
 Gap=     0.170 Goal=   None    Shift=    0.000
 RMSDP=2.30D-07 MaxDP=1.42D-05 DE=-2.87D-07 OVMax= 7.69D-05

 Cycle  12  Pass 1  IDiag  1:
 RMSU=  1.57D-07    CP:  8.80D-01  3.00D+00  1.16D+00  7.60D-01  1.03D+00
                    CP:  1.03D+00  1.06D+00  1.16D+00  1.42D+00  1.30D+00
                    CP:  1.18D+00
 E= -10321.1201750715     Delta-E=       -0.000000084940 Rises=F Damp=F
 DIIS: error= 2.13D-06 at cycle  12 NSaved=  12.
 NSaved=12 IEnMin=12 EnMin= -10321.1201750715     IErMin=12 ErrMin= 2.13D-06
 ErrMax= 2.13D-06  0.00D+00 EMaxC= 1.00D-01 BMatC= 4.24D-09 BMatP= 2.58D-08
 IDIUse=1 WtCom= 1.00D+00 WtEn= 0.00D+00
 Coeff-Com: -0.487D-04 0.330D-04-0.117D-03-0.159D-03 0.966D-03 0.325D-02
 Coeff-Com:  0.540D-02-0.575D-02-0.585D-01-0.102D+00 0.136D+00 0.102D+01
 Coeff:     -0.487D-04 0.330D-04-0.117D-03-0.159D-03 0.966D-03 0.325D-02
 Coeff:      0.540D-02-0.575D-02-0.585D-01-0.102D+00 0.136D+00 0.102D+01
 Gap=     0.170 Goal=   None    Shift=    0.000
 RMSDP=1.41D-07 MaxDP=1.00D-05 DE=-8.49D-08 OVMax= 8.44D-05

 Cycle  13  Pass 1  IDiag  1:
 RMSU=  7.12D-08    CP:  8.80D-01  3.00D+00  1.16D+00  7.60D-01  1.03D+00
                    CP:  1.03D+00  1.07D+00  1.17D+00  1.44D+00  1.38D+00
                    CP:  1.49D+00  1.31D+00
 E= -10321.1201750966     Delta-E=       -0.000000025058 Rises=F Damp=F
 DIIS: error= 1.66D-06 at cycle  13 NSaved=  13.
 NSaved=13 IEnMin=13 EnMin= -10321.1201750966     IErMin=13 ErrMin= 1.66D-06
 ErrMax= 1.66D-06  0.00D+00 EMaxC= 1.00D-01 BMatC= 2.09D-09 BMatP= 4.24D-09
 IDIUse=1 WtCom= 1.00D+00 WtEn= 0.00D+00
 Coeff-Com: -0.688D-05 0.284D-04-0.140D-03-0.570D-03-0.143D-02 0.758D-03
 Coeff-Com:  0.105D-01 0.212D-01-0.215D-02-0.169D+00-0.167D+00 0.511D+00
 Coeff-Com:  0.797D+00
 Coeff:     -0.688D-05 0.284D-04-0.140D-03-0.570D-03-0.143D-02 0.758D-03
 Coeff:      0.105D-01 0.212D-01-0.215D-02-0.169D+00-0.167D+00 0.511D+00
 Coeff:      0.797D+00
 Gap=     0.170 Goal=   None    Shift=    0.000
 RMSDP=8.28D-08 MaxDP=5.87D-06 DE=-2.51D-08 OVMax= 5.41D-05

 Cycle  14  Pass 1  IDiag  1:
 RMSU=  4.26D-08    CP:  8.80D-01  3.00D+00  1.16D+00  7.60D-01  1.03D+00
                    CP:  1.03D+00  1.07D+00  1.17D+00  1.44D+00  1.41D+00
                    CP:  1.62D+00  1.59D+00  1.36D+00
 E= -10321.1201751059     Delta-E=       -0.000000009350 Rises=F Damp=F
 DIIS: error= 1.24D-06 at cycle  14 NSaved=  14.
 NSaved=14 IEnMin=14 EnMin= -10321.1201751059     IErMin=14 ErrMin= 1.24D-06
 ErrMax= 1.24D-06  0.00D+00 EMaxC= 1.00D-01 BMatC= 4.84D-10 BMatP= 2.09D-09
 IDIUse=1 WtCom= 1.00D+00 WtEn= 0.00D+00
 Coeff-Com:  0.300D-04-0.342D-04 0.306D-04-0.584D-04-0.238D-03-0.694D-03
 Coeff-Com:  0.121D-04 0.720D-03 0.169D-01 0.122D-01-0.556D-01-0.171D+00
 Coeff-Com:  0.222D-01 0.118D+01
 Coeff:      0.300D-04-0.342D-04 0.306D-04-0.584D-04-0.238D-03-0.694D-03
 Coeff:      0.121D-04 0.720D-03 0.169D-01 0.122D-01-0.556D-01-0.171D+00
 Coeff:      0.222D-01 0.118D+01
 Gap=     0.170 Goal=   None    Shift=    0.000
 RMSDP=6.11D-08 MaxDP=5.21D-06 DE=-9.35D-09 OVMax= 4.96D-05

 Cycle  15  Pass 1  IDiag  1:
 RMSU=  2.11D-08    CP:  8.80D-01  3.00D+00  1.16D+00  7.60D-01  1.03D+00
                    CP:  1.03D+00  1.07D+00  1.17D+00  1.45D+00  1.42D+00
                    CP:  1.69D+00  1.73D+00  1.85D+00  1.73D+00
 E= -10321.1201751101     Delta-E=       -0.000000004176 Rises=F Damp=F
 DIIS: error= 8.52D-07 at cycle  15 NSaved=  15.
 NSaved=15 IEnMin=15 EnMin= -10321.1201751101     IErMin=15 ErrMin= 8.52D-07
 ErrMax= 8.52D-07  0.00D+00 EMaxC= 1.00D-01 BMatC= 2.29D-10 BMatP= 4.84D-10
 IDIUse=1 WtCom= 1.00D+00 WtEn= 0.00D+00
 Coeff-Com:  0.611D-05-0.121D-04 0.559D-04 0.159D-03 0.552D-03-0.421D-03
 Coeff-Com: -0.318D-02-0.903D-02 0.587D-02 0.632D-01 0.416D-01-0.219D+00
 Coeff-Com: -0.314D+00 0.427D+00 0.101D+01
 Coeff:      0.611D-05-0.121D-04 0.559D-04 0.159D-03 0.552D-03-0.421D-03
 Coeff:     -0.318D-02-0.903D-02 0.587D-02 0.632D-01 0.416D-01-0.219D+00
 Coeff:     -0.314D+00 0.427D+00 0.101D+01
 Gap=     0.170 Goal=   None    Shift=    0.000
 RMSDP=4.72D-08 MaxDP=3.99D-06 DE=-4.18D-09 OVMax= 3.96D-05

 Cycle  16  Pass 1  IDiag  1:
 RMSU=  1.39D-08    CP:  8.80D-01  3.00D+00  1.16D+00  7.60D-01  1.03D+00
                    CP:  1.03D+00  1.07D+00  1.17D+00  1.45D+00  1.43D+00
                    CP:  1.73D+00  1.83D+00  2.20D+00  2.35D+00  1.67D+00
 E= -10321.1201751115     Delta-E=       -0.000000001390 Rises=F Damp=F
 DIIS: error= 5.66D-07 at cycle  16 NSaved=  16.
 NSaved=16 IEnMin=16 EnMin= -10321.1201751115     IErMin=16 ErrMin= 5.66D-07
 ErrMax= 5.66D-07  0.00D+00 EMaxC= 1.00D-01 BMatC= 8.08D-11 BMatP= 2.29D-10
 IDIUse=1 WtCom= 1.00D+00 WtEn= 0.00D+00
 Coeff-Com: -0.109D-04 0.118D-04-0.266D-05 0.332D-04 0.179D-03 0.165D-04
 Coeff-Com:  0.837D-04-0.209D-02-0.491D-02 0.204D-02 0.270D-01 0.561D-01
 Coeff-Com: -0.783D-01-0.424D+00 0.690D-02 0.142D+01
 Coeff:     -0.109D-04 0.118D-04-0.266D-05 0.332D-04 0.179D-03 0.165D-04
 Coeff:      0.837D-04-0.209D-02-0.491D-02 0.204D-02 0.270D-01 0.561D-01
 Coeff:     -0.783D-01-0.424D+00 0.690D-02 0.142D+01
 Gap=     0.170 Goal=   None    Shift=    0.000
 RMSDP=4.58D-08 MaxDP=4.05D-06 DE=-1.39D-09 OVMax= 3.99D-05

 Cycle  17  Pass 1  IDiag  1:
 RMSU=  7.73D-09    CP:  8.80D-01  3.00D+00  1.16D+00  7.60D-01  1.03D+00
                    CP:  1.03D+00  1.07D+00  1.17D+00  1.46D+00  1.44D+00
                    CP:  1.77D+00  1.92D+00  2.50D+00  2.91D+00  2.64D+00
                    CP:  1.98D+00
 E= -10321.1201751138     Delta-E=       -0.000000002321 Rises=F Damp=F
 DIIS: error= 2.67D-07 at cycle  17 NSaved=  17.
 NSaved=17 IEnMin=17 EnMin= -10321.1201751138     IErMin=17 ErrMin= 2.67D-07
 ErrMax= 2.67D-07  0.00D+00 EMaxC= 1.00D-01 BMatC= 3.03D-11 BMatP= 8.08D-11
 IDIUse=1 WtCom= 1.00D+00 WtEn= 0.00D+00
 Coeff-Com: -0.382D-05 0.515D-05-0.200D-04-0.471D-04-0.145D-03 0.717D-04
 Coeff-Com:  0.143D-02 0.219D-02-0.371D-02-0.229D-01-0.715D-02 0.107D+00
 Coeff-Com:  0.855D-01-0.298D+00-0.452D+00 0.550D+00 0.104D+01
 Coeff:     -0.382D-05 0.515D-05-0.200D-04-0.471D-04-0.145D-03 0.717D-04
 Coeff:      0.143D-02 0.219D-02-0.371D-02-0.229D-01-0.715D-02 0.107D+00
 Coeff:      0.855D-01-0.298D+00-0.452D+00 0.550D+00 0.104D+01
 Gap=     0.170 Goal=   None    Shift=    0.000
 RMSDP=2.78D-08 MaxDP=2.36D-06 DE=-2.32D-09 OVMax= 2.39D-05

 Cycle  18  Pass 1  IDiag  1:
 RMSU=  1.22D-08    CP:  8.80D-01  3.00D+00  1.16D+00  7.60D-01  1.03D+00
                    CP:  1.03D+00  1.07D+00  1.17D+00  1.46D+00  1.45D+00
                    CP:  1.80D+00  1.97D+00  2.65D+00  3.00D+00  3.00D+00
                    CP:  2.73D+00  1.49D+00
 E= -10321.1201751134     Delta-E=        0.000000000466 Rises=F Damp=F
 DIIS: error= 8.75D-08 at cycle  18 NSaved=  18.
 NSaved=18 IEnMin=17 EnMin= -10321.1201751138     IErMin=18 ErrMin= 8.75D-08
 ErrMax= 8.75D-08  0.00D+00 EMaxC= 1.00D-01 BMatC= 4.85D-12 BMatP= 3.03D-11
 IDIUse=1 WtCom= 1.00D+00 WtEn= 0.00D+00
 Coeff-Com:  0.259D-05-0.262D-05-0.553D-05-0.235D-04-0.108D-03-0.178D-04
 Coeff-Com:  0.583D-03 0.128D-02 0.470D-03-0.755D-02-0.110D-01 0.182D-01
 Coeff-Com:  0.515D-01 0.395D-01-0.178D+00-0.229D+00 0.343D+00 0.971D+00
 Coeff:      0.259D-05-0.262D-05-0.553D-05-0.235D-04-0.108D-03-0.178D-04
 Coeff:      0.583D-03 0.128D-02 0.470D-03-0.755D-02-0.110D-01 0.182D-01
 Coeff:      0.515D-01 0.395D-01-0.178D+00-0.229D+00 0.343D+00 0.971D+00
 Gap=     0.170 Goal=   None    Shift=    0.000
 RMSDP=1.10D-08 MaxDP=9.78D-07 DE= 4.66D-10 OVMax= 9.48D-06

 Cycle  19  Pass 1  IDiag  1:
 RMSU=  3.05D-09    CP:  8.80D-01  3.00D+00  1.16D+00  7.60D-01  1.03D+00
                    CP:  1.03D+00  1.07D+00  1.17D+00  1.46D+00  1.45D+00
                    CP:  1.81D+00  1.99D+00  2.72D+00  3.00D+00  3.00D+00
                    CP:  3.00D+00  1.88D+00  1.53D+00
 E= -10321.1201751141     Delta-E=       -0.000000000742 Rises=F Damp=F
 DIIS: error= 2.00D-08 at cycle  19 NSaved=  19.
 NSaved=19 IEnMin=19 EnMin= -10321.1201751141     IErMin=19 ErrMin= 2.00D-08
 ErrMax= 2.00D-08  0.00D+00 EMaxC= 1.00D-01 BMatC= 5.82D-13 BMatP= 4.85D-12
 IDIUse=1 WtCom= 1.00D+00 WtEn= 0.00D+00
 Coeff-Com:  0.930D-06-0.101D-05 0.560D-06-0.218D-06-0.137D-04-0.234D-04
 Coeff-Com:  0.336D-04 0.125D-03 0.411D-03 0.176D-03-0.231D-02-0.683D-02
 Coeff-Com:  0.628D-02 0.454D-01-0.986D-02-0.112D+00-0.258D-01 0.270D+00
 Coeff-Com:  0.834D+00
 Coeff:      0.930D-06-0.101D-05 0.560D-06-0.218D-06-0.137D-04-0.234D-04
 Coeff:      0.336D-04 0.125D-03 0.411D-03 0.176D-03-0.231D-02-0.683D-02
 Coeff:      0.628D-02 0.454D-01-0.986D-02-0.112D+00-0.258D-01 0.270D+00
 Coeff:      0.834D+00
 Gap=     0.170 Goal=   None    Shift=    0.000
 RMSDP=1.89D-09 MaxDP=1.37D-07 DE=-7.42D-10 OVMax= 1.48D-06

 SCF Done:  E(RLC-B+HF-LYP) =  -10321.1201751     A.U. after   19 cycles
            NFock= 19  Conv=0.19D-08     -V/T= 2.0056
 KE= 1.026335781573D+04 PE=-9.398155961277D+04 EE= 3.858385740394D+04
 Leave Link  502 at Tue Oct 21 00:59:25 2025, MaxMem=  2147483648 cpu:     10190.2
 (Enter /opt/g09/l601.exe)
 Copying SCF densities to generalized density rwf, IOpCl= 0 IROHF=0.
 Hyperfine terms turned off by default for NAtoms > 100.

 **********************************************************************

            Population analysis using the SCF density.

 **********************************************************************

 Orbital symmetries:
       Occupied  (AG) (AG) (BU) (AG) (BU) (AG) (AG) (BU) (BU) (BU)
                 (AG) (AU) (BU) (BG) (AU) (AG) (BU) (BU) (AG) (BG)
                 (AU) (BU) (AG) (AG) (BU) (AU) (AG) (AG) (BU) (BG)
                 (AU) (BU) (AG) (AU) (BG) (AG) (BG) (AU) (BU) (BG)
                 (AU) (BU) (AG) (BG) (AU) (BG) (AU) (BU) (AG) (AG)
                 (BU) (AU) (AG) (BG) (BU) (AU) (BG) (AG) (BU) (BG)
                 (BU) (AG) (AU) (BG) (AU) (BU) (AG) (BU) (AG) (BG)
                 (AU) (BG) (AU) (BU) (AG) (AU) (AG) (BG) (BU) (BG)
                 (AU) (AG) (BU) (AU) (AG) (BG) (BU) (BU) (AG) (BG)
                 (AU) (AU) (AG) (BG) (BU) (BG) (AU) (BG) (BU) (AU)
                 (AG) (BU) (AG) (AG) (BU) (BG) (AU) (AU) (AG) (BG)
                 (BU) (AU) (AG) (BG) (BU) (BG) (BU) (AU) (AG) (AG)
                 (BU) (BG) (AU) (BU) (AG) (BG) (AU) (BU) (AG) (BG)
                 (AU) (AU) (AG) (BG) (BU) (AG) (BU) (AG) (AG) (BU)
                 (BU) (BU) (AG) (AU) (BG) (BU) (AU) (AG) (BU) (AG)
                 (BU) (AU) (AG) (BG) (BU) (AU) (AG) (BU) (AG) (BG)
                 (AU) (BG) (BU) (AG) (AU) (BG) (AU) (BU) (AG) (BU)
                 (AG) (BU) (AG) (AU) (AG) (BG) (BU) (AG) (BU) (BU)
                 (AG) (AU) (AG) (BG) (AU) (BG) (AG) (BU) (AG) (AU)
                 (BU) (BG) (AG) (BU) (AU) (AU) (BG) (BU) (AG) (BU)
                 (AG) (BU) (AU) (BG) (AG) (AU) (BG) (BG) (AU) (BG)
                 (BU) (AU) (BG) (AG) (AU) (BU) (AG) (AG) (BU) (BU)
                 (AG) (AG) (AU) (BU) (AG) (BG) (BU) (AU) (BG) (AU)
                 (AG) (BU) (BG) (AG) (AU) (BG) (BG) (AU) (BU) (AG)
                 (BG) (AU) (BU) (BG) (AU) (BG) (AG) (BU) (AG) (BU)
                 (AG) (BG) (AU) (AU) (BU) (BU) (AG) (AG) (BG) (AU)
                 (BU) (AG) (AU) (BU) (BU) (BG) (AU) (BG) (BG) (AG)
                 (AU) (BU) (AG) (BG) (BU) (AG) (AG) (AG) (BG) (AG)
                 (BU) (AU) (AU) (BG) (BU) (AG) (AG) (AU) (BU) (BG)
                 (BU) (AG) (AU) (BG) (BU) (BU) (AU) (AG) (AG) (BG)
                 (BU) (AG) (BG) (AU) (BG) (BU) (AG) (AU) (BG) (BU)
                 (AG) (BG) (AU) (BU) (AG) (BU) (AG) (AG) (AU) (BG)
                 (BG) (AG) (BU) (AU) (BU) (AU) (BG) (BG) (AG) (AU)
                 (BG) (BG) (BU) (AG) (BG) (AU) (BU) (AU) (BU) (AG)
                 (BU) (AG) (AG) (BU) (AU) (AG) (BG) (BG) (BU) (AU)
                 (AG) (AU) (BU) (AG) (BG) (AU) (BG) (BU) (AG) (AG)
                 (BU) (AU) (BG) (AU) (BU) (BU) (AG) (BU) (AU) (BG)
                 (BG) (AU) (BG) (BU) (BG) (AU) (AG) (BU) (AG) (AG)
                 (BU) (AG) (BU) (AU) (BG) (BU) (AG) (AU) (BU) (AG)
                 (BG) (AG) (AU) (BU) (AG) (BG) (BU) (AG) (AG) (AU)
                 (BU) (BG) (AG) (AU) (BU) (AU) (BG) (AU) (BG) (AU)
                 (BG) (BU) (BG) (AG) (AU) (BU) (BG) (AG) (AU) (BG)
                 (AG) (BU) (BU) (AG) (AG) (BU) (AG) (AU) (BU) (AG)
                 (AU) (BG) (BU) (AG) (AG) (BG) (BU) (BU) (AU) (BG)
                 (AU)
       Virtual   (AG) (BG) (AU) (BU) (BG) (AG) (AU) (BG) (AU) (BU)
                 (BU) (AG) (BU) (AG) (BG) (AG) (BU) (AU) (BU) (AG)
                 (BG) (AG) (AU) (BU) (BG) (BG) (AG) (AU) (BU) (AU)
                 (AG) (BG) (AG) (AG) (AU) (BU) (BU) (AG) (BU) (AG)
                 (BU) (BG) (BU) (AG) (AU) (BG) (BU) (AU) (BG) (AU)
                 (AG) (BU) (AU) (BU) (AG) (BU) (AU) (AG) (BG) (AG)
                 (BG) (BU) (AU) (BG) (AG) (BU) (AU) (BG) (BU) (AG)
                 (AU) (BG) (AG) (BG) (AU) (AG) (BU) (AU) (BG) (AG)
                 (BG) (AU) (BU) (AG) (AU) (BU) (BG) (AG) (BU) (AG)
                 (BU) (AU) (BG) (AG) (BU) (AU) (BG) (AG) (BU) (BG)
                 (AG) (AU) (BG) (BU) (AU) (BU) (BG) (AG) (AU) (BG)
                 (AU) (AU) (BG) (BU) (AU) (AG) (BG) (AG) (AU) (BG)
                 (AU) (BU) (BG) (AG) (BU) (AG) (AU) (BG) (AU) (AG)
                 (BU) (AU) (BG) (AG) (BU) (AG) (BU) (BG) (AG) (BU)
                 (AU) (BG) (BU) (AU) (BG) (AG) (BG) (AU) (BU) (BG)
                 (AU) (AG) (AU) (BG) (BU) (AG) (BU) (AU) (BU) (BG)
                 (AU) (BG) (AG) (BU) (AU) (BG) (AG) (BU) (BG) (AG)
                 (AU) (BU) (AG) (AU) (BU) (AG) (AU) (BU) (BG) (AG)
                 (BU) (AU) (BG) (AG) (BU) (AG) (BG) (BU) (AG) (AG)
                 (AU) (BU) (AU) (AG) (BU) (BG) (AG) (AG) (AU) (AG)
                 (BU) (BU) (AG) (BG) (AG) (BU) (AU) (AU) (BU) (BG)
                 (BU) (AG) (BG) (BG) (AG) (BU) (AU) (AU) (AU) (AG)
                 (BG) (BU) (AG) (BU) (AG) (BU) (BG) (AG) (AU) (BU)
                 (AU) (BG) (BG) (AU) (AG) (BU) (AU) (BG) (AG) (AU)
                 (AG) (BG) (BU) (BG) (BU) (AG) (BU) (AU) (BU) (BG)
                 (AU) (AG) (BG) (AU) (AG) (BG) (AG) (BU) (BU) (BU)
                 (AU) (AG) (BG) (AG) (BU) (BG) (BG) (AU) (AU) (BU)
                 (AG) (AU) (BG) (AG) (BU) (AG) (AU) (BG) (BU) (AG)
                 (BG) (AU) (BU) (AG) (BU) (AU) (BG) (BG) (AU) (AG)
                 (BU) (AG) (BU) (BG) (AU) (BG) (BU) (AU) (AU) (AG)
                 (BG) (AG) (BU) (AU) (BG) (BU) (AU) (AG) (BU) (BG)
                 (AU) (AG) (BU) (BU) (BG) (AU) (AG) (BG) (BG) (BU)
                 (AG) (BG) (AU) (AG) (AU) (BU) (AG) (BG) (BU) (BG)
                 (AU) (AU) (BG) (BU) (AG) (AU) (BG) (AU) (BG) (AG)
                 (BU) (BU) (AG) (AU) (AG) (BG) (BU) (BG) (AU) (AU)
                 (BU) (BG) (AU) (BU) (AU) (BG) (BU) (AG) (AG) (AG)
                 (BG) (AU) (BG) (BU) (BG) (AU) (AG) (AU) (AG) (BU)
                 (BU) (AG) (BG) (AU) (BU) (BG) (BG) (AG) (BU) (AU)
                 (BU) (BG) (AG) (AU) (AU) (AG) (BG) (AU) (BU) (BG)
                 (AG) (BU) (AU) (BU) (AG) (BG) (AG) (BU) (AU) (BG)
                 (BU) (AG) (AU) (AG) (BG) (BG) (BU) (BU) (AG) (AU)
                 (AG) (BG) (AU) (BU) (BG) (AU) (AG) (AU) (BG) (BU)
                 (AG) (BG) (AU) (BU) (BG) (AU) (BU) (AG) (AG) (AU)
                 (BU) (BG) (BU) (AG) (AU) (AG) (BG) (AG) (AU) (BU)
                 (BU) (BG) (AU) (BU) (AG) (AU) (BG) (AU) (AG) (BG)
                 (BU) (AG) (BG) (BU) (AU) (AG) (BG) (BU) (AG) (AU)
                 (BG) (AU) (AG) (BG) (BU) (AU) (AG) (BG) (BU) (BU)
                 (BG) (AU) (BU) (AU) (BG) (AG) (AG) (AU) (AU) (BG)
                 (AG) (BU) (BG) (AG) (AU) (BU) (BU) (AG) (BG) (AG)
                 (AU) (AG) (AU) (BU) (BG) (BU) (AU) (BG) (AG) (BU)
                 (BG) (BU) (AU) (AG) (BU) (BG) (AU) (AU) (BG) (AG)
                 (AU) (BG) (BG) (BU) (AG) (AU) (BG) (BU) (BU) (AG)
                 (BG) (AU) (BG) (AU) (AG) (AU) (AG) (BG) (BU) (AU)
                 (AG) (BG) (BU) (AG) (BU) (AU) (BU) (BG) (AU) (AG)
                 (BG) (AG) (BU) (AU) (AG) (BG) (AG) (AU) (BU) (BG)
                 (BU) (BU) (AU) (BG) (AG) (AG) (BU) (BG) (AU) (AG)
                 (AU) (BU) (AG) (BG) (BU) (AU) (BG) (AU) (BG) (AG)
                 (BU) (AU) (BG) (AU) (AG) (BU) (BG) (AG) (BG) (BG)
                 (AG) (AU) (BU) (AU) (BU) (BU) (BG) (AU) (AG) (BU)
                 (AG) (AU) (BG) (AU) (AG) (BG) (AU) (BU) (BG) (AU)
                 (BU) (BG) (BU) (AG) (BG) (BG) (AU) (BU) (AG) (BG)
                 (AU) (AG) (BU) (AG) (AG) (BU) (AU) (AU) (BU) (BG)
                 (BU) (AG) (AG) (BU) (AU) (AG) (BG) (BU) (AU) (BU)
                 (AG) (BG) (AU) (BU) (BG) (AG) (AU) (BG) (AU) (AG)
                 (BU) (BG) (BU) (AU) (BG) (AG) (BG) (AG) (BU) (AU)
                 (BU) (BG) (AG) (BU) (AU) (AG) (BG) (BU) (BU) (AU)
                 (AU) (AG) (BG) (BU) (AG) (BG) (BU) (AG) (AU) (BG)
                 (AG) (AG) (AU) (BG) (BU) (AU) (BG) (AU) (BG) (BG)
                 (BU) (BG) (AG) (BU) (AG) (AU) (AG) (BU) (AU) (BG)
                 (AU) (AG) (BU) (BU) (AG) (BU) (AU) (BG) (AG) (AU)
                 (BG) (BU) (AG) (BU) (AU) (AG) (BU) (AG) (BU) (AG)
                 (BG) (AG) (BU) (BG) (AU) (AG) (BG) (AU) (BU) (AG)
                 (BU) (AG) (AG) (BU) (AU) (BG) (AG) (BU) (BG) (BU)
                 (BU) (AG) (BU) (BG) (AG) (AG) (BU) (AU) (BG) (AU)
                 (BU) (BG) (BU) (AG) (AU) (BG) (AG) (BU) (AG) (BU)
                 (AU) (AG) (BG) (BU) (AU) (AU) (BU) (AG) (BU) (BG)
                 (BG) (AG) (AU) (AU) (BG) (AG) (AG) (BG) (BU) (AU)
                 (BG) (BU) (AG) (AU) (BG) (BU) (AG) (BG) (AG) (AU)
                 (BG) (AU) (AU) (BU) (BG) (AU) (BU) (AG) (BG) (AU)
                 (AG) (AU) (AG) (BU) (BG) (BU) (AG) (AU) (AG) (BG)
                 (BU) (BG) (BU) (AG) (AU) (BG) (BU) (AG) (AG) (AU)
                 (BG) (BU) (AG) (BU) (AU) (BG) (AU) (AG) (BG) (AU)
                 (BU) (BG) (AU) (AG) (BG) (AU) (BU) (BG) (BG) (AG)
                 (AU) (BU) (BG) (AU) (BU) (AU) (AG) (BU) (AG) (BU)
                 (BG) (BG) (BU) (AU) (AG) (BU) (AG) (AU) (BG) (BU)
                 (BU) (BG) (AU) (BG) (AG) (AU) (BU) (BG) (BU) (AU)
                 (AG) (BU) (BG) (AU) (AG) (AU) (BG) (AG) (BU) (AG)
                 (BG) (BG) (AU) (AU) (AG) (BG) (BU) (AU) (BG) (BU)
                 (AG) (AU) (AU) (BU) (AG) (BU) (AU) (AG) (AG) (BU)
                 (AG) (AG) (AU) (BU) (BU) (AG) (BG) (AU) (AG) (BU)
                 (BG) (AG) (BG) (BU) (AG) (BU) (BG) (AG) (BU) (AU)
                 (AG) (BU) (AU) (BG) (AG) (BG) (BU) (AU) (AG) (BG)
                 (AU) (AU) (AG) (BG) (AG) (AU) (BG) (AU) (BG) (AG)
                 (BU) (AU) (BG) (BU) (AG) (AG) (BU) (AU) (BG) (BU)
                 (BU) (BG) (AU) (BU) (AG) (AG) (BG) (AU) (BU) (BU)
                 (AU) (AG) (BG) (AG) (BU) (BG) (AU) (BG) (AG) (AU)
                 (BU) (AG) (BU) (AU) (BU) (AU) (BG) (AG) (BG) (AG)
                 (AU) (AG) (BG) (BU) (BU) (AG) (AU) (BG) (AG) (AU)
                 (BU) (BU) (AG) (BG) (AU) (BG) (AG) (BU) (BG) (BU)
                 (AU) (AG) (AU) (BU) (BG) (AG) (BU) (AG) (AU) (BG)
                 (AU) (AG) (BU) (BG) (AU) (AG) (BG) (BU) (AU) (AG)
                 (BG) (AU) (BG) (AU) (BU) (BG) (AG) (BU) (BU) (AU)
                 (AG) (BG) (AG) (BU) (AG) (AU) (BG) (AU) (BU) (AG)
                 (AU) (BG) (BU) (BG) (AU) (AG) (BG) (BU) (AU) (AG)
                 (BU) (AG) (BU) (BU) (AU) (AG) (BG) (AU) (AG) (BU)
                 (BG) (AG) (BU) (BG) (AU) (BU) (AG) (BG) (AG) (AU)
                 (BU) (AG) (AG) (BG) (AU) (BU) (BU) (AG) (BG) (BU)
                 (AU) (AG) (BU) (AU) (AG) (BU) (AU) (BG) (AU) (AG)
                 (BU) (BG) (BG) (BU) (AG) (AG) (BG) (AU) (AG) (BG)
                 (AU) (BG) (BU) (BU) (AG) (BU) (AG) (AU) (AU) (AG)
                 (BU) (BG) (BU) (AG) (AU) (BG) (AG) (BU) (AG) (AU)
                 (BG) (BU) (BG) (AU) (BU) (BG) (AG) (AU) (BU) (AG)
                 (BG) (AU) (BG) (AU) (BU) (BG) (BG) (BU) (AU) (AG)
                 (AU) (BG) (AG) (BU) (BG) (AU) (AG) (AU) (AG) (BU)
                 (BU) (BG) (AU) (AG) (BG) (AU) (BU) (BG) (BU) (AU)
                 (BG) (BU) (AG) (BG) (BU) (AG) (AU) (BU) (BG) (AG)
                 (AU) (BG) (BU) (AU) (AG) (AU) (BG) (AG) (BU) (BU)
                 (AU) (BG) (AG) (AU) (BG) (BG) (AU) (AG) (BG) (BU)
                 (AU) (BU) (BG) (AU) (AG) (AU) (BG) (BU) (AU) (AG)
                 (BU) (AG) (AU) (BG) (BU) (AG) (AU) (BG) (BG) (AG)
                 (BU) (BG) (AG) (AU) (AG) (BU) (AU) (BU) (BG) (AU)
                 (BG) (AG) (BU) (AU) (BG) (AG) (AG) (AU) (BU) (AG)
                 (BU) (AU) (BG) (AG) (BG) (AU) (AG) (BU) (BG) (AU)
                 (BU) (AG) (BU) (AU) (BG) (BG) (AU) (BU) (AG) (BU)
                 (AG) (BG) (BU) (AU) (AG) (BG) (BU) (AG) (AU) (BU)
                 (BG) (AG) (AU) (BG) (BG) (AU) (BU) (BG) (AG) (BU)
                 (BU) (AU) (BG) (AG) (AG) (BU) (BU) (BG) (AU) (AG)
                 (BG) (AG) (BU) (AG) (BU) (AU) (AG) (BG) (AU) (BU)
                 (AU) (AG) (BG) (BU) (BG) (AU) (AG) (AU) (AG) (AU)
                 (BU) (BG) (BG) (AG) (AU) (BG) (BU) (AU) (BG) (AU)
                 (AU) (BU) (BG) (BU) (AG) (AU) (AG) (BG) (BG) (AG)
                 (BG) (AU) (BU) (AU) (BG) (AG) (AU) (BU) (BG) (AG)
                 (BG) (AU) (BU) (AG) (AG) (BU) (AU) (AG) (AU) (BU)
                 (AG) (AG) (BU) (AU) (BG) (BU) (AG) (BG) (AU) (AG)
                 (BG) (AU) (BU) (AU) (BG) (BU) (AG) (AU) (AG) (BG)
                 (AU) (BG) (AU) (BU) (AU) (AU) (BG) (BG) (BG) (BU)
                 (AU) (BG) (BG) (AG) (BU) (AG) (AU) (BU) (AU) (BG)
                 (AG) (BU) (AG) (AU) (BG) (BG) (AG) (BU) (AU) (BG)
                 (AG) (BU) (AU) (AU) (BU) (BG) (AG) (BU) (BG) (AG)
                 (AU) (AG) (AU) (AG) (BU) (AG) (BU) (AU) (BU) (AG)
                 (BG) (AG) (BU) (AG) (AU) (BU) (BU) (BG) (AG) (BG)
                 (AU) (AG) (BU) (AU) (BU) (BG) (AU) (BG) (AG) (AU)
                 (AG) (AU) (BU) (BG) (AU) (BG) (AU) (BU) (BG) (AU)
                 (AG) (BU) (AU) (BU) (BG) (AG) (BG) (AG) (AG) (BU)
                 (AG) (BU) (BG) (BG) (BU) (AU) (AG) (AU) (BG) (AG)
                 (AU) (BG) (BU) (AU) (BG) (AG) (BU) (BU) (AU) (BG)
                 (BG) (AU) (AG) (AG) (BG) (AU) (BU) (AU) (BG) (BG)
                 (BU) (BG) (AU) (AG) (AU) (BU) (BG) (AU) (BG) (BU)
                 (AG) (AG) (BU) (AG) (BG) (AU) (BU) (AU) (BU) (AG)
                 (AU) (BG) (AG) (BG) (BU) (AG) (AU) (BG) (BU) (BU)
                 (AU) (AG) (AG) (BG) (AU) (BU) (AG) (AU) (BG) (BU)
                 (AU) (BG) (AU) (BG) (BG) (BU) (BG) (AU) (AG) (AU)
                 (BU) (BU) (AG) (AG) (BU) (AG) (AG) (BG) (AU) (BG)
                 (BG) (AU) (BG) (BU) (AU) (AG) (BG) (BU) (AU) (AU)
                 (BG) (BG) (BU) (AG) (AU) (BG) (AU) (BU) (AU) (BG)
                 (BG) (BU) (AG) (BU) (AU) (BG) (AU) (BU) (AG) (BU)
                 (AG) (BU) (AU) (BG) (BU) (AU) (BU) (AG) (AU) (BG)
                 (BU) (AU)
 The electronic state is 1-AG.
 Alpha  occ. eigenvalues -- -346.00172-346.00100-346.00100 -41.88242 -41.88239
 Alpha  occ. eigenvalues --  -41.88235 -36.97935 -36.97933 -36.97925 -36.97151
 Alpha  occ. eigenvalues --  -36.97148 -36.97147 -36.97147 -36.97145 -36.97145
 Alpha  occ. eigenvalues --  -14.23350 -14.23350 -14.23187 -14.23183 -14.23113
 Alpha  occ. eigenvalues --  -14.23113 -14.23109 -14.23109 -14.23068 -14.23068
 Alpha  occ. eigenvalues --  -14.22993 -14.22990 -14.22225 -14.22225 -14.22224
 Alpha  occ. eigenvalues --  -14.22223 -14.22161 -14.22161 -14.22161 -14.22161
 Alpha  occ. eigenvalues --  -14.22092 -14.22092 -14.22091 -14.22091 -10.19947
 Alpha  occ. eigenvalues --  -10.19947 -10.19936 -10.19936 -10.19920 -10.19920
 Alpha  occ. eigenvalues --  -10.19914 -10.19914 -10.19914 -10.19914 -10.19911
 Alpha  occ. eigenvalues --  -10.19910 -10.19881 -10.19881 -10.19881 -10.19880
 Alpha  occ. eigenvalues --  -10.19841 -10.19841 -10.19832 -10.19830 -10.19784
 Alpha  occ. eigenvalues --  -10.19783 -10.19773 -10.19773 -10.13276 -10.13276
 Alpha  occ. eigenvalues --  -10.13261 -10.13261 -10.13168 -10.13168 -10.13154
 Alpha  occ. eigenvalues --  -10.13154 -10.13057 -10.13057 -10.13056 -10.13056
 Alpha  occ. eigenvalues --  -10.12894 -10.12894 -10.12894 -10.12893 -10.12890
 Alpha  occ. eigenvalues --  -10.12890 -10.12887 -10.12887 -10.12885 -10.12885
 Alpha  occ. eigenvalues --  -10.12885 -10.12885 -10.12874 -10.12874 -10.12870
 Alpha  occ. eigenvalues --  -10.12870 -10.12836 -10.12836 -10.12836 -10.12836
 Alpha  occ. eigenvalues --  -10.12788 -10.12788 -10.12788 -10.12788 -10.12779
 Alpha  occ. eigenvalues --  -10.12779 -10.12774 -10.12774 -10.12758 -10.12758
 Alpha  occ. eigenvalues --  -10.12743 -10.12743 -10.12727 -10.12727 -10.12717
 Alpha  occ. eigenvalues --  -10.12717 -10.12716 -10.12716 -10.12709 -10.12709
 Alpha  occ. eigenvalues --  -10.12700 -10.12700 -10.12700 -10.12700 -10.12649
 Alpha  occ. eigenvalues --  -10.12649 -10.12634 -10.12634 -10.12634 -10.12634
 Alpha  occ. eigenvalues --  -10.12615 -10.12615 -10.12595 -10.12595 -10.12580
 Alpha  occ. eigenvalues --  -10.12580 -10.12540 -10.12539 -10.12522 -10.12522
 Alpha  occ. eigenvalues --   -4.80255  -4.80255  -4.80167  -3.24911  -3.24911
 Alpha  occ. eigenvalues --   -3.24823  -3.23604  -3.23604  -3.23595  -3.23595
 Alpha  occ. eigenvalues --   -3.23514  -3.23499  -1.14490  -1.14286  -1.13966
 Alpha  occ. eigenvalues --   -1.12936  -1.12917  -1.12804  -1.12742  -1.12594
 Alpha  occ. eigenvalues --   -1.12419  -1.10058  -1.09963  -1.09757  -1.07486
 Alpha  occ. eigenvalues --   -1.07427  -1.07245  -1.03301  -1.03253  -1.03245
 Alpha  occ. eigenvalues --   -1.03236  -1.03101  -1.03085  -1.00235  -1.00157
 Alpha  occ. eigenvalues --   -0.99944  -0.99197  -0.99185  -0.99128  -0.98958
 Alpha  occ. eigenvalues --   -0.98944  -0.98931  -0.98815  -0.98756  -0.98664
 Alpha  occ. eigenvalues --   -0.98599  -0.98565  -0.98485  -0.90682  -0.90619
 Alpha  occ. eigenvalues --   -0.90403  -0.89481  -0.89429  -0.89264  -0.89221
 Alpha  occ. eigenvalues --   -0.89074  -0.89072  -0.89036  -0.88906  -0.88885
 Alpha  occ. eigenvalues --   -0.88749  -0.88744  -0.88717  -0.88711  -0.88515
 Alpha  occ. eigenvalues --   -0.88505  -0.88487  -0.88430  -0.88349  -0.88318
 Alpha  occ. eigenvalues --   -0.88271  -0.88097  -0.84793  -0.84787  -0.84642
 Alpha  occ. eigenvalues --   -0.82095  -0.82092  -0.82083  -0.82061  -0.81950
 Alpha  occ. eigenvalues --   -0.81881  -0.76662  -0.76628  -0.76614  -0.76536
 Alpha  occ. eigenvalues --   -0.76405  -0.76301  -0.75700  -0.75697  -0.75653
 Alpha  occ. eigenvalues --   -0.75639  -0.75485  -0.75404  -0.74838  -0.74822
 Alpha  occ. eigenvalues --   -0.74734  -0.74729  -0.74655  -0.74579  -0.72204
 Alpha  occ. eigenvalues --   -0.72189  -0.72164  -0.72159  -0.72140  -0.72133
 Alpha  occ. eigenvalues --   -0.72054  -0.71996  -0.71971  -0.70945  -0.70920
 Alpha  occ. eigenvalues --   -0.70759  -0.68559  -0.68535  -0.68344  -0.67501
 Alpha  occ. eigenvalues --   -0.67491  -0.67487  -0.67485  -0.67335  -0.67332
 Alpha  occ. eigenvalues --   -0.66210  -0.66207  -0.66053  -0.65955  -0.65954
 Alpha  occ. eigenvalues --   -0.65930  -0.65924  -0.65830  -0.65801  -0.62742
 Alpha  occ. eigenvalues --   -0.62396  -0.62393  -0.62279  -0.62131  -0.62127
 Alpha  occ. eigenvalues --   -0.62108  -0.62060  -0.62033  -0.61932  -0.61861
 Alpha  occ. eigenvalues --   -0.61858  -0.61726  -0.61499  -0.61440  -0.60721
 Alpha  occ. eigenvalues --   -0.60492  -0.60393  -0.60023  -0.60003  -0.60000
 Alpha  occ. eigenvalues --   -0.59991  -0.59875  -0.59835  -0.59829  -0.59658
 Alpha  occ. eigenvalues --   -0.58830  -0.58819  -0.58808  -0.58754  -0.58645
 Alpha  occ. eigenvalues --   -0.58552  -0.58531  -0.58121  -0.57933  -0.57924
 Alpha  occ. eigenvalues --   -0.57915  -0.57739  -0.57667  -0.57662  -0.57503
 Alpha  occ. eigenvalues --   -0.57430  -0.57414  -0.57366  -0.57364  -0.57292
 Alpha  occ. eigenvalues --   -0.57272  -0.57258  -0.57190  -0.56701  -0.56489
 Alpha  occ. eigenvalues --   -0.56365  -0.56266  -0.56200  -0.55909  -0.55900
 Alpha  occ. eigenvalues --   -0.55817  -0.55729  -0.55715  -0.55621  -0.55545
 Alpha  occ. eigenvalues --   -0.55520  -0.55472  -0.55391  -0.55122  -0.54722
 Alpha  occ. eigenvalues --   -0.54721  -0.54539  -0.54525  -0.54505  -0.54462
 Alpha  occ. eigenvalues --   -0.54457  -0.54351  -0.54333  -0.53638  -0.53216
 Alpha  occ. eigenvalues --   -0.53214  -0.53075  -0.52435  -0.52210  -0.52063
 Alpha  occ. eigenvalues --   -0.51759  -0.51108  -0.50917  -0.50764  -0.50189
 Alpha  occ. eigenvalues --   -0.50133  -0.49204  -0.49188  -0.49101  -0.48334
 Alpha  occ. eigenvalues --   -0.48331  -0.48088  -0.48054  -0.48013  -0.47977
 Alpha  occ. eigenvalues --   -0.47954  -0.47923  -0.47920  -0.47827  -0.47820
 Alpha  occ. eigenvalues --   -0.47449  -0.47225  -0.47222  -0.47218  -0.47197
 Alpha  occ. eigenvalues --   -0.47151  -0.47146  -0.47092  -0.47027  -0.46982
 Alpha  occ. eigenvalues --   -0.46963  -0.46904  -0.46441  -0.46427  -0.46235
 Alpha  occ. eigenvalues --   -0.45772  -0.45283  -0.45276  -0.45191  -0.45173
 Alpha  occ. eigenvalues --   -0.45072  -0.45003  -0.44996  -0.44995  -0.44902
 Alpha  occ. eigenvalues --   -0.43875  -0.43589  -0.43155  -0.43098  -0.42767
 Alpha  occ. eigenvalues --   -0.42600  -0.41753  -0.41668  -0.41538  -0.39183
 Alpha  occ. eigenvalues --   -0.39022  -0.38996  -0.38963  -0.38951  -0.38829
 Alpha  occ. eigenvalues --   -0.38648  -0.38038  -0.37330  -0.37236  -0.37163
 Alpha  occ. eigenvalues --   -0.37075  -0.36958  -0.36496  -0.36113  -0.36028
 Alpha  occ. eigenvalues --   -0.35874  -0.35863  -0.35628  -0.35530  -0.35397
 Alpha  occ. eigenvalues --   -0.35392  -0.35331  -0.35304  -0.35284  -0.35197
 Alpha  occ. eigenvalues --   -0.35075  -0.35039  -0.34885  -0.34688  -0.34593
 Alpha  occ. eigenvalues --   -0.34554  -0.34330  -0.34242  -0.34098  -0.33581
 Alpha  occ. eigenvalues --   -0.33343  -0.33342  -0.32856  -0.23656  -0.23331
 Alpha  occ. eigenvalues --   -0.23085
 Alpha virt. eigenvalues --   -0.06107  -0.05657  -0.05142  -0.05095  -0.04647
 Alpha virt. eigenvalues --   -0.04059   0.03368   0.03819   0.04292   0.04525
 Alpha virt. eigenvalues --    0.04678   0.04789   0.05513   0.05516   0.05778
 Alpha virt. eigenvalues --    0.05908   0.06043   0.06168   0.06248   0.06329
 Alpha virt. eigenvalues --    0.06626   0.10510   0.10697   0.10880   0.11064
 Alpha virt. eigenvalues --    0.11381   0.11394   0.11669   0.11775   0.11946
 Alpha virt. eigenvalues --    0.12036   0.12118   0.12758   0.13363   0.13435
 Alpha virt. eigenvalues --    0.13598   0.13729   0.14207   0.14592   0.14689
 Alpha virt. eigenvalues --    0.14848   0.14871   0.14879   0.15267   0.15356
 Alpha virt. eigenvalues --    0.15363   0.15653   0.15907   0.15967   0.16213
 Alpha virt. eigenvalues --    0.16731   0.16850   0.16857   0.17093   0.17286
 Alpha virt. eigenvalues --    0.17395   0.17418   0.17656   0.17670   0.18452
 Alpha virt. eigenvalues --    0.19018   0.19032   0.19377   0.19563   0.19758
 Alpha virt. eigenvalues --    0.19920   0.20236   0.20551   0.20598   0.20893
 Alpha virt. eigenvalues --    0.21275   0.21388   0.21709   0.21776   0.21801
 Alpha virt. eigenvalues --    0.21991   0.22046   0.22137   0.22293   0.22555
 Alpha virt. eigenvalues --    0.22579   0.22718   0.22758   0.23254   0.23409
 Alpha virt. eigenvalues --    0.23417   0.23469   0.24060   0.24374   0.24629
 Alpha virt. eigenvalues --    0.24705   0.24805   0.25015   0.25080   0.25179
 Alpha virt. eigenvalues --    0.25655   0.25735   0.25819   0.25874   0.25970
 Alpha virt. eigenvalues --    0.26068   0.26446   0.26580   0.27148   0.28243
 Alpha virt. eigenvalues --    0.28411   0.28478   0.28488   0.28588   0.28668
 Alpha virt. eigenvalues --    0.28819   0.29143   0.29207   0.29320   0.29374
 Alpha virt. eigenvalues --    0.29534   0.29581   0.29802   0.29946   0.30075
 Alpha virt. eigenvalues --    0.31008   0.31010   0.31073   0.31557   0.31614
 Alpha virt. eigenvalues --    0.31685   0.31685   0.31981   0.32078   0.32414
 Alpha virt. eigenvalues --    0.32486   0.32829   0.32900   0.32997   0.33492
 Alpha virt. eigenvalues --    0.33500   0.34024   0.34062   0.34285   0.34746
 Alpha virt. eigenvalues --    0.34765   0.34771   0.34910   0.34953   0.34999
 Alpha virt. eigenvalues --    0.35179   0.35331   0.35446   0.35777   0.35781
 Alpha virt. eigenvalues --    0.35955   0.36094   0.36233   0.36255   0.36298
 Alpha virt. eigenvalues --    0.36446   0.36596   0.36667   0.36677   0.36911
 Alpha virt. eigenvalues --    0.36981   0.37065   0.37229   0.37315   0.37453
 Alpha virt. eigenvalues --    0.37527   0.37670   0.37737   0.37807   0.38076
 Alpha virt. eigenvalues --    0.38082   0.38223   0.38226   0.38415   0.38680
 Alpha virt. eigenvalues --    0.38698   0.38869   0.39007   0.39120   0.39313
 Alpha virt. eigenvalues --    0.39396   0.39421   0.39586   0.39687   0.39756
 Alpha virt. eigenvalues --    0.39861   0.40270   0.40401   0.40617   0.40916
 Alpha virt. eigenvalues --    0.40984   0.41344   0.41432   0.41656   0.41684
 Alpha virt. eigenvalues --    0.41921   0.41979   0.42258   0.42560   0.42582
 Alpha virt. eigenvalues --    0.42653   0.42830   0.42889   0.42915   0.43080
 Alpha virt. eigenvalues --    0.43188   0.43210   0.43326   0.43548   0.44026
 Alpha virt. eigenvalues --    0.44235   0.44409   0.44430   0.44658   0.44865
 Alpha virt. eigenvalues --    0.45123   0.45129   0.45459   0.45636   0.45790
 Alpha virt. eigenvalues --    0.46050   0.46090   0.46339   0.46360   0.46560
 Alpha virt. eigenvalues --    0.46618   0.46805   0.47076   0.47238   0.47332
 Alpha virt. eigenvalues --    0.47397   0.47467   0.47709   0.47761   0.47934
 Alpha virt. eigenvalues --    0.48002   0.48087   0.48149   0.48266   0.48346
 Alpha virt. eigenvalues --    0.48743   0.49018   0.49170   0.49258   0.49292
 Alpha virt. eigenvalues --    0.49387   0.49462   0.49724   0.50053   0.50224
 Alpha virt. eigenvalues --    0.50362   0.50420   0.50469   0.51051   0.51206
 Alpha virt. eigenvalues --    0.51400   0.51503   0.51731   0.52025   0.52421
 Alpha virt. eigenvalues --    0.52530   0.52603   0.52673   0.52826   0.53212
 Alpha virt. eigenvalues --    0.53357   0.53616   0.53960   0.54031   0.54074
 Alpha virt. eigenvalues --    0.54149   0.54204   0.54255   0.54490   0.54745
 Alpha virt. eigenvalues --    0.54858   0.54892   0.54896   0.55139   0.55216
 Alpha virt. eigenvalues --    0.55252   0.55374   0.55659   0.55766   0.55871
 Alpha virt. eigenvalues --    0.55951   0.55991   0.56413   0.56471   0.56544
 Alpha virt. eigenvalues --    0.56698   0.56793   0.56848   0.56894   0.57019
 Alpha virt. eigenvalues --    0.57270   0.57439   0.57758   0.58066   0.58089
 Alpha virt. eigenvalues --    0.58233   0.58307   0.58340   0.58391   0.58771
 Alpha virt. eigenvalues --    0.59134   0.59187   0.59271   0.59521   0.59836
 Alpha virt. eigenvalues --    0.59992   0.60053   0.60276   0.60486   0.60500
 Alpha virt. eigenvalues --    0.60519   0.60570   0.60709   0.61029   0.61036
 Alpha virt. eigenvalues --    0.61040   0.61376   0.61466   0.61576   0.61604
 Alpha virt. eigenvalues --    0.61650   0.61779   0.61970   0.62109   0.62229
 Alpha virt. eigenvalues --    0.62303   0.62559   0.62567   0.62641   0.62957
 Alpha virt. eigenvalues --    0.63253   0.63274   0.63432   0.63496   0.63526
 Alpha virt. eigenvalues --    0.63575   0.63962   0.63985   0.64551   0.64893
 Alpha virt. eigenvalues --    0.65204   0.65379   0.65817   0.65847   0.65933
 Alpha virt. eigenvalues --    0.66121   0.66180   0.66338   0.66585   0.66915
 Alpha virt. eigenvalues --    0.66988   0.67099   0.67174   0.67305   0.67482
 Alpha virt. eigenvalues --    0.67529   0.67834   0.68611   0.69415   0.69453
 Alpha virt. eigenvalues --    0.69500   0.70061   0.70085   0.70118   0.70233
 Alpha virt. eigenvalues --    0.70550   0.71045   0.71186   0.71240   0.71466
 Alpha virt. eigenvalues --    0.71815   0.72293   0.72392   0.72463   0.72521
 Alpha virt. eigenvalues --    0.72748   0.73065   0.73171   0.73173   0.73348
 Alpha virt. eigenvalues --    0.73387   0.73390   0.73698   0.73801   0.73875
 Alpha virt. eigenvalues --    0.74024   0.74094   0.74283   0.74292   0.74355
 Alpha virt. eigenvalues --    0.74758   0.74784   0.75057   0.75083   0.75275
 Alpha virt. eigenvalues --    0.75319   0.75368   0.75494   0.75620   0.75847
 Alpha virt. eigenvalues --    0.76056   0.76208   0.76331   0.76374   0.76408
 Alpha virt. eigenvalues --    0.76872   0.76889   0.76962   0.76986   0.77140
 Alpha virt. eigenvalues --    0.77362   0.77420   0.77432   0.77450   0.77625
 Alpha virt. eigenvalues --    0.77668   0.77761   0.77770   0.77999   0.78030
 Alpha virt. eigenvalues --    0.78167   0.78193   0.78315   0.78374   0.78700
 Alpha virt. eigenvalues --    0.78744   0.78776   0.78912   0.79001   0.79031
 Alpha virt. eigenvalues --    0.79064   0.79255   0.79281   0.79321   0.79345
 Alpha virt. eigenvalues --    0.79719   0.79724   0.79789   0.79950   0.80099
 Alpha virt. eigenvalues --    0.80437   0.80464   0.80523   0.80527   0.80634
 Alpha virt. eigenvalues --    0.80661   0.80795   0.80836   0.81057   0.81226
 Alpha virt. eigenvalues --    0.81253   0.81349   0.81541   0.81614   0.81975
 Alpha virt. eigenvalues --    0.82039   0.82170   0.82207   0.82263   0.82553
 Alpha virt. eigenvalues --    0.82718   0.82789   0.82803   0.82917   0.83015
 Alpha virt. eigenvalues --    0.83206   0.83368   0.83469   0.83640   0.83690
 Alpha virt. eigenvalues --    0.83706   0.83963   0.83997   0.84218   0.84445
 Alpha virt. eigenvalues --    0.84465   0.84814   0.84830   0.84906   0.84988
 Alpha virt. eigenvalues --    0.84995   0.85598   0.85632   0.85964   0.85983
 Alpha virt. eigenvalues --    0.86080   0.86279   0.86307   0.86455   0.86623
 Alpha virt. eigenvalues --    0.86721   0.86835   0.86868   0.87061   0.87088
 Alpha virt. eigenvalues --    0.87243   0.87365   0.87507   0.87561   0.87687
 Alpha virt. eigenvalues --    0.87704   0.87852   0.88079   0.88180   0.88311
 Alpha virt. eigenvalues --    0.88380   0.88481   0.88707   0.88711   0.88751
 Alpha virt. eigenvalues --    0.88779   0.89064   0.89245   0.89725   0.89791
 Alpha virt. eigenvalues --    0.89798   0.89944   0.90191   0.90349   0.90547
 Alpha virt. eigenvalues --    0.90685   0.90826   0.90947   0.91244   0.91514
 Alpha virt. eigenvalues --    0.91604   0.91827   0.91926   0.92339   0.92409
 Alpha virt. eigenvalues --    0.92655   0.93014   0.93300   0.93364   0.93569
 Alpha virt. eigenvalues --    0.93684   0.93696   0.93737   0.93992   0.94375
 Alpha virt. eigenvalues --    0.94530   0.94571   0.94639   0.94749   0.95036
 Alpha virt. eigenvalues --    0.95354   0.95546   0.95930   0.96310   0.96585
 Alpha virt. eigenvalues --    0.96777   0.97209   0.97210   0.97239   0.97507
 Alpha virt. eigenvalues --    0.98202   0.98254   0.98342   0.98422   0.98612
 Alpha virt. eigenvalues --    0.98632   0.99164   0.99167   0.99592   0.99918
 Alpha virt. eigenvalues --    1.00064   1.00183   1.00371   1.00559   1.00832
 Alpha virt. eigenvalues --    1.00902   1.00954   1.01352   1.01783   1.02039
 Alpha virt. eigenvalues --    1.02039   1.02164   1.02242   1.02471   1.02696
 Alpha virt. eigenvalues --    1.02910   1.03061   1.03090   1.03313   1.03680
 Alpha virt. eigenvalues --    1.03739   1.03848   1.04138   1.04611   1.04781
 Alpha virt. eigenvalues --    1.04890   1.04909   1.05062   1.05112   1.05455
 Alpha virt. eigenvalues --    1.05800   1.05952   1.06297   1.06477   1.06513
 Alpha virt. eigenvalues --    1.07114   1.07542   1.07672   1.07893   1.07896
 Alpha virt. eigenvalues --    1.08705   1.08889   1.09252   1.09352   1.09530
 Alpha virt. eigenvalues --    1.09674   1.09864   1.09975   1.10135   1.10319
 Alpha virt. eigenvalues --    1.10359   1.10439   1.10788   1.11339   1.11527
 Alpha virt. eigenvalues --    1.11546   1.11730   1.12039   1.12135   1.12371
 Alpha virt. eigenvalues --    1.13217   1.13382   1.13732   1.13916   1.14115
 Alpha virt. eigenvalues --    1.14266   1.14556   1.15206   1.15238   1.15843
 Alpha virt. eigenvalues --    1.15921   1.15956   1.16360   1.16455   1.16709
 Alpha virt. eigenvalues --    1.16839   1.17349   1.17380   1.17762   1.17947
 Alpha virt. eigenvalues --    1.18510   1.18513   1.18532   1.19619   1.19848
 Alpha virt. eigenvalues --    1.20302   1.20858   1.20974   1.21301   1.21338
 Alpha virt. eigenvalues --    1.21449   1.22313   1.22346   1.22823   1.22890
 Alpha virt. eigenvalues --    1.23305   1.23699   1.23785   1.23890   1.24573
 Alpha virt. eigenvalues --    1.24708   1.25024   1.25271   1.25453   1.25765
 Alpha virt. eigenvalues --    1.26136   1.26317   1.26760   1.26846   1.27935
 Alpha virt. eigenvalues --    1.28419   1.28453   1.28540   1.29161   1.29373
 Alpha virt. eigenvalues --    1.29523   1.30399   1.30580   1.30726   1.31485
 Alpha virt. eigenvalues --    1.31545   1.31549   1.31651   1.32133   1.32348
 Alpha virt. eigenvalues --    1.32587   1.32592   1.32643   1.32837   1.32878
 Alpha virt. eigenvalues --    1.33362   1.33362   1.33539   1.33590   1.33937
 Alpha virt. eigenvalues --    1.34033   1.34312   1.34440   1.34819   1.34899
 Alpha virt. eigenvalues --    1.35108   1.35361   1.35445   1.35476   1.35564
 Alpha virt. eigenvalues --    1.35989   1.36109   1.36198   1.36243   1.36274
 Alpha virt. eigenvalues --    1.36550   1.36812   1.36980   1.37024   1.37178
 Alpha virt. eigenvalues --    1.37286   1.37384   1.37430   1.37497   1.37592
 Alpha virt. eigenvalues --    1.37673   1.37741   1.38152   1.38230   1.38440
 Alpha virt. eigenvalues --    1.38558   1.38743   1.38872   1.39078   1.39216
 Alpha virt. eigenvalues --    1.39250   1.39300   1.39482   1.39549   1.39717
 Alpha virt. eigenvalues --    1.39856   1.39881   1.40572   1.40683   1.40797
 Alpha virt. eigenvalues --    1.40798   1.40821   1.40932   1.41056   1.41162
 Alpha virt. eigenvalues --    1.41269   1.41366   1.41529   1.41604   1.41705
 Alpha virt. eigenvalues --    1.41907   1.42076   1.42093   1.42218   1.42346
 Alpha virt. eigenvalues --    1.42399   1.42890   1.43047   1.43273   1.43298
 Alpha virt. eigenvalues --    1.43411   1.43688   1.43767   1.44122   1.44202
 Alpha virt. eigenvalues --    1.44227   1.44479   1.44628   1.44869   1.45252
 Alpha virt. eigenvalues --    1.45503   1.45536   1.45585   1.45618   1.45842
 Alpha virt. eigenvalues --    1.45906   1.45953   1.45990   1.46333   1.46383
 Alpha virt. eigenvalues --    1.46584   1.46659   1.46884   1.47054   1.47544
 Alpha virt. eigenvalues --    1.47639   1.47778   1.48095   1.48625   1.48775
 Alpha virt. eigenvalues --    1.49394   1.49628   1.49691   1.49708   1.49877
 Alpha virt. eigenvalues --    1.50170   1.50172   1.50191   1.50501   1.50993
 Alpha virt. eigenvalues --    1.51160   1.51370   1.51600   1.51612   1.51708
 Alpha virt. eigenvalues --    1.52085   1.52275   1.52539   1.52915   1.53466
 Alpha virt. eigenvalues --    1.53698   1.54163   1.54600   1.55272   1.55537
 Alpha virt. eigenvalues --    1.56089   1.56310   1.57546   1.57947   1.58229
 Alpha virt. eigenvalues --    1.58340   1.58778   1.58855   1.59131   1.59205
 Alpha virt. eigenvalues --    1.60251   1.60299   1.60329   1.60424   1.60964
 Alpha virt. eigenvalues --    1.61132   1.61454   1.61917   1.62461   1.62905
 Alpha virt. eigenvalues --    1.62945   1.63197   1.63535   1.64146   1.64325
 Alpha virt. eigenvalues --    1.64350   1.64529   1.64610   1.65194   1.65751
 Alpha virt. eigenvalues --    1.66057   1.66594   1.66797   1.67823   1.67909
 Alpha virt. eigenvalues --    1.67965   1.68107   1.68189   1.68518   1.69348
 Alpha virt. eigenvalues --    1.69729   1.69901   1.70197   1.71218   1.71624
 Alpha virt. eigenvalues --    1.72007   1.72424   1.72976   1.73325   1.73695
 Alpha virt. eigenvalues --    1.73985   1.74006   1.74333   1.74489   1.74780
 Alpha virt. eigenvalues --    1.75641   1.75713   1.76408   1.77157   1.77423
 Alpha virt. eigenvalues --    1.78058   1.78233   1.78266   1.78565   1.78749
 Alpha virt. eigenvalues --    1.79110   1.79333   1.79459   1.79467   1.79717
 Alpha virt. eigenvalues --    1.79935   1.80015   1.80040   1.80062   1.80900
 Alpha virt. eigenvalues --    1.80975   1.81247   1.81329   1.81576   1.81945
 Alpha virt. eigenvalues --    1.81994   1.82087   1.82249   1.82479   1.83026
 Alpha virt. eigenvalues --    1.83267   1.83387   1.83600   1.83616   1.84092
 Alpha virt. eigenvalues --    1.84208   1.84399   1.84405   1.84649   1.84740
 Alpha virt. eigenvalues --    1.84792   1.85246   1.85391   1.85826   1.85828
 Alpha virt. eigenvalues --    1.86114   1.86458   1.86481   1.86535   1.87060
 Alpha virt. eigenvalues --    1.87091   1.87325   1.87389   1.87480   1.87616
 Alpha virt. eigenvalues --    1.87800   1.87913   1.87914   1.87968   1.88212
 Alpha virt. eigenvalues --    1.88361   1.88539   1.88683   1.88714   1.88946
 Alpha virt. eigenvalues --    1.88955   1.89455   1.89473   1.89482   1.90054
 Alpha virt. eigenvalues --    1.90075   1.90127   1.90181   1.90355   1.90384
 Alpha virt. eigenvalues --    1.90542   1.90596   1.90831   1.90950   1.90966
 Alpha virt. eigenvalues --    1.91261   1.91412   1.91540   1.91551   1.91742
 Alpha virt. eigenvalues --    1.91938   1.91979   1.92007   1.92070   1.92161
 Alpha virt. eigenvalues --    1.92305   1.92510   1.92607   1.92679   1.92756
 Alpha virt. eigenvalues --    1.92907   1.92993   1.93623   1.93709   1.93746
 Alpha virt. eigenvalues --    1.94246   1.94341   1.94490   1.94632   1.94690
 Alpha virt. eigenvalues --    1.94844   1.95046   1.95392   1.95603   1.95603
 Alpha virt. eigenvalues --    1.95749   1.96051   1.96103   1.96322   1.96471
 Alpha virt. eigenvalues --    1.96623   1.96647   1.96755   1.97186   1.97679
 Alpha virt. eigenvalues --    1.98197   1.98283   1.98651   1.98892   1.99229
 Alpha virt. eigenvalues --    1.99249   2.00131   2.00376   2.00448   2.00465
 Alpha virt. eigenvalues --    2.00644   2.00770   2.01721   2.01900   2.02315
 Alpha virt. eigenvalues --    2.02738   2.02951   2.02994   2.03106   2.03268
 Alpha virt. eigenvalues --    2.03453   2.03696   2.03835   2.03915   2.04390
 Alpha virt. eigenvalues --    2.04401   2.05065   2.05195   2.05395   2.05564
 Alpha virt. eigenvalues --    2.05567   2.05819   2.06254   2.06463   2.06486
 Alpha virt. eigenvalues --    2.06909   2.07392   2.07457   2.07672   2.07737
 Alpha virt. eigenvalues --    2.07743   2.07753   2.08138   2.08241   2.08297
 Alpha virt. eigenvalues --    2.08321   2.08398   2.08727   2.08771   2.08935
 Alpha virt. eigenvalues --    2.09146   2.09330   2.09362   2.09370   2.09569
 Alpha virt. eigenvalues --    2.09730   2.09803   2.09898   2.09930   2.10151
 Alpha virt. eigenvalues --    2.10428   2.10470   2.10562   2.10563   2.10733
 Alpha virt. eigenvalues --    2.10854   2.11230   2.11518   2.11628   2.11697
 Alpha virt. eigenvalues --    2.11765   2.11856   2.12059   2.12122   2.12249
 Alpha virt. eigenvalues --    2.12611   2.12741   2.12922   2.13107   2.13176
 Alpha virt. eigenvalues --    2.13184   2.13285   2.13389   2.13533   2.13549
 Alpha virt. eigenvalues --    2.13942   2.14011   2.14120   2.14411   2.14488
 Alpha virt. eigenvalues --    2.14572   2.14589   2.14724   2.14761   2.14890
 Alpha virt. eigenvalues --    2.15352   2.15664   2.16487   2.16709   2.16724
 Alpha virt. eigenvalues --    2.16780   2.17970   2.18133   2.18141   2.18434
 Alpha virt. eigenvalues --    2.18780   2.19034   2.19296   2.19322   2.19356
 Alpha virt. eigenvalues --    2.19427   2.20231   2.20515   2.22436   2.22504
 Alpha virt. eigenvalues --    2.22596   2.22629   2.23237   2.23263   2.23278
 Alpha virt. eigenvalues --    2.24012   2.24187   2.24387   2.24482   2.25293
 Alpha virt. eigenvalues --    2.25362   2.26061   2.26244   2.26386   2.26998
 Alpha virt. eigenvalues --    2.27039   2.27089   2.27318   2.27420   2.27461
 Alpha virt. eigenvalues --    2.27873   2.28203   2.28429   2.28645   2.28689
 Alpha virt. eigenvalues --    2.28765   2.28787   2.28894   2.29142   2.29257
 Alpha virt. eigenvalues --    2.29275   2.29355   2.29551   2.29637   2.29895
 Alpha virt. eigenvalues --    2.30091   2.30368   2.30665   2.30834   2.31188
 Alpha virt. eigenvalues --    2.31279   2.31602   2.31946   2.32003   2.32349
 Alpha virt. eigenvalues --    2.32417   2.32593   2.32858   2.32921   2.33431
 Alpha virt. eigenvalues --    2.33777   2.33823   2.33905   2.34168   2.34344
 Alpha virt. eigenvalues --    2.34463   2.34488   2.34708   2.35059   2.35171
 Alpha virt. eigenvalues --    2.35761   2.36126   2.36199   2.36240   2.36394
 Alpha virt. eigenvalues --    2.36631   2.36938   2.37069   2.37182   2.37661
 Alpha virt. eigenvalues --    2.37675   2.37676   2.37924   2.38178   2.38222
 Alpha virt. eigenvalues --    2.38493   2.38825   2.38884   2.39045   2.39132
 Alpha virt. eigenvalues --    2.39166   2.39237   2.39245   2.39347   2.39687
 Alpha virt. eigenvalues --    2.39963   2.39986   2.40086   2.40152   2.40677
 Alpha virt. eigenvalues --    2.40812   2.41209   2.41401   2.41489   2.41704
 Alpha virt. eigenvalues --    2.41812   2.41821   2.42141   2.42597   2.42772
 Alpha virt. eigenvalues --    2.42881   2.43167   2.43302   2.43326   2.43530
 Alpha virt. eigenvalues --    2.43722   2.43773   2.43839   2.43909   2.44083
 Alpha virt. eigenvalues --    2.44327   2.44355   2.44374   2.44399   2.44695
 Alpha virt. eigenvalues --    2.44774   2.44865   2.45112   2.45355   2.45435
 Alpha virt. eigenvalues --    2.45762   2.46135   2.46176   2.46244   2.46770
 Alpha virt. eigenvalues --    2.46792   2.46859   2.47098   2.47388   2.47484
 Alpha virt. eigenvalues --    2.47558   2.47819   2.48047   2.48805   2.48975
 Alpha virt. eigenvalues --    2.49065   2.49079   2.49272   2.49429   2.50346
 Alpha virt. eigenvalues --    2.50641   2.50667   2.51085   2.51135   2.51175
 Alpha virt. eigenvalues --    2.51507   2.51791   2.52036   2.52124   2.52526
 Alpha virt. eigenvalues --    2.52532   2.52731   2.52845   2.52891   2.53158
 Alpha virt. eigenvalues --    2.53879   2.54671   2.55832   2.57755   2.59467
 Alpha virt. eigenvalues --    2.59548   2.59583   2.59987   2.60124   2.60158
 Alpha virt. eigenvalues --    2.60388   2.60509   2.60579   2.60769   2.60850
 Alpha virt. eigenvalues --    2.60994   2.61466   2.61596   2.62148   2.62283
 Alpha virt. eigenvalues --    2.62590   2.62627   2.63248   2.63910   2.64270
 Alpha virt. eigenvalues --    2.65143   2.65365   2.66452   2.66634   2.66943
 Alpha virt. eigenvalues --    2.67944   2.69087   2.69240   2.69284   2.69457
 Alpha virt. eigenvalues --    2.69518   2.69739   2.69790   2.70516   2.70792
 Alpha virt. eigenvalues --    2.71288   2.71441   2.72059   2.72126   2.72201
 Alpha virt. eigenvalues --    2.72213   2.72351   2.72532   2.72630   2.72698
 Alpha virt. eigenvalues --    2.73070   2.73089   2.73315   2.73553   2.73665
 Alpha virt. eigenvalues --    2.74021   2.74452   2.74686   2.74768   2.74939
 Alpha virt. eigenvalues --    2.75770   2.76401   2.76511   2.76532   2.77322
 Alpha virt. eigenvalues --    2.77547   2.77681   2.77819   2.77843   2.77986
 Alpha virt. eigenvalues --    2.78072   2.78138   2.78161   2.78301   2.78677
 Alpha virt. eigenvalues --    2.78710   2.79145   2.79750   2.79938   2.79990
 Alpha virt. eigenvalues --    2.80066   2.80157   2.80637   2.80736   2.80865
 Alpha virt. eigenvalues --    2.81051   2.81067   2.81154   2.81626   2.81720
 Alpha virt. eigenvalues --    2.81826   2.81888   2.82885   2.83094   2.83108
 Alpha virt. eigenvalues --    2.83297   2.83324   2.83528   2.83543   2.83740
 Alpha virt. eigenvalues --    2.83772   2.83823   2.83903   2.84064   2.84382
 Alpha virt. eigenvalues --    2.84697   2.84709   2.84976   2.85606   2.85874
 Alpha virt. eigenvalues --    2.86129   2.86134   2.86308   2.86338   2.86663
 Alpha virt. eigenvalues --    2.86882   2.87000   2.87123   2.87380   2.87593
 Alpha virt. eigenvalues --    2.87742   2.88204   2.88439   2.88589   2.88836
 Alpha virt. eigenvalues --    2.90953   2.91560   2.92616   2.92617   2.93038
 Alpha virt. eigenvalues --    2.93221   2.95100   2.95195   2.96275   2.96284
 Alpha virt. eigenvalues --    2.96452   2.96664   2.97056   2.97481   2.97559
 Alpha virt. eigenvalues --    2.97697   2.98083   2.98151   2.98227   2.98742
 Alpha virt. eigenvalues --    2.98842   2.98893   2.98908   2.98934   2.99013
 Alpha virt. eigenvalues --    2.99160   2.99991   3.00686   3.00817   3.00856
 Alpha virt. eigenvalues --    3.00867   3.00990   3.01101   3.01584   3.01631
 Alpha virt. eigenvalues --    3.02734   3.02780   3.03035   3.03039   3.03080
 Alpha virt. eigenvalues --    3.03089   3.03305   3.03342   3.03635   3.04284
 Alpha virt. eigenvalues --    3.04714   3.04745   3.05623   3.05738   3.05875
 Alpha virt. eigenvalues --    3.05903   3.06008   3.06265   3.07292   3.07631
 Alpha virt. eigenvalues --    3.08066   3.08377   3.08902   3.09703   3.10405
 Alpha virt. eigenvalues --    3.11961   3.12024   3.12183   3.12226   3.12354
 Alpha virt. eigenvalues --    3.12416   3.12537   3.12620   3.13219   3.13293
 Alpha virt. eigenvalues --    3.13551   3.13673   3.13733   3.13888   3.14835
 Alpha virt. eigenvalues --    3.15673   3.15825   3.15864   3.15931   3.16498
 Alpha virt. eigenvalues --    3.17501   3.17605   3.18467   3.19330   3.20442
 Alpha virt. eigenvalues --    3.20584   3.22685   3.23516   3.23644   3.23744
 Alpha virt. eigenvalues --    3.23860   3.24635   3.24979   3.26253   3.26264
 Alpha virt. eigenvalues --    3.26523   3.26556   3.26731   3.27589   3.28505
 Alpha virt. eigenvalues --    3.28584   3.28741   3.28833   3.30104   3.30275
 Alpha virt. eigenvalues --    3.30283   3.30342   3.30798   3.36775   3.36892
 Alpha virt. eigenvalues --    3.36901   3.37008   3.37322   3.37469   3.37553
 Alpha virt. eigenvalues --    3.37938   3.38062   3.38246   3.39018   3.40650
 Alpha virt. eigenvalues --    3.50427   3.50706   3.50707   3.50894   3.52062
 Alpha virt. eigenvalues --    3.52646   3.57718   3.57747   3.58534   3.60649
 Alpha virt. eigenvalues --    3.60966   3.61892   3.61961   3.62021   3.63009
 Alpha virt. eigenvalues --    3.66084   3.66213   3.67107   3.67978   3.67984
 Alpha virt. eigenvalues --    3.68047   3.68079   3.68679   3.68999   3.74363
 Alpha virt. eigenvalues --    3.74364   3.74642   3.78836   3.78888   3.78903
 Alpha virt. eigenvalues --    3.78943   3.79360   3.79371   3.81224   3.81278
 Alpha virt. eigenvalues --    3.81596   6.62887   6.62897   6.63032   6.63097
 Alpha virt. eigenvalues --    6.63098   6.63218   6.63561   6.63574   6.63700
 Alpha virt. eigenvalues --    6.63837   6.63838   6.63840   6.63847   6.64008
 Alpha virt. eigenvalues --    6.64033   6.67892   6.67904   6.67915   6.67938
 Alpha virt. eigenvalues --    6.68164   6.68226
          Condensed to atoms (all electrons):
 Mulliken charges:
               1
     1  C    0.033567
     2  C    0.007335
     3  C   -0.065122
     4  C    0.110292
     5  C    0.091901
     6  C   -0.073829
     7  C   -0.071950
     8  C   -0.053399
     9  N   -0.219860
    10  N    0.096481
    11  N    0.097282
    12  H   -0.005987
    13  H   -0.005122
    14  H   -0.005540
    15  H   -0.009174
    16  C    0.029915
    17  C    0.029915
    18  C   -0.065851
    19  C    0.095769
    20  C    0.095769
    21  C   -0.065851
    22  C   -0.079570
    23  C   -0.079570
    24  N   -0.219505
    25  N    0.097282
    26  H   -0.004673
    27  H   -0.004673
    28  H   -0.006947
    29  H   -0.006947
    30  C    0.012469
    31  C    0.012469
    32  C   -0.070277
    33  C    0.102540
    34  C    0.102540
    35  C   -0.070277
    36  C   -0.051893
    37  C   -0.051893
    38  N   -0.222797
    39  N    0.096481
    40  H   -0.002631
    41  H   -0.002631
    42  H   -0.008324
    43  H   -0.008324
    44  C    0.007335
    45  C    0.033567
    46  C   -0.073829
    47  C    0.091901
    48  C    0.110292
    49  C   -0.065122
    50  C   -0.053399
    51  C   -0.071950
    52  N   -0.219860
    53  H   -0.005122
    54  H   -0.005987
    55  H   -0.009174
    56  H   -0.005540
    57  Zn   0.695103
    58  C    0.024914
    59  C    0.024914
    60  C   -0.074992
    61  C    0.116978
    62  C    0.116978
    63  C   -0.074992
    64  C   -0.081582
    65  C   -0.081582
    66  N   -0.212392
    67  N    0.107403
    68  N    0.107403
    69  H   -0.009856
    70  H   -0.009856
    71  H   -0.009719
    72  H   -0.009719
    73  C    0.026143
    74  C    0.026143
    75  C   -0.070611
    76  C    0.114295
    77  C    0.114295
    78  C   -0.070611
    79  C   -0.089680
    80  C   -0.089680
    81  N   -0.214417
    82  N    0.107403
    83  H   -0.006741
    84  H   -0.006741
    85  H   -0.010522
    86  H   -0.010522
    87  C    0.026143
    88  C    0.026143
    89  C   -0.070611
    90  C    0.114295
    91  C    0.114295
    92  C   -0.070611
    93  C   -0.089680
    94  C   -0.089680
    95  N   -0.214417
    96  N    0.107403
    97  H   -0.006741
    98  H   -0.006741
    99  H   -0.010522
   100  H   -0.010522
   101  C    0.024914
   102  C    0.024914
   103  C   -0.074992
   104  C    0.116978
   105  C    0.116978
   106  C   -0.074992
   107  C   -0.081582
   108  C   -0.081582
   109  N   -0.212392
   110  H   -0.009856
   111  H   -0.009856
   112  H   -0.009719
   113  H   -0.009719
   114  Zn   0.694292
   115  C    0.007335
   116  C    0.033567
   117  C   -0.073829
   118  C    0.091901
   119  C    0.110292
   120  C   -0.065122
   121  C   -0.053399
   122  C   -0.071950
   123  N   -0.219860
   124  N    0.097282
   125  N    0.096481
   126  H   -0.005122
   127  H   -0.005987
   128  H   -0.009174
   129  H   -0.005540
   130  C    0.012469
   131  C    0.012469
   132  C   -0.070277
   133  C    0.102540
   134  C    0.102540
   135  C   -0.070277
   136  C   -0.051893
   137  C   -0.051893
   138  N   -0.222797
   139  N    0.096481
   140  H   -0.002631
   141  H   -0.002631
   142  H   -0.008324
   143  H   -0.008324
   144  C    0.029915
   145  C    0.029915
   146  C   -0.065851
   147  C    0.095769
   148  C    0.095769
   149  C   -0.065851
   150  C   -0.079570
   151  C   -0.079570
   152  N   -0.219505
   153  N    0.097282
   154  H   -0.004673
   155  H   -0.004673
   156  H   -0.006947
   157  H   -0.006947
   158  C    0.033567
   159  C    0.007335
   160  C   -0.065122
   161  C    0.110292
   162  C    0.091901
   163  C   -0.073829
   164  C   -0.071950
   165  C   -0.053399
   166  N   -0.219860
   167  H   -0.005987
   168  H   -0.005122
   169  H   -0.005540
   170  H   -0.009174
   171  Zn   0.695103
 Sum of Mulliken charges =  -0.00000
 Mulliken charges with hydrogens summed into heavy atoms:
               1
     1  C    0.027580
     2  C    0.002213
     3  C   -0.070662
     4  C    0.110292
     5  C    0.091901
     6  C   -0.083003
     7  C   -0.071950
     8  C   -0.053399
     9  N   -0.219860
    10  N    0.096481
    11  N    0.097282
    16  C    0.025242
    17  C    0.025242
    18  C   -0.072799
    19  C    0.095769
    20  C    0.095769
    21  C   -0.072799
    22  C   -0.079570
    23  C   -0.079570
    24  N   -0.219505
    25  N    0.097282
    30  C    0.009838
    31  C    0.009838
    32  C   -0.078601
    33  C    0.102540
    34  C    0.102540
    35  C   -0.078601
    36  C   -0.051893
    37  C   -0.051893
    38  N   -0.222797
    39  N    0.096481
    44  C    0.002213
    45  C    0.027580
    46  C   -0.083003
    47  C    0.091901
    48  C    0.110292
    49  C   -0.070662
    50  C   -0.053399
    51  C   -0.071950
    52  N   -0.219860
    57  Zn   0.695103
    58  C    0.015059
    59  C    0.015059
    60  C   -0.084711
    61  C    0.116978
    62  C    0.116978
    63  C   -0.084711
    64  C   -0.081582
    65  C   -0.081582
    66  N   -0.212392
    67  N    0.107403
    68  N    0.107403
    73  C    0.019402
    74  C    0.019402
    75  C   -0.081133
    76  C    0.114295
    77  C    0.114295
    78  C   -0.081133
    79  C   -0.089680
    80  C   -0.089680
    81  N   -0.214417
    82  N    0.107403
    87  C    0.019402
    88  C    0.019402
    89  C   -0.081133
    90  C    0.114295
    91  C    0.114295
    92  C   -0.081133
    93  C   -0.089680
    94  C   -0.089680
    95  N   -0.214417
    96  N    0.107403
   101  C    0.015059
   102  C    0.015059
   103  C   -0.084711
   104  C    0.116978
   105  C    0.116978
   106  C   -0.084711
   107  C   -0.081582
   108  C   -0.081582
   109  N   -0.212392
   114  Zn   0.694292
   115  C    0.002213
   116  C    0.027580
   117  C   -0.083003
   118  C    0.091901
   119  C    0.110292
   120  C   -0.070662
   121  C   -0.053399
   122  C   -0.071950
   123  N   -0.219860
   124  N    0.097282
   125  N    0.096481
   130  C    0.009838
   131  C    0.009838
   132  C   -0.078601
   133  C    0.102540
   134  C    0.102540
   135  C   -0.078601
   136  C   -0.051893
   137  C   -0.051893
   138  N   -0.222797
   139  N    0.096481
   144  C    0.025242
   145  C    0.025242
   146  C   -0.072799
   147  C    0.095769
   148  C    0.095769
   149  C   -0.072799
   150  C   -0.079570
   151  C   -0.079570
   152  N   -0.219505
   153  N    0.097282
   158  C    0.027580
   159  C    0.002213
   160  C   -0.070662
   161  C    0.110292
   162  C    0.091901
   163  C   -0.083003
   164  C   -0.071950
   165  C   -0.053399
   166  N   -0.219860
   171  Zn   0.695103
 Electronic spatial extent (au):  <R**2>=          96743.6994
 Charge=              0.0000 electrons
 Dipole moment (field-independent basis, Debye):
    X=              0.0000    Y=             -0.0000    Z=             -0.0000  Tot=              0.0000
 Quadrupole moment (field-independent basis, Debye-Ang):
   XX=           -739.2056   YY=           -637.6022   ZZ=           -637.7890
   XY=             -2.3979   XZ=              0.0000   YZ=             -0.0000
 Traceless Quadrupole moment (field-independent basis, Debye-Ang):
   XX=            -67.6733   YY=             33.9301   ZZ=             33.7433
   XY=             -2.3979   XZ=              0.0000   YZ=             -0.0000
 Octapole moment (field-independent basis, Debye-Ang**2):
  XXX=              0.0000  YYY=              0.0000  ZZZ=             -0.0000  XYY=             -0.0000
  XXY=             -0.0000  XXZ=             -0.0000  XZZ=             -0.0000  YZZ=             -0.0000
  YYZ=              0.0000  XYZ=             -0.0000
 Hexadecapole moment (field-independent basis, Debye-Ang**3):
 XXXX=         -34857.4231 YYYY=         -48526.8351 ZZZZ=         -40714.4859 XXXY=          -8794.8480
 XXXZ=             -0.0000 YYYX=          -7695.0456 YYYZ=             -0.0000 ZZZX=              0.0000
 ZZZY=              0.0000 XXYY=         -14963.6134 XXZZ=         -13465.8807 YYZZ=         -15855.0017
 XXYZ=              0.0000 YYXZ=              0.0000 ZZXY=          -2587.3301
 N-N= 3.481322421798D+04 E-N=-9.398155963830D+04  KE= 1.026335781573D+04
 Symmetry AG   KE= 4.018530161781D+03
 Symmetry BG   KE= 1.409117439863D+03
 Symmetry AU   KE= 1.612708530952D+03
 Symmetry BU   KE= 3.223001683134D+03
 Leave Link  601 at Tue Oct 21 00:59:44 2025, MaxMem=  2147483648 cpu:       150.3
 (Enter /opt/g09/l9999.exe)

 Test job not archived.
 1\1\ WCSS.PL-BEM-CMOKC406W\SP\RLC-BLYP\def2SVP\C96H48N24Zn3\SERGEY\21-
 Oct-2025\0\\#p lc-blyp/def2svp iop(3/107=0400000000,3/108=0400000000)\
 \ZnPc dimer, monomer geom b3pw/631dp\\0,1\C,0,0.70282505,6.55507353,0.
 \C,0,-0.70282505,6.55507353,0.\C,0,1.42385811,5.3647644,0.\C,0,0.70355
 705,4.17204132,0.\C,0,-0.70355705,4.17204132,0.\C,0,-1.42385811,5.3647
 644,0.\C,0,1.11636308,2.77432121,0.\C,0,-1.11636308,2.77432121,0.\N,0,
 0.,1.98231715,0.\N,0,-2.38508318,2.38508318,0.\N,0,2.38508318,2.385083
 18,0.\H,0,1.23253009,7.5037036,0.\H,0,-1.23253009,7.5037036,0.\H,0,2.5
 0917419,5.35528741,0.\H,0,-2.50917419,5.35528741,0.\C,0,6.55507353,-0.
 70282505,0.\C,0,6.55507353,0.70282505,0.\C,0,5.3647644,-1.42385811,0.\
 C,0,4.17204132,-0.70355705,0.\C,0,4.17204132,0.70355705,0.\C,0,5.36476
 44,1.42385811,0.\C,0,2.77432121,-1.11636308,0.\C,0,2.77432121,1.116363
 08,0.\N,0,1.98231715,0.,0.\N,0,2.38508318,-2.38508318,0.\H,0,7.5037036
 ,-1.23253009,0.\H,0,7.5037036,1.23253009,0.\H,0,5.35528741,-2.50917419
 ,0.\H,0,5.35528741,2.50917419,0.\C,0,-6.55507353,0.70282505,0.\C,0,-6.
 55507353,-0.70282505,0.\C,0,-5.3647644,1.42385811,0.\C,0,-4.17204132,0
 .70355705,0.\C,0,-4.17204132,-0.70355705,0.\C,0,-5.3647644,-1.42385811
 ,0.\C,0,-2.77432121,1.11636308,0.\C,0,-2.77432121,-1.11636308,0.\N,0,-
 1.98231715,0.,0.\N,0,-2.38508318,-2.38508318,0.\H,0,-7.5037036,1.23253
 009,0.\H,0,-7.5037036,-1.23253009,0.\H,0,-5.35528741,2.50917419,0.\H,0
 ,-5.35528741,-2.50917419,0.\C,0,-0.70282505,-6.55507353,0.\C,0,0.70282
 505,-6.55507353,0.\C,0,-1.42385811,-5.3647644,0.\C,0,-0.70355705,-4.17
 204132,0.\C,0,0.70355705,-4.17204132,0.\C,0,1.42385811,-5.3647644,0.\C
 ,0,-1.11636308,-2.77432121,0.\C,0,1.11636308,-2.77432121,0.\N,0,0.,-1.
 98231715,0.\H,0,-1.23253009,-7.5037036,0.\H,0,1.23253009,-7.5037036,0.
 \H,0,-2.50917419,-5.35528741,0.\H,0,2.50917419,-5.35528741,0.\Zn,0,0.,
 0.,0.\C,0,2.45282505,6.55507353,3.4\C,0,1.04717495,6.55507353,3.4\C,0,
 3.17385811,5.3647644,3.4\C,0,2.45355705,4.17204132,3.4\C,0,1.04644295,
 4.17204132,3.4\C,0,0.32614189,5.3647644,3.4\C,0,2.86636308,2.77432121,
 3.4\C,0,0.63363692,2.77432121,3.4\N,0,1.75,1.98231715,3.4\N,0,-0.63508
 318,2.38508318,3.4\N,0,4.13508318,2.38508318,3.4\H,0,2.98253009,7.5037
 036,3.4\H,0,0.51746991,7.5037036,3.4\H,0,4.25917419,5.35528741,3.4\H,0
 ,-0.75917419,5.35528741,3.4\C,0,8.30507353,-0.70282505,3.4\C,0,8.30507
 353,0.70282505,3.4\C,0,7.1147644,-1.42385811,3.4\C,0,5.92204132,-0.703
 55705,3.4\C,0,5.92204132,0.70355705,3.4\C,0,7.1147644,1.42385811,3.4\C
 ,0,4.52432121,-1.11636308,3.4\C,0,4.52432121,1.11636308,3.4\N,0,3.7323
 1715,0.,3.4\N,0,4.13508318,-2.38508318,3.4\H,0,9.2537036,-1.23253009,3
 .4\H,0,9.2537036,1.23253009,3.4\H,0,7.10528741,-2.50917419,3.4\H,0,7.1
 0528741,2.50917419,3.4\C,0,-4.80507353,0.70282505,3.4\C,0,-4.80507353,
 -0.70282505,3.4\C,0,-3.6147644,1.42385811,3.4\C,0,-2.42204132,0.703557
 05,3.4\C,0,-2.42204132,-0.70355705,3.4\C,0,-3.6147644,-1.42385811,3.4\
 C,0,-1.02432121,1.11636308,3.4\C,0,-1.02432121,-1.11636308,3.4\N,0,-0.
 23231715,0.,3.4\N,0,-0.63508318,-2.38508318,3.4\H,0,-5.7537036,1.23253
 009,3.4\H,0,-5.7537036,-1.23253009,3.4\H,0,-3.60528741,2.50917419,3.4\
 H,0,-3.60528741,-2.50917419,3.4\C,0,1.04717495,-6.55507353,3.4\C,0,2.4
 5282505,-6.55507353,3.4\C,0,0.32614189,-5.3647644,3.4\C,0,1.04644295,-
 4.17204132,3.4\C,0,2.45355705,-4.17204132,3.4\C,0,3.17385811,-5.364764
 4,3.4\C,0,0.63363692,-2.77432121,3.4\C,0,2.86636308,-2.77432121,3.4\N,
 0,1.75,-1.98231715,3.4\H,0,0.51746991,-7.5037036,3.4\H,0,2.98253009,-7
 .5037036,3.4\H,0,-0.75917419,-5.35528741,3.4\H,0,4.25917419,-5.3552874
 1,3.4\Zn,0,1.75,0.,3.4\C,0,4.20282505,6.55507353,6.8\C,0,2.79717495,6.
 55507353,6.8\C,0,4.92385811,5.3647644,6.8\C,0,4.20355705,4.17204132,6.
 8\C,0,2.79644295,4.17204132,6.8\C,0,2.07614189,5.3647644,6.8\C,0,4.616
 36308,2.77432121,6.8\C,0,2.38363692,2.77432121,6.8\N,0,3.5,1.98231715,
 6.8\N,0,1.11491682,2.38508318,6.8\N,0,5.88508318,2.38508318,6.8\H,0,4.
 73253009,7.5037036,6.8\H,0,2.26746991,7.5037036,6.8\H,0,6.00917419,5.3
 5528741,6.8\H,0,0.99082581,5.35528741,6.8\C,0,10.05507353,-0.70282505,
 6.8\C,0,10.05507353,0.70282505,6.8\C,0,8.8647644,-1.42385811,6.8\C,0,7
 .67204132,-0.70355705,6.8\C,0,7.67204132,0.70355705,6.8\C,0,8.8647644,
 1.42385811,6.8\C,0,6.27432121,-1.11636308,6.8\C,0,6.27432121,1.1163630
 8,6.8\N,0,5.48231715,0.,6.8\N,0,5.88508318,-2.38508318,6.8\H,0,11.0037
 036,-1.23253009,6.8\H,0,11.0037036,1.23253009,6.8\H,0,8.85528741,-2.50
 917419,6.8\H,0,8.85528741,2.50917419,6.8\C,0,-3.05507353,0.70282505,6.
 8\C,0,-3.05507353,-0.70282505,6.8\C,0,-1.8647644,1.42385811,6.8\C,0,-0
 .67204132,0.70355705,6.8\C,0,-0.67204132,-0.70355705,6.8\C,0,-1.864764
 4,-1.42385811,6.8\C,0,0.72567879,1.11636308,6.8\C,0,0.72567879,-1.1163
 6308,6.8\N,0,1.51768285,0.,6.8\N,0,1.11491682,-2.38508318,6.8\H,0,-4.0
 037036,1.23253009,6.8\H,0,-4.0037036,-1.23253009,6.8\H,0,-1.85528741,2
 .50917419,6.8\H,0,-1.85528741,-2.50917419,6.8\C,0,2.79717495,-6.555073
 53,6.8\C,0,4.20282505,-6.55507353,6.8\C,0,2.07614189,-5.3647644,6.8\C,
 0,2.79644295,-4.17204132,6.8\C,0,4.20355705,-4.17204132,6.8\C,0,4.9238
 5811,-5.3647644,6.8\C,0,2.38363692,-2.77432121,6.8\C,0,4.61636308,-2.7
 7432121,6.8\N,0,3.5,-1.98231715,6.8\H,0,2.26746991,-7.5037036,6.8\H,0,
 4.73253009,-7.5037036,6.8\H,0,0.99082581,-5.35528741,6.8\H,0,6.0091741
 9,-5.35528741,6.8\Zn,0,3.5,0.,6.8\\Version=ES64L-G09RevE.01\State=1-AG
 \HF=-10321.1201751\RMSD=1.893e-09\Dipole=0.,0.,0.\Quadrupole=25.226187
 3,25.0872816,-50.3134689,0.,-1.7827487,0.\PG=C02H [O(Zn1),C2(N1.N1),SG
 H(N6Zn2),X(C96H48N16)]\\@


 At the touch of love, everyone becomves a poet.
                                -- Plato
 Job cpu time:       0 days  2 hours 53 minutes 37.1 seconds.
 File lengths (MBytes):  RWF=   2109 Int=      0 D2E=      0 Chk=    203 Scr=      1
 Normal termination of Gaussian 09 at Tue Oct 21 00:59:44 2025.
 Initial command:
 /opt/g09/l1.exe "/home/sergey/scratch/Gau-3468471.inp" -scrdir="/home/sergey/scratch/"
 Entering Link 1 = /opt/g09/l1.exe PID=   3473830.
  
 Copyright (c) 1988,1990,1992,1993,1995,1998,2003,2009,2015,
            Gaussian, Inc.  All Rights Reserved.
  
 This is part of the Gaussian(R) 09 program.  It is based on
 the Gaussian(R) 03 system (copyright 2003, Gaussian, Inc.),
 the Gaussian(R) 98 system (copyright 1998, Gaussian, Inc.),
 the Gaussian(R) 94 system (copyright 1995, Gaussian, Inc.),
 the Gaussian 92(TM) system (copyright 1992, Gaussian, Inc.),
 the Gaussian 90(TM) system (copyright 1990, Gaussian, Inc.),
 the Gaussian 88(TM) system (copyright 1988, Gaussian, Inc.),
 the Gaussian 86(TM) system (copyright 1986, Carnegie Mellon
 University), and the Gaussian 82(TM) system (copyright 1983,
 Carnegie Mellon University). Gaussian is a federally registered
 trademark of Gaussian, Inc.
  
 This software contains proprietary and confidential information,
 including trade secrets, belonging to Gaussian, Inc.
  
 This software is provided under written license and may be
 used, copied, transmitted, or stored only in accord with that
 written license.
  
 The following legend is applicable only to US Government
 contracts under FAR:
  
                    RESTRICTED RIGHTS LEGEND
  
 Use, reproduction and disclosure by the US Government is
 subject to restrictions as set forth in subparagraphs (a)
 and (c) of the Commercial Computer Software - Restricted
 Rights clause in FAR 52.227-19.
  
 Gaussian, Inc.
 340 Quinnipiac St., Bldg. 40, Wallingford CT 06492
  
  
 ---------------------------------------------------------------
 Warning -- This program may not be used in any manner that
 competes with the business of Gaussian, Inc. or will provide
 assistance to any competitor of Gaussian, Inc.  The licensee
 of this program is prohibited from giving any competitor of
 Gaussian, Inc. access to this program.  By using this program,
 the user acknowledges that Gaussian, Inc. is engaged in the
 business of creating and licensing software in the field of
 computational chemistry and represents and warrants to the
 licensee that it is not a competitor of Gaussian, Inc. and that
 it will not use this program in any manner prohibited above.
 ---------------------------------------------------------------
  

 Cite this work as:
 Gaussian 09, Revision E.01,
 M. J. Frisch, G. W. Trucks, H. B. Schlegel, G. E. Scuseria, 
 M. A. Robb, J. R. Cheeseman, G. Scalmani, V. Barone, B. Mennucci, 
 G. A. Petersson, H. Nakatsuji, M. Caricato, X. Li, H. P. Hratchian, 
 A. F. Izmaylov, J. Bloino, G. Zheng, J. L. Sonnenberg, M. Hada, 
 M. Ehara, K. Toyota, R. Fukuda, J. Hasegawa, M. Ishida, T. Nakajima, 
 Y. Honda, O. Kitao, H. Nakai, T. Vreven, J. A. Montgomery, Jr., 
 J. E. Peralta, F. Ogliaro, M. Bearpark, J. J. Heyd, E. Brothers, 
 K. N. Kudin, V. N. Staroverov, T. Keith, R. Kobayashi, J. Normand, 
 K. Raghavachari, A. Rendell, J. C. Burant, S. S. Iyengar, J. Tomasi, 
 M. Cossi, N. Rega, J. M. Millam, M. Klene, J. E. Knox, J. B. Cross, 
 V. Bakken, C. Adamo, J. Jaramillo, R. Gomperts, R. E. Stratmann, 
 O. Yazyev, A. J. Austin, R. Cammi, C. Pomelli, J. W. Ochterski, 
 R. L. Martin, K. Morokuma, V. G. Zakrzewski, G. A. Voth, 
 P. Salvador, J. J. Dannenberg, S. Dapprich, A. D. Daniels, 
 O. Farkas, J. B. Foresman, J. V. Ortiz, J. Cioslowski, 
 and D. J. Fox, Gaussian, Inc., Wallingford CT, 2013.
 
 ******************************************
 Gaussian 09:  ES64L-G09RevE.01 30-Nov-2015
                21-Oct-2025 
 ******************************************
 %chk=ZnPc3_34_17.chk
 %nprocshared=8
 Will use up to    8 processors via shared memory.
 %mem=100GB
 Default route:  MaxDisk=100GW
 ----------------------------------------------------------------------
 #p td(nstates=8) lc-blyp/gen iop(3/107=0400000000, 3/108=0400000000) g
 eom=check guess=read
 ----------------------------------------------------------------------
 1/29=2,38=1/1;
 2/12=2,40=1/2;
 3/5=7,11=9,14=-4,16=1,25=1,30=1,74=1000402,107=400000000,108=400000000,116=-2/1,2,8,3;
 4/5=1/1;
 5/5=2,38=6/2;
 8/6=1,10=1,108=8/1;
 9/41=8,42=1,70=2/14;
 6/7=2,8=2,9=2,10=2/1;
 99/5=1,9=1/99;
 Leave Link    1 at Tue Oct 21 00:59:44 2025, MaxMem= 13421772800 cpu:         0.1
 (Enter /opt/g09/l101.exe)
 -----------------------------------------------------------------
 ZnPc dimer lc-blyp(mu=0.4)/def2-tzvp(-f), monomer geom b3pw/631dp
 -----------------------------------------------------------------
 Structure from the checkpoint file:  "ZnPc3_34_17.chk"
 Charge =  0 Multiplicity = 1
 Z-Matrix found in file.
 C,0,0.70282505,6.55507353,0.
 C,0,-0.70282505,6.55507353,0.
 C,0,1.42385811,5.3647644,0.
 C,0,0.70355705,4.17204132,0.
 C,0,-0.70355705,4.17204132,0.
 C,0,-1.42385811,5.3647644,0.
 C,0,1.11636308,2.77432121,0.
 C,0,-1.11636308,2.77432121,0.
 N,0,0.,1.98231715,0.
 N,0,-2.38508318,2.38508318,0.
 N,0,2.38508318,2.38508318,0.
 H,0,1.23253009,7.5037036,0.
 H,0,-1.23253009,7.5037036,0.
 H,0,2.50917419,5.35528741,0.
 H,0,-2.50917419,5.35528741,0.
 C,0,6.55507353,-0.70282505,0.
 C,0,6.55507353,0.70282505,0.
 C,0,5.3647644,-1.42385811,0.
 C,0,4.17204132,-0.70355705,0.
 C,0,4.17204132,0.70355705,0.
 C,0,5.3647644,1.42385811,0.
 C,0,2.77432121,-1.11636308,0.
 C,0,2.77432121,1.11636308,0.
 N,0,1.98231715,0.,0.
 N,0,2.38508318,-2.38508318,0.
 H,0,7.5037036,-1.23253009,0.
 H,0,7.5037036,1.23253009,0.
 H,0,5.35528741,-2.50917419,0.
 H,0,5.35528741,2.50917419,0.
 C,0,-6.55507353,0.70282505,0.
 C,0,-6.55507353,-0.70282505,0.
 C,0,-5.3647644,1.42385811,0.
 C,0,-4.17204132,0.70355705,0.
 C,0,-4.17204132,-0.70355705,0.
 C,0,-5.3647644,-1.42385811,0.
 C,0,-2.77432121,1.11636308,0.
 C,0,-2.77432121,-1.11636308,0.
 N,0,-1.98231715,0.,0.
 N,0,-2.38508318,-2.38508318,0.
 H,0,-7.5037036,1.23253009,0.
 H,0,-7.5037036,-1.23253009,0.
 H,0,-5.35528741,2.50917419,0.
 H,0,-5.35528741,-2.50917419,0.
 C,0,-0.70282505,-6.55507353,0.
 C,0,0.70282505,-6.55507353,0.
 C,0,-1.42385811,-5.3647644,0.
 C,0,-0.70355705,-4.17204132,0.
 C,0,0.70355705,-4.17204132,0.
 C,0,1.42385811,-5.3647644,0.
 C,0,-1.11636308,-2.77432121,0.
 C,0,1.11636308,-2.77432121,0.
 N,0,0.,-1.98231715,0.
 H,0,-1.23253009,-7.5037036,0.
 H,0,1.23253009,-7.5037036,0.
 H,0,-2.50917419,-5.35528741,0.
 H,0,2.50917419,-5.35528741,0.
 Zn,0,0.,0.,0.
 C,0,2.45282505,6.55507353,3.4
 C,0,1.04717495,6.55507353,3.4
 C,0,3.17385811,5.3647644,3.4
 C,0,2.45355705,4.17204132,3.4
 C,0,1.04644295,4.17204132,3.4
 C,0,0.32614189,5.3647644,3.4
 C,0,2.86636308,2.77432121,3.4
 C,0,0.63363692,2.77432121,3.4
 N,0,1.75,1.98231715,3.4
 N,0,-0.63508318,2.38508318,3.4
 N,0,4.13508318,2.38508318,3.4
 H,0,2.98253009,7.5037036,3.4
 H,0,0.51746991,7.5037036,3.4
 H,0,4.25917419,5.35528741,3.4
 H,0,-0.75917419,5.35528741,3.4
 C,0,8.30507353,-0.70282505,3.4
 C,0,8.30507353,0.70282505,3.4
 C,0,7.1147644,-1.42385811,3.4
 C,0,5.92204132,-0.70355705,3.4
 C,0,5.92204132,0.70355705,3.4
 C,0,7.1147644,1.42385811,3.4
 C,0,4.52432121,-1.11636308,3.4
 C,0,4.52432121,1.11636308,3.4
 N,0,3.73231715,0.,3.4
 N,0,4.13508318,-2.38508318,3.4
 H,0,9.2537036,-1.23253009,3.4
 H,0,9.2537036,1.23253009,3.4
 H,0,7.10528741,-2.50917419,3.4
 H,0,7.10528741,2.50917419,3.4
 C,0,-4.80507353,0.70282505,3.4
 C,0,-4.80507353,-0.70282505,3.4
 C,0,-3.6147644,1.42385811,3.4
 C,0,-2.42204132,0.70355705,3.4
 C,0,-2.42204132,-0.70355705,3.4
 C,0,-3.6147644,-1.42385811,3.4
 C,0,-1.02432121,1.11636308,3.4
 C,0,-1.02432121,-1.11636308,3.4
 N,0,-0.23231715,0.,3.4
 N,0,-0.63508318,-2.38508318,3.4
 H,0,-5.7537036,1.23253009,3.4
 H,0,-5.7537036,-1.23253009,3.4
 H,0,-3.60528741,2.50917419,3.4
 H,0,-3.60528741,-2.50917419,3.4
 C,0,1.04717495,-6.55507353,3.4
 C,0,2.45282505,-6.55507353,3.4
 C,0,0.32614189,-5.3647644,3.4
 C,0,1.04644295,-4.17204132,3.4
 C,0,2.45355705,-4.17204132,3.4
 C,0,3.17385811,-5.3647644,3.4
 C,0,0.63363692,-2.77432121,3.4
 C,0,2.86636308,-2.77432121,3.4
 N,0,1.75,-1.98231715,3.4
 H,0,0.51746991,-7.5037036,3.4
 H,0,2.98253009,-7.5037036,3.4
 H,0,-0.75917419,-5.35528741,3.4
 H,0,4.25917419,-5.35528741,3.4
 Zn,0,1.75,0.,3.4
 C,0,4.20282505,6.55507353,6.8
 C,0,2.79717495,6.55507353,6.8
 C,0,4.92385811,5.3647644,6.8
 C,0,4.20355705,4.17204132,6.8
 C,0,2.79644295,4.17204132,6.8
 C,0,2.07614189,5.3647644,6.8
 C,0,4.61636308,2.77432121,6.8
 C,0,2.38363692,2.77432121,6.8
 N,0,3.5,1.98231715,6.8
 N,0,1.11491682,2.38508318,6.8
 N,0,5.88508318,2.38508318,6.8
 H,0,4.73253009,7.5037036,6.8
 H,0,2.26746991,7.5037036,6.8
 H,0,6.00917419,5.35528741,6.8
 H,0,0.99082581,5.35528741,6.8
 C,0,10.05507353,-0.70282505,6.8
 C,0,10.05507353,0.70282505,6.8
 C,0,8.8647644,-1.42385811,6.8
 C,0,7.67204132,-0.70355705,6.8
 C,0,7.67204132,0.70355705,6.8
 C,0,8.8647644,1.42385811,6.8
 C,0,6.27432121,-1.11636308,6.8
 C,0,6.27432121,1.11636308,6.8
 N,0,5.48231715,0.,6.8
 N,0,5.88508318,-2.38508318,6.8
 H,0,11.0037036,-1.23253009,6.8
 H,0,11.0037036,1.23253009,6.8
 H,0,8.85528741,-2.50917419,6.8
 H,0,8.85528741,2.50917419,6.8
 C,0,-3.05507353,0.70282505,6.8
 C,0,-3.05507353,-0.70282505,6.8
 C,0,-1.8647644,1.42385811,6.8
 C,0,-0.67204132,0.70355705,6.8
 C,0,-0.67204132,-0.70355705,6.8
 C,0,-1.8647644,-1.42385811,6.8
 C,0,0.72567879,1.11636308,6.8
 C,0,0.72567879,-1.11636308,6.8
 N,0,1.51768285,0.,6.8
 N,0,1.11491682,-2.38508318,6.8
 H,0,-4.0037036,1.23253009,6.8
 H,0,-4.0037036,-1.23253009,6.8
 H,0,-1.85528741,2.50917419,6.8
 H,0,-1.85528741,-2.50917419,6.8
 C,0,2.79717495,-6.55507353,6.8
 C,0,4.20282505,-6.55507353,6.8
 C,0,2.07614189,-5.3647644,6.8
 C,0,2.79644295,-4.17204132,6.8
 C,0,4.20355705,-4.17204132,6.8
 C,0,4.92385811,-5.3647644,6.8
 C,0,2.38363692,-2.77432121,6.8
 C,0,4.61636308,-2.77432121,6.8
 N,0,3.5,-1.98231715,6.8
 H,0,2.26746991,-7.5037036,6.8
 H,0,4.73253009,-7.5037036,6.8
 H,0,0.99082581,-5.35528741,6.8
 H,0,6.00917419,-5.35528741,6.8
 Zn,0,3.5,0.,6.8
 Recover connectivity data from disk.
 NAtoms=    171 NQM=      171 NQMF=       0 NMMI=      0 NMMIF=      0
                NMic=       0 NMicF=      0.
                    Isotopes and Nuclear Properties:
 (Nuclear quadrupole moments (NQMom) in fm**2, nuclear magnetic moments (NMagM)
  in nuclear magnetons)

  Atom         1           2           3           4           5           6           7           8           9          10
 IAtWgt=          12          12          12          12          12          12          12          12          14          14
 AtmWgt=  12.0000000  12.0000000  12.0000000  12.0000000  12.0000000  12.0000000  12.0000000  12.0000000  14.0030740  14.0030740
 NucSpn=           0           0           0           0           0           0           0           0           2           2
 AtZEff=  -3.6000000  -3.6000000  -3.6000000  -3.6000000  -3.6000000  -3.6000000  -3.6000000  -3.6000000  -4.5500000  -4.5500000
 NQMom=    0.0000000   0.0000000   0.0000000   0.0000000   0.0000000   0.0000000   0.0000000   0.0000000   2.0440000   2.0440000
 NMagM=    0.0000000   0.0000000   0.0000000   0.0000000   0.0000000   0.0000000   0.0000000   0.0000000   0.4037610   0.4037610
 AtZNuc=   6.0000000   6.0000000   6.0000000   6.0000000   6.0000000   6.0000000   6.0000000   6.0000000   7.0000000   7.0000000

  Atom        11          12          13          14          15          16          17          18          19          20
 IAtWgt=          14           1           1           1           1          12          12          12          12          12
 AtmWgt=  14.0030740   1.0078250   1.0078250   1.0078250   1.0078250  12.0000000  12.0000000  12.0000000  12.0000000  12.0000000
 NucSpn=           2           1           1           1           1           0           0           0           0           0
 AtZEff=  -4.5500000  -1.0000000  -1.0000000  -1.0000000  -1.0000000  -3.6000000  -3.6000000  -3.6000000  -3.6000000  -3.6000000
 NQMom=    2.0440000   0.0000000   0.0000000   0.0000000   0.0000000   0.0000000   0.0000000   0.0000000   0.0000000   0.0000000
 NMagM=    0.4037610   2.7928460   2.7928460   2.7928460   2.7928460   0.0000000   0.0000000   0.0000000   0.0000000   0.0000000
 AtZNuc=   7.0000000   1.0000000   1.0000000   1.0000000   1.0000000   6.0000000   6.0000000   6.0000000   6.0000000   6.0000000

  Atom        21          22          23          24          25          26          27          28          29          30
 IAtWgt=          12          12          12          14          14           1           1           1           1          12
 AtmWgt=  12.0000000  12.0000000  12.0000000  14.0030740  14.0030740   1.0078250   1.0078250   1.0078250   1.0078250  12.0000000
 NucSpn=           0           0           0           2           2           1           1           1           1           0
 AtZEff=  -3.6000000  -3.6000000  -3.6000000  -4.5500000  -4.5500000  -1.0000000  -1.0000000  -1.0000000  -1.0000000  -3.6000000
 NQMom=    0.0000000   0.0000000   0.0000000   2.0440000   2.0440000   0.0000000   0.0000000   0.0000000   0.0000000   0.0000000
 NMagM=    0.0000000   0.0000000   0.0000000   0.4037610   0.4037610   2.7928460   2.7928460   2.7928460   2.7928460   0.0000000
 AtZNuc=   6.0000000   6.0000000   6.0000000   7.0000000   7.0000000   1.0000000   1.0000000   1.0000000   1.0000000   6.0000000

  Atom        31          32          33          34          35          36          37          38          39          40
 IAtWgt=          12          12          12          12          12          12          12          14          14           1
 AtmWgt=  12.0000000  12.0000000  12.0000000  12.0000000  12.0000000  12.0000000  12.0000000  14.0030740  14.0030740   1.0078250
 NucSpn=           0           0           0           0           0           0           0           2           2           1
 AtZEff=  -3.6000000  -3.6000000  -3.6000000  -3.6000000  -3.6000000  -3.6000000  -3.6000000  -4.5500000  -4.5500000  -1.0000000
 NQMom=    0.0000000   0.0000000   0.0000000   0.0000000   0.0000000   0.0000000   0.0000000   2.0440000   2.0440000   0.0000000
 NMagM=    0.0000000   0.0000000   0.0000000   0.0000000   0.0000000   0.0000000   0.0000000   0.4037610   0.4037610   2.7928460
 AtZNuc=   6.0000000   6.0000000   6.0000000   6.0000000   6.0000000   6.0000000   6.0000000   7.0000000   7.0000000   1.0000000

  Atom        41          42          43          44          45          46          47          48          49          50
 IAtWgt=           1           1           1          12          12          12          12          12          12          12
 AtmWgt=   1.0078250   1.0078250   1.0078250  12.0000000  12.0000000  12.0000000  12.0000000  12.0000000  12.0000000  12.0000000
 NucSpn=           1           1           1           0           0           0           0           0           0           0
 AtZEff=  -1.0000000  -1.0000000  -1.0000000  -3.6000000  -3.6000000  -3.6000000  -3.6000000  -3.6000000  -3.6000000  -3.6000000
 NQMom=    0.0000000   0.0000000   0.0000000   0.0000000   0.0000000   0.0000000   0.0000000   0.0000000   0.0000000   0.0000000
 NMagM=    2.7928460   2.7928460   2.7928460   0.0000000   0.0000000   0.0000000   0.0000000   0.0000000   0.0000000   0.0000000
 AtZNuc=   1.0000000   1.0000000   1.0000000   6.0000000   6.0000000   6.0000000   6.0000000   6.0000000   6.0000000   6.0000000

  Atom        51          52          53          54          55          56          57          58          59          60
 IAtWgt=          12          14           1           1           1           1          64          12          12          12
 AtmWgt=  12.0000000  14.0030740   1.0078250   1.0078250   1.0078250   1.0078250  63.9291454  12.0000000  12.0000000  12.0000000
 NucSpn=           0           2           1           1           1           1           0           0           0           0
 AtZEff=  -3.6000000  -4.5500000  -1.0000000  -1.0000000  -1.0000000  -1.0000000 -25.5000000  -3.6000000  -3.6000000  -3.6000000
 NQMom=    0.0000000   2.0440000   0.0000000   0.0000000   0.0000000   0.0000000   0.0000000   0.0000000   0.0000000   0.0000000
 NMagM=    0.0000000   0.4037610   2.7928460   2.7928460   2.7928460   2.7928460   0.0000000   0.0000000   0.0000000   0.0000000
 AtZNuc=   6.0000000   7.0000000   1.0000000   1.0000000   1.0000000   1.0000000  30.0000000   6.0000000   6.0000000   6.0000000

  Atom        61          62          63          64          65          66          67          68          69          70
 IAtWgt=          12          12          12          12          12          14          14          14           1           1
 AtmWgt=  12.0000000  12.0000000  12.0000000  12.0000000  12.0000000  14.0030740  14.0030740  14.0030740   1.0078250   1.0078250
 NucSpn=           0           0           0           0           0           2           2           2           1           1
 AtZEff=  -3.6000000  -3.6000000  -3.6000000  -3.6000000  -3.6000000  -4.5500000  -4.5500000  -4.5500000  -1.0000000  -1.0000000
 NQMom=    0.0000000   0.0000000   0.0000000   0.0000000   0.0000000   2.0440000   2.0440000   2.0440000   0.0000000   0.0000000
 NMagM=    0.0000000   0.0000000   0.0000000   0.0000000   0.0000000   0.4037610   0.4037610   0.4037610   2.7928460   2.7928460
 AtZNuc=   6.0000000   6.0000000   6.0000000   6.0000000   6.0000000   7.0000000   7.0000000   7.0000000   1.0000000   1.0000000

  Atom        71          72          73          74          75          76          77          78          79          80
 IAtWgt=           1           1          12          12          12          12          12          12          12          12
 AtmWgt=   1.0078250   1.0078250  12.0000000  12.0000000  12.0000000  12.0000000  12.0000000  12.0000000  12.0000000  12.0000000
 NucSpn=           1           1           0           0           0           0           0           0           0           0
 AtZEff=  -1.0000000  -1.0000000  -3.6000000  -3.6000000  -3.6000000  -3.6000000  -3.6000000  -3.6000000  -3.6000000  -3.6000000
 NQMom=    0.0000000   0.0000000   0.0000000   0.0000000   0.0000000   0.0000000   0.0000000   0.0000000   0.0000000   0.0000000
 NMagM=    2.7928460   2.7928460   0.0000000   0.0000000   0.0000000   0.0000000   0.0000000   0.0000000   0.0000000   0.0000000
 AtZNuc=   1.0000000   1.0000000   6.0000000   6.0000000   6.0000000   6.0000000   6.0000000   6.0000000   6.0000000   6.0000000

  Atom        81          82          83          84          85          86          87          88          89          90
 IAtWgt=          14          14           1           1           1           1          12          12          12          12
 AtmWgt=  14.0030740  14.0030740   1.0078250   1.0078250   1.0078250   1.0078250  12.0000000  12.0000000  12.0000000  12.0000000
 NucSpn=           2           2           1           1           1           1           0           0           0           0
 AtZEff=  -4.5500000  -4.5500000  -1.0000000  -1.0000000  -1.0000000  -1.0000000  -3.6000000  -3.6000000  -3.6000000  -3.6000000
 NQMom=    2.0440000   2.0440000   0.0000000   0.0000000   0.0000000   0.0000000   0.0000000   0.0000000   0.0000000   0.0000000
 NMagM=    0.4037610   0.4037610   2.7928460   2.7928460   2.7928460   2.7928460   0.0000000   0.0000000   0.0000000   0.0000000
 AtZNuc=   7.0000000   7.0000000   1.0000000   1.0000000   1.0000000   1.0000000   6.0000000   6.0000000   6.0000000   6.0000000

  Atom        91          92          93          94          95          96          97          98          99         100
 IAtWgt=          12          12          12          12          14          14           1           1           1           1
 AtmWgt=  12.0000000  12.0000000  12.0000000  12.0000000  14.0030740  14.0030740   1.0078250   1.0078250   1.0078250   1.0078250
 NucSpn=           0           0           0           0           2           2           1           1           1           1
 AtZEff=  -3.6000000  -3.6000000  -3.6000000  -3.6000000  -4.5500000  -4.5500000  -1.0000000  -1.0000000  -1.0000000  -1.0000000
 NQMom=    0.0000000   0.0000000   0.0000000   0.0000000   2.0440000   2.0440000   0.0000000   0.0000000   0.0000000   0.0000000
 NMagM=    0.0000000   0.0000000   0.0000000   0.0000000   0.4037610   0.4037610   2.7928460   2.7928460   2.7928460   2.7928460
 AtZNuc=   6.0000000   6.0000000   6.0000000   6.0000000   7.0000000   7.0000000   1.0000000   1.0000000   1.0000000   1.0000000

  Atom       101         102         103         104         105         106         107         108         109         110
 IAtWgt=          12          12          12          12          12          12          12          12          14           1
 AtmWgt=  12.0000000  12.0000000  12.0000000  12.0000000  12.0000000  12.0000000  12.0000000  12.0000000  14.0030740   1.0078250
 NucSpn=           0           0           0           0           0           0           0           0           2           1
 AtZEff=  -3.6000000  -3.6000000  -3.6000000  -3.6000000  -3.6000000  -3.6000000  -3.6000000  -3.6000000  -4.5500000  -1.0000000
 NQMom=    0.0000000   0.0000000   0.0000000   0.0000000   0.0000000   0.0000000   0.0000000   0.0000000   2.0440000   0.0000000
 NMagM=    0.0000000   0.0000000   0.0000000   0.0000000   0.0000000   0.0000000   0.0000000   0.0000000   0.4037610   2.7928460
 AtZNuc=   6.0000000   6.0000000   6.0000000   6.0000000   6.0000000   6.0000000   6.0000000   6.0000000   7.0000000   1.0000000

  Atom       111         112         113         114         115         116         117         118         119         120
 IAtWgt=           1           1           1          64          12          12          12          12          12          12
 AtmWgt=   1.0078250   1.0078250   1.0078250  63.9291454  12.0000000  12.0000000  12.0000000  12.0000000  12.0000000  12.0000000
 NucSpn=           1           1           1           0           0           0           0           0           0           0
 AtZEff=  -1.0000000  -1.0000000  -1.0000000 -25.5000000  -3.6000000  -3.6000000  -3.6000000  -3.6000000  -3.6000000  -3.6000000
 NQMom=    0.0000000   0.0000000   0.0000000   0.0000000   0.0000000   0.0000000   0.0000000   0.0000000   0.0000000   0.0000000
 NMagM=    2.7928460   2.7928460   2.7928460   0.0000000   0.0000000   0.0000000   0.0000000   0.0000000   0.0000000   0.0000000
 AtZNuc=   1.0000000   1.0000000   1.0000000  30.0000000   6.0000000   6.0000000   6.0000000   6.0000000   6.0000000   6.0000000

  Atom       121         122         123         124         125         126         127         128         129         130
 IAtWgt=          12          12          14          14          14           1           1           1           1          12
 AtmWgt=  12.0000000  12.0000000  14.0030740  14.0030740  14.0030740   1.0078250   1.0078250   1.0078250   1.0078250  12.0000000
 NucSpn=           0           0           2           2           2           1           1           1           1           0
 AtZEff=  -3.6000000  -3.6000000  -4.5500000  -4.5500000  -4.5500000  -1.0000000  -1.0000000  -1.0000000  -1.0000000  -3.6000000
 NQMom=    0.0000000   0.0000000   2.0440000   2.0440000   2.0440000   0.0000000   0.0000000   0.0000000   0.0000000   0.0000000
 NMagM=    0.0000000   0.0000000   0.4037610   0.4037610   0.4037610   2.7928460   2.7928460   2.7928460   2.7928460   0.0000000
 AtZNuc=   6.0000000   6.0000000   7.0000000   7.0000000   7.0000000   1.0000000   1.0000000   1.0000000   1.0000000   6.0000000

  Atom       131         132         133         134         135         136         137         138         139         140
 IAtWgt=          12          12          12          12          12          12          12          14          14           1
 AtmWgt=  12.0000000  12.0000000  12.0000000  12.0000000  12.0000000  12.0000000  12.0000000  14.0030740  14.0030740   1.0078250
 NucSpn=           0           0           0           0           0           0           0           2           2           1
 AtZEff=  -3.6000000  -3.6000000  -3.6000000  -3.6000000  -3.6000000  -3.6000000  -3.6000000  -4.5500000  -4.5500000  -1.0000000
 NQMom=    0.0000000   0.0000000   0.0000000   0.0000000   0.0000000   0.0000000   0.0000000   2.0440000   2.0440000   0.0000000
 NMagM=    0.0000000   0.0000000   0.0000000   0.0000000   0.0000000   0.0000000   0.0000000   0.4037610   0.4037610   2.7928460
 AtZNuc=   6.0000000   6.0000000   6.0000000   6.0000000   6.0000000   6.0000000   6.0000000   7.0000000   7.0000000   1.0000000

  Atom       141         142         143         144         145         146         147         148         149         150
 IAtWgt=           1           1           1          12          12          12          12          12          12          12
 AtmWgt=   1.0078250   1.0078250   1.0078250  12.0000000  12.0000000  12.0000000  12.0000000  12.0000000  12.0000000  12.0000000
 NucSpn=           1           1           1           0           0           0           0           0           0           0
 AtZEff=  -1.0000000  -1.0000000  -1.0000000  -3.6000000  -3.6000000  -3.6000000  -3.6000000  -3.6000000  -3.6000000  -3.6000000
 NQMom=    0.0000000   0.0000000   0.0000000   0.0000000   0.0000000   0.0000000   0.0000000   0.0000000   0.0000000   0.0000000
 NMagM=    2.7928460   2.7928460   2.7928460   0.0000000   0.0000000   0.0000000   0.0000000   0.0000000   0.0000000   0.0000000
 AtZNuc=   1.0000000   1.0000000   1.0000000   6.0000000   6.0000000   6.0000000   6.0000000   6.0000000   6.0000000   6.0000000

  Atom       151         152         153         154         155         156         157         158         159         160
 IAtWgt=          12          14          14           1           1           1           1          12          12          12
 AtmWgt=  12.0000000  14.0030740  14.0030740   1.0078250   1.0078250   1.0078250   1.0078250  12.0000000  12.0000000  12.0000000
 NucSpn=           0           2           2           1           1           1           1           0           0           0
 AtZEff=  -3.6000000  -4.5500000  -4.5500000  -1.0000000  -1.0000000  -1.0000000  -1.0000000  -3.6000000  -3.6000000  -3.6000000
 NQMom=    0.0000000   2.0440000   2.0440000   0.0000000   0.0000000   0.0000000   0.0000000   0.0000000   0.0000000   0.0000000
 NMagM=    0.0000000   0.4037610   0.4037610   2.7928460   2.7928460   2.7928460   2.7928460   0.0000000   0.0000000   0.0000000
 AtZNuc=   6.0000000   7.0000000   7.0000000   1.0000000   1.0000000   1.0000000   1.0000000   6.0000000   6.0000000   6.0000000

  Atom       161         162         163         164         165         166         167         168         169         170
 IAtWgt=          12          12          12          12          12          14           1           1           1           1
 AtmWgt=  12.0000000  12.0000000  12.0000000  12.0000000  12.0000000  14.0030740   1.0078250   1.0078250   1.0078250   1.0078250
 NucSpn=           0           0           0           0           0           2           1           1           1           1
 AtZEff=  -3.6000000  -3.6000000  -3.6000000  -3.6000000  -3.6000000  -4.5500000  -1.0000000  -1.0000000  -1.0000000  -1.0000000
 NQMom=    0.0000000   0.0000000   0.0000000   0.0000000   0.0000000   2.0440000   0.0000000   0.0000000   0.0000000   0.0000000
 NMagM=    0.0000000   0.0000000   0.0000000   0.0000000   0.0000000   0.4037610   2.7928460   2.7928460   2.7928460   2.7928460
 AtZNuc=   6.0000000   6.0000000   6.0000000   6.0000000   6.0000000   7.0000000   1.0000000   1.0000000   1.0000000   1.0000000

  Atom       171
 IAtWgt=          64
 AtmWgt=  63.9291454
 NucSpn=           0
 AtZEff= -25.5000000
 NQMom=    0.0000000
 NMagM=    0.0000000
 AtZNuc=  30.0000000
 Leave Link  101 at Tue Oct 21 00:59:44 2025, MaxMem= 13421772800 cpu:         0.4
 (Enter /opt/g09/l202.exe)
 Stoichiometry    C96H48N24Zn3
 Framework group  C2H[O(Zn),C2(N.N),SGH(N6Zn2),X(C96H48N16)]
 Deg. of freedom   128
 Full point group                 C2H     NOp   4
 RotChk:  IX=0 Diff= 1.16D-15
 Largest Abelian subgroup         C2H     NOp   4
 Largest concise Abelian subgroup C2H     NOp   4
                         Standard orientation:                         
 ---------------------------------------------------------------------
 Center     Atomic      Atomic             Coordinates (Angstroms)
 Number     Number       Type             X           Y           Z
 ---------------------------------------------------------------------
      1          6           0        3.400000    1.047175    6.555074
      2          6           0        3.400000    2.452825    6.555074
      3          6           0        3.400000    0.326142    5.364764
      4          6           0        3.400000    1.046443    4.172041
      5          6           0        3.400000    2.453557    4.172041
      6          6           0        3.400000    3.173858    5.364764
      7          6           0        3.400000    0.633637    2.774321
      8          6           0        3.400000    2.866363    2.774321
      9          7           0        3.400000    1.750000    1.982317
     10          7           0        3.400000    4.135083    2.385083
     11          7           0        3.400000   -0.635083    2.385083
     12          1           0        3.400000    0.517470    7.503704
     13          1           0        3.400000    2.982530    7.503704
     14          1           0        3.400000   -0.759174    5.355287
     15          1           0        3.400000    4.259174    5.355287
     16          6           0        3.400000   -4.805074   -0.702825
     17          6           0        3.400000   -4.805074    0.702825
     18          6           0        3.400000   -3.614764   -1.423858
     19          6           0        3.400000   -2.422041   -0.703557
     20          6           0        3.400000   -2.422041    0.703557
     21          6           0        3.400000   -3.614764    1.423858
     22          6           0        3.400000   -1.024321   -1.116363
     23          6           0        3.400000   -1.024321    1.116363
     24          7           0        3.400000   -0.232317    0.000000
     25          7           0        3.400000   -0.635083   -2.385083
     26          1           0        3.400000   -5.753704   -1.232530
     27          1           0        3.400000   -5.753704    1.232530
     28          1           0        3.400000   -3.605287   -2.509174
     29          1           0        3.400000   -3.605287    2.509174
     30          6           0        3.400000    8.305074    0.702825
     31          6           0        3.400000    8.305074   -0.702825
     32          6           0        3.400000    7.114764    1.423858
     33          6           0        3.400000    5.922041    0.703557
     34          6           0        3.400000    5.922041   -0.703557
     35          6           0        3.400000    7.114764   -1.423858
     36          6           0        3.400000    4.524321    1.116363
     37          6           0        3.400000    4.524321   -1.116363
     38          7           0        3.400000    3.732317    0.000000
     39          7           0        3.400000    4.135083   -2.385083
     40          1           0        3.400000    9.253704    1.232530
     41          1           0        3.400000    9.253704   -1.232530
     42          1           0        3.400000    7.105287    2.509174
     43          1           0        3.400000    7.105287   -2.509174
     44          6           0        3.400000    2.452825   -6.555074
     45          6           0        3.400000    1.047175   -6.555074
     46          6           0        3.400000    3.173858   -5.364764
     47          6           0        3.400000    2.453557   -4.172041
     48          6           0        3.400000    1.046443   -4.172041
     49          6           0        3.400000    0.326142   -5.364764
     50          6           0        3.400000    2.866363   -2.774321
     51          6           0        3.400000    0.633637   -2.774321
     52          7           0        3.400000    1.750000   -1.982317
     53          1           0        3.400000    2.982530   -7.503704
     54          1           0        3.400000    0.517470   -7.503704
     55          1           0        3.400000    4.259174   -5.355287
     56          1           0        3.400000   -0.759174   -5.355287
     57         30           0        3.400000    1.750000    0.000000
     58          6           0        0.000000   -0.702825    6.555074
     59          6           0       -0.000000    0.702825    6.555074
     60          6           0        0.000000   -1.423858    5.364764
     61          6           0        0.000000   -0.703557    4.172041
     62          6           0       -0.000000    0.703557    4.172041
     63          6           0       -0.000000    1.423858    5.364764
     64          6           0        0.000000   -1.116363    2.774321
     65          6           0       -0.000000    1.116363    2.774321
     66          7           0       -0.000000   -0.000000    1.982317
     67          7           0       -0.000000    2.385083    2.385083
     68          7           0        0.000000   -2.385083    2.385083
     69          1           0        0.000000   -1.232530    7.503704
     70          1           0       -0.000000    1.232530    7.503704
     71          1           0        0.000000   -2.509174    5.355287
     72          1           0       -0.000000    2.509174    5.355287
     73          6           0        0.000000   -6.555074   -0.702825
     74          6           0        0.000000   -6.555074    0.702825
     75          6           0        0.000000   -5.364764   -1.423858
     76          6           0        0.000000   -4.172041   -0.703557
     77          6           0        0.000000   -4.172041    0.703557
     78          6           0        0.000000   -5.364764    1.423858
     79          6           0        0.000000   -2.774321   -1.116363
     80          6           0        0.000000   -2.774321    1.116363
     81          7           0        0.000000   -1.982317    0.000000
     82          7           0        0.000000   -2.385083   -2.385083
     83          1           0        0.000000   -7.503704   -1.232530
     84          1           0        0.000000   -7.503704    1.232530
     85          1           0        0.000000   -5.355287   -2.509174
     86          1           0        0.000000   -5.355287    2.509174
     87          6           0       -0.000000    6.555074    0.702825
     88          6           0       -0.000000    6.555074   -0.702825
     89          6           0       -0.000000    5.364764    1.423858
     90          6           0       -0.000000    4.172041    0.703557
     91          6           0       -0.000000    4.172041   -0.703557
     92          6           0       -0.000000    5.364764   -1.423858
     93          6           0       -0.000000    2.774321    1.116363
     94          6           0       -0.000000    2.774321   -1.116363
     95          7           0       -0.000000    1.982317   -0.000000
     96          7           0       -0.000000    2.385083   -2.385083
     97          1           0       -0.000000    7.503704    1.232530
     98          1           0       -0.000000    7.503704   -1.232530
     99          1           0       -0.000000    5.355287    2.509174
    100          1           0       -0.000000    5.355287   -2.509174
    101          6           0       -0.000000    0.702825   -6.555074
    102          6           0        0.000000   -0.702825   -6.555074
    103          6           0       -0.000000    1.423858   -5.364764
    104          6           0       -0.000000    0.703557   -4.172041
    105          6           0        0.000000   -0.703557   -4.172041
    106          6           0        0.000000   -1.423858   -5.364764
    107          6           0       -0.000000    1.116363   -2.774321
    108          6           0        0.000000   -1.116363   -2.774321
    109          7           0       -0.000000   -0.000000   -1.982317
    110          1           0       -0.000000    1.232530   -7.503704
    111          1           0        0.000000   -1.232530   -7.503704
    112          1           0       -0.000000    2.509174   -5.355287
    113          1           0        0.000000   -2.509174   -5.355287
    114         30           0        0.000000    0.000000    0.000000
    115          6           0       -3.400000   -2.452825    6.555074
    116          6           0       -3.400000   -1.047175    6.555074
    117          6           0       -3.400000   -3.173858    5.364764
    118          6           0       -3.400000   -2.453557    4.172041
    119          6           0       -3.400000   -1.046443    4.172041
    120          6           0       -3.400000   -0.326142    5.364764
    121          6           0       -3.400000   -2.866363    2.774321
    122          6           0       -3.400000   -0.633637    2.774321
    123          7           0       -3.400000   -1.750000    1.982317
    124          7           0       -3.400000    0.635083    2.385083
    125          7           0       -3.400000   -4.135083    2.385083
    126          1           0       -3.400000   -2.982530    7.503704
    127          1           0       -3.400000   -0.517470    7.503704
    128          1           0       -3.400000   -4.259174    5.355287
    129          1           0       -3.400000    0.759174    5.355287
    130          6           0       -3.400000   -8.305074   -0.702825
    131          6           0       -3.400000   -8.305074    0.702825
    132          6           0       -3.400000   -7.114764   -1.423858
    133          6           0       -3.400000   -5.922041   -0.703557
    134          6           0       -3.400000   -5.922041    0.703557
    135          6           0       -3.400000   -7.114764    1.423858
    136          6           0       -3.400000   -4.524321   -1.116363
    137          6           0       -3.400000   -4.524321    1.116363
    138          7           0       -3.400000   -3.732317   -0.000000
    139          7           0       -3.400000   -4.135083   -2.385083
    140          1           0       -3.400000   -9.253704   -1.232530
    141          1           0       -3.400000   -9.253704    1.232530
    142          1           0       -3.400000   -7.105287   -2.509174
    143          1           0       -3.400000   -7.105287    2.509174
    144          6           0       -3.400000    4.805074    0.702825
    145          6           0       -3.400000    4.805074   -0.702825
    146          6           0       -3.400000    3.614764    1.423858
    147          6           0       -3.400000    2.422041    0.703557
    148          6           0       -3.400000    2.422041   -0.703557
    149          6           0       -3.400000    3.614764   -1.423858
    150          6           0       -3.400000    1.024321    1.116363
    151          6           0       -3.400000    1.024321   -1.116363
    152          7           0       -3.400000    0.232317   -0.000000
    153          7           0       -3.400000    0.635083   -2.385083
    154          1           0       -3.400000    5.753704    1.232530
    155          1           0       -3.400000    5.753704   -1.232530
    156          1           0       -3.400000    3.605287    2.509174
    157          1           0       -3.400000    3.605287   -2.509174
    158          6           0       -3.400000   -1.047175   -6.555074
    159          6           0       -3.400000   -2.452825   -6.555074
    160          6           0       -3.400000   -0.326142   -5.364764
    161          6           0       -3.400000   -1.046443   -4.172041
    162          6           0       -3.400000   -2.453557   -4.172041
    163          6           0       -3.400000   -3.173858   -5.364764
    164          6           0       -3.400000   -0.633637   -2.774321
    165          6           0       -3.400000   -2.866363   -2.774321
    166          7           0       -3.400000   -1.750000   -1.982317
    167          1           0       -3.400000   -0.517470   -7.503704
    168          1           0       -3.400000   -2.982530   -7.503704
    169          1           0       -3.400000    0.759174   -5.355287
    170          1           0       -3.400000   -4.259174   -5.355287
    171         30           0       -3.400000   -1.750000   -0.000000
 ---------------------------------------------------------------------
 Rotational constants (GHZ):      0.0193343      0.0149448      0.0121441
 Leave Link  202 at Tue Oct 21 00:59:44 2025, MaxMem= 13421772800 cpu:         0.0
 (Enter /opt/g09/l301.exe)
 General basis read from cards:  (5D, 7F)
 Centers:      12     13     14     15     26     27     28     29     40     41
 Centers:      42     43     53     54     55     56     69     70     71     72
 Centers:      83     84     85     86     97     98     99    100    110    111
 Centers:     112    113    126    127    128    129    140    141    142    143
 Centers:     154    155    156    157    167    168    169    170     57    114
 Centers:     171
 def2tzvp
 ****
 Centers:       1      2      3      4      5      6      7      8     16     17
 Centers:      18     19     20     21     22     23     30     31     32     33
 Centers:      34     35     36     37     44     45     46     47     48     49
 Centers:      50     51     58     59     60     61     62     63     64     65
 Centers:      73     74     75     76     77     78     79     80     87     88
 Centers:      89     90     91     92     93     94    101    102    103    104
 Centers:     105    106    107    108    115    116    117    118    119    120
 Centers:     121    122    130    131    132    133    134    135    136    137
 Centers:     144    145    146    147    148    149    150    151    158    159
 Centers:     160    161    162    163    164    165
 S 6 1.00
     Exponent=  1.3575349682D+04 Coefficients=  2.2245814352D-04
     Exponent=  2.0352333680D+03 Coefficients=  1.7232738252D-03
     Exponent=  4.6322562359D+02 Coefficients=  8.9255715314D-03
     Exponent=  1.3120019598D+02 Coefficients=  3.5727984502D-02
     Exponent=  4.2853015891D+01 Coefficients=  1.1076259931D-01
     Exponent=  1.5584185766D+01 Coefficients=  2.4295627626D-01
 S 2 1.00
     Exponent=  6.2067138508D+00 Coefficients=  4.1440263448D-01
     Exponent=  2.5764896527D+00 Coefficients=  2.3744968655D-01
 S 1 1.00
     Exponent=  5.7696339419D-01 Coefficients=  1.0000000000D+00
 S 1 1.00
     Exponent=  2.2972831358D-01 Coefficients=  1.0000000000D+00
 S 1 1.00
     Exponent=  9.5164440028D-02 Coefficients=  1.0000000000D+00
 P 4 1.00
     Exponent=  3.4697232244D+01 Coefficients=  5.3333657805D-03
     Exponent=  7.9582622826D+00 Coefficients=  3.5864109092D-02
     Exponent=  2.3780826883D+00 Coefficients=  1.4215873329D-01
     Exponent=  8.1433208183D-01 Coefficients=  3.4270471845D-01
 P 1 1.00
     Exponent=  2.8887547253D-01 Coefficients=  4.6445822433D-01
 P 1 1.00
     Exponent=  1.0056823671D-01 Coefficients=  2.4955789874D-01
 D 1 1.00
     Exponent=  1.0970000000D+00 Coefficients=  1.0000000000D+00
 D 1 1.00
     Exponent=  3.1800000000D-01 Coefficients=  1.0000000000D+00
 ****
 Centers:       9     10     11     24     25     38     39     52     66     67
 Centers:      68     81     82     95     96    109    123    124    125    138
 Centers:     139    152    153    166
 S 6 1.00
     Exponent=  1.9730800647D+04 Coefficients=  2.1887984991D-04
     Exponent=  2.9578958745D+03 Coefficients=  1.6960708803D-03
     Exponent=  6.7322133595D+02 Coefficients=  8.7954603538D-03
     Exponent=  1.9068249494D+02 Coefficients=  3.5359382605D-02
     Exponent=  6.2295441898D+01 Coefficients=  1.1095789217D-01
     Exponent=  2.2654161182D+01 Coefficients=  2.4982972552D-01
 S 2 1.00
     Exponent=  8.9791477428D+00 Coefficients=  4.0623896148D-01
     Exponent=  3.6863002370D+00 Coefficients=  2.4338217176D-01
 S 1 1.00
     Exponent=  8.4660076805D-01 Coefficients=  1.0000000000D+00
 S 1 1.00
     Exponent=  3.3647133771D-01 Coefficients=  1.0000000000D+00
 S 1 1.00
     Exponent=  1.3647653675D-01 Coefficients=  1.0000000000D+00
 P 4 1.00
     Exponent=  4.9200380510D+01 Coefficients=  5.5552416751D-03
     Exponent=  1.1346790537D+01 Coefficients=  3.8052379723D-02
     Exponent=  3.4273972411D+00 Coefficients=  1.4953671029D-01
     Exponent=  1.1785525134D+00 Coefficients=  3.4949305230D-01
 P 1 1.00
     Exponent=  4.1642204972D-01 Coefficients=  4.5843153697D-01
 P 1 1.00
     Exponent=  1.4260826011D-01 Coefficients=  2.4428771672D-01
 D 1 1.00
     Exponent=  1.6540000000D+00 Coefficients=  1.0000000000D+00
 D 1 1.00
     Exponent=  4.6900000000D-01 Coefficients=  1.0000000000D+00
 ****
 Ernie: Thresh=  0.10000D-02 Tol=  0.10000D-05 Strict=F.
 There are   933 symmetry adapted cartesian basis functions of AG  symmetry.
 There are   856 symmetry adapted cartesian basis functions of BG  symmetry.
 There are   863 symmetry adapted cartesian basis functions of AU  symmetry.
 There are   921 symmetry adapted cartesian basis functions of BU  symmetry.
 There are   859 symmetry adapted basis functions of AG  symmetry.
 There are   799 symmetry adapted basis functions of BG  symmetry.
 There are   803 symmetry adapted basis functions of AU  symmetry.
 There are   851 symmetry adapted basis functions of BU  symmetry.
  3312 basis functions,  5619 primitive gaussians,  3573 cartesian basis functions
   441 alpha electrons      441 beta electrons
       nuclear repulsion energy     34813.2242179828 Hartrees.
 IExCor=10402 DFT=T Ex=LC-B+HF Corr=LYP ExCW=0 ScaHFX=  1.000000
 ScaDFX=  1.000000  1.000000  1.000000  1.000000 ScalE2=  1.000000  1.000000
 IRadAn=      0 IRanWt=     -1 IRanGd=            0 ICorTp=0 IEmpDi=  4
  HFx wShort=  0.000000 wLong=  0.400000 cFull=  0.000000 cShort=  0.000000 cLong=  1.000000
  DFx wShort=  0.000000 wLong=  0.400000 cFull=  0.000000 cShort=  0.000000 cLong=  1.000000
 NAtoms=  171 NActive=  171 NUniq=   46 SFac= 4.00D+00 NAtFMM=   60 NAOKFM=T Big=F
 Integral buffers will be    131072 words long.
 Raffenetti 1 integral format.
 Two-electron integral symmetry is turned on.
 Leave Link  301 at Tue Oct 21 00:59:44 2025, MaxMem= 13421772800 cpu:         0.2
 (Enter /opt/g09/l302.exe)
 NPDir=0 NMtPBC=     1 NCelOv=     1 NCel=       1 NClECP=     1 NCelD=      1
         NCelK=      1 NCelE2=     1 NClLst=     1 CellRange=     0.0.
 One-electron integrals computed using PRISM.
 One-electron integral symmetry used in STVInt
 NBasis=  3312 RedAO= T EigKep=  1.17D-06  NBF=   859   799   803   851
 NBsUse=  3308 1.00D-06 EigRej=  9.06D-07 NBFU=   859   797   801   851
 Precomputing XC quadrature grid using
 IXCGrd= 4 IRadAn=           0 IRanWt=          -1 IRanGd=           0 AccXCQ= 0.00D+00.
 Generated NRdTot=       0 NPtTot=           0 NUsed=           0 NTot=          32
 NSgBfM=  2749  2771  2773  2773  2773 MxSgAt=   171 MxSgA2=   171.
 Leave Link  302 at Tue Oct 21 00:59:51 2025, MaxMem= 13421772800 cpu:        52.6
 (Enter /opt/g09/l308.exe)
 Leave Link  308 at Tue Oct 21 00:59:53 2025, MaxMem= 13421772800 cpu:        15.1
 (Enter /opt/g09/l303.exe)
 DipDrv:  MaxL=1.
 Leave Link  303 at Tue Oct 21 00:59:54 2025, MaxMem= 13421772800 cpu:         8.6
 (Enter /opt/g09/l401.exe)
 Initial guess from the checkpoint file:  "ZnPc3_34_17.chk"
 B after Tr=     0.000000   -0.000000    0.000000
         Rot=    1.000000   -0.000000   -0.000000    0.000000 Ang=   0.00 deg.
 Guess basis will be translated and rotated to current coordinates.
 JPrj=2 DoOrth=T DoCkMO=T.
 Initial guess orbital symmetries:
       Occupied  (AG) (AG) (BU) (AG) (BU) (AG) (AG) (BU) (BU) (BU)
                 (AG) (AU) (BU) (BG) (AU) (AG) (BU) (BU) (AG) (BG)
                 (AU) (BU) (AG) (AG) (BU) (AU) (AG) (AG) (BU) (BG)
                 (AU) (BU) (AG) (AU) (BG) (AG) (BG) (AU) (BU) (BG)
                 (AU) (BU) (AG) (BG) (AU) (BG) (AU) (BU) (AG) (AG)
                 (BU) (AU) (AG) (BG) (BU) (AU) (BG) (AG) (BU) (BG)
                 (BU) (AG) (AU) (BG) (AU) (BU) (AG) (BU) (AG) (BG)
                 (AU) (BG) (AU) (BU) (AG) (AU) (AG) (BG) (BU) (BG)
                 (AU) (AG) (BU) (AU) (AG) (BG) (BU) (BU) (AG) (BG)
                 (AU) (AU) (AG) (BG) (BU) (BG) (AU) (BG) (BU) (AU)
                 (AG) (BU) (AG) (AG) (BU) (BG) (AU) (AU) (AG) (BG)
                 (BU) (AU) (AG) (BG) (BU) (BG) (BU) (AU) (AG) (AG)
                 (BU) (BG) (AU) (BU) (AG) (BG) (AU) (BU) (AG) (BG)
                 (AU) (AU) (AG) (BG) (BU) (AG) (BU) (AG) (AG) (BU)
                 (BU) (BU) (AG) (AU) (BG) (BU) (AU) (AG) (BU) (AG)
                 (BU) (AU) (AG) (BG) (BU) (AU) (AG) (BU) (AG) (BG)
                 (AU) (BG) (BU) (AG) (AU) (BG) (AU) (BU) (AG) (BU)
                 (AG) (BU) (AG) (AU) (AG) (BG) (BU) (AG) (BU) (BU)
                 (AG) (AU) (AG) (BG) (AU) (BG) (AG) (BU) (AG) (AU)
                 (BU) (BG) (AG) (BU) (AU) (AU) (BG) (BU) (AG) (BU)
                 (AG) (BU) (AU) (BG) (AG) (AU) (BG) (BG) (AU) (BG)
                 (BU) (AU) (BG) (AG) (AU) (BU) (AG) (AG) (BU) (BU)
                 (AG) (AG) (AU) (BU) (AG) (BG) (BU) (AU) (BG) (AU)
                 (AG) (BU) (BG) (AG) (AU) (BG) (BG) (AU) (BU) (AG)
                 (BG) (AU) (BU) (BG) (AU) (BG) (AG) (BU) (AG) (BU)
                 (AG) (BG) (AU) (AU) (BU) (BU) (AG) (AG) (BG) (AU)
                 (BU) (AG) (AU) (BU) (BU) (BG) (AU) (BG) (BG) (AG)
                 (AU) (BU) (AG) (BG) (BU) (AG) (AG) (AG) (BG) (AG)
                 (BU) (AU) (AU) (BG) (BU) (AG) (AG) (AU) (BU) (BG)
                 (BU) (AG) (AU) (BG) (BU) (BU) (AU) (AG) (AG) (BG)
                 (BU) (AG) (BG) (AU) (BG) (BU) (AG) (AU) (BG) (BU)
                 (AG) (BG) (AU) (BU) (AG) (BU) (AG) (AG) (AU) (BG)
                 (BG) (AG) (BU) (AU) (BU) (AU) (BG) (BG) (AG) (AU)
                 (BG) (BG) (BU) (AG) (BG) (AU) (BU) (AU) (BU) (AG)
                 (BU) (AG) (AG) (BU) (AU) (AG) (BG) (BG) (BU) (AU)
                 (AG) (AU) (BU) (AG) (BG) (AU) (BG) (BU) (AG) (AG)
                 (BU) (AU) (BG) (AU) (BU) (BU) (AG) (BU) (AU) (BG)
                 (BG) (AU) (BG) (BU) (BG) (AU) (AG) (BU) (AG) (AG)
                 (BU) (AG) (BU) (AU) (BG) (BU) (AG) (AU) (BU) (AG)
                 (BG) (AG) (AU) (BU) (AG) (BG) (BU) (AG) (AG) (AU)
                 (BU) (BG) (AG) (AU) (BU) (AU) (BG) (AU) (BG) (AU)
                 (BG) (BU) (BG) (AG) (AU) (BU) (BG) (AG) (AU) (BG)
                 (AG) (BU) (BU) (AG) (AG) (BU) (AG) (AU) (BU) (AG)
                 (AU) (BG) (BU) (AG) (AG) (BG) (BU) (BU) (AU) (BG)
                 (AU)
       Virtual   (AG) (BG) (AU) (BU) (BG) (AG) (AU) (BG) (AU) (BU)
                 (BU) (AG) (BU) (AG) (BG) (AG) (BU) (AU) (BU) (AG)
                 (BG) (AG) (AU) (BU) (BG) (BG) (AG) (AU) (BU) (AU)
                 (AG) (BG) (AG) (AG) (AU) (BU) (BU) (AG) (BU) (AG)
                 (BU) (BG) (BU) (AG) (AU) (BG) (BU) (AU) (BG) (AU)
                 (AG) (BU) (AU) (BU) (AG) (BU) (AU) (AG) (BG) (AG)
                 (BG) (BU) (AU) (BG) (AG) (BU) (AU) (BG) (BU) (AG)
                 (AU) (BG) (AG) (BG) (AU) (AG) (BU) (AU) (BG) (AG)
                 (BG) (AU) (BU) (AG) (AU) (BU) (BG) (AG) (BU) (AG)
                 (BU) (AU) (BG) (AG) (BU) (AU) (BG) (AG) (BU) (BG)
                 (AG) (AU) (BG) (BU) (AU) (BU) (BG) (AG) (AU) (BG)
                 (AU) (AU) (BG) (BU) (AU) (AG) (BG) (AG) (AU) (BG)
                 (AU) (BU) (BG) (AG) (BU) (AG) (AU) (BG) (AU) (AG)
                 (BU) (AU) (BG) (AG) (BU) (AG) (BU) (BG) (AG) (BU)
                 (AU) (BG) (BU) (AU) (BG) (AG) (BG) (AU) (BU) (BG)
                 (AU) (AG) (AU) (BG) (BU) (AG) (BU) (AU) (BU) (BG)
                 (AU) (BG) (AG) (BU) (AU) (BG) (AG) (BU) (BG) (AG)
                 (AU) (BU) (AG) (AU) (BU) (AG) (AU) (BU) (BG) (AG)
                 (BU) (AU) (BG) (AG) (BU) (AG) (BG) (BU) (AG) (AG)
                 (AU) (BU) (AU) (AG) (BU) (BG) (AG) (AG) (AU) (AG)
                 (BU) (BU) (AG) (BG) (AG) (BU) (AU) (AU) (BU) (BG)
                 (BU) (AG) (BG) (BG) (AG) (BU) (AU) (AU) (AU) (AG)
                 (BG) (BU) (AG) (BU) (AG) (BU) (BG) (AG) (AU) (BU)
                 (AU) (BG) (BG) (AU) (AG) (BU) (AU) (BG) (AG) (AU)
                 (AG) (BG) (BU) (BG) (BU) (AG) (BU) (AU) (BU) (BG)
                 (AU) (AG) (BG) (AU) (AG) (BG) (AG) (BU) (BU) (BU)
                 (AU) (AG) (BG) (AG) (BU) (BG) (BG) (AU) (AU) (BU)
                 (AG) (AU) (BG) (AG) (BU) (AG) (AU) (BG) (BU) (AG)
                 (BG) (AU) (BU) (AG) (BU) (AU) (BG) (BG) (AU) (AG)
                 (BU) (AG) (BU) (BG) (AU) (BG) (BU) (AU) (AU) (AG)
                 (BG) (AG) (BU) (AU) (BG) (BU) (AU) (AG) (BU) (BG)
                 (AU) (AG) (BU) (BU) (BG) (AU) (AG) (BG) (BG) (BU)
                 (AG) (BG) (AU) (AG) (AU) (BU) (AG) (BG) (BU) (BG)
                 (AU) (AU) (BG) (BU) (AG) (AU) (BG) (AU) (BG) (AG)
                 (BU) (BU) (AG) (AU) (AG) (BG) (BU) (BG) (AU) (AU)
                 (BU) (BG) (AU) (BU) (AU) (BG) (BU) (AG) (AG) (AG)
                 (BG) (AU) (BG) (BU) (BG) (AU) (AG) (AU) (AG) (BU)
                 (BU) (AG) (BG) (AU) (BU) (BG) (BG) (AG) (BU) (AU)
                 (BU) (BG) (AG) (AU) (AU) (AG) (BG) (AU) (BU) (BG)
                 (AG) (BU) (AU) (BU) (AG) (BG) (AG) (BU) (AU) (BG)
                 (BU) (AG) (AU) (AG) (BG) (BG) (BU) (BU) (AG) (AU)
                 (AG) (BG) (AU) (BU) (BG) (AU) (AG) (AU) (BG) (BU)
                 (AG) (BG) (AU) (BU) (BG) (AU) (BU) (AG) (AG) (AU)
                 (BU) (BG) (BU) (AG) (AU) (AG) (BG) (AG) (AU) (BU)
                 (BU) (BG) (AU) (BU) (AG) (AU) (BG) (AU) (AG) (BG)
                 (BU) (AG) (BG) (BU) (AU) (AG) (BG) (BU) (AG) (AU)
                 (BG) (AU) (AG) (BG) (BU) (AU) (AG) (BG) (BU) (BU)
                 (BG) (AU) (BU) (AU) (BG) (AG) (AG) (AU) (AU) (BG)
                 (AG) (BU) (BG) (AG) (AU) (BU) (BU) (AG) (BG) (AG)
                 (AU) (AG) (AU) (BU) (BG) (BU) (AU) (BG) (AG) (BU)
                 (BG) (BU) (AU) (AG) (BU) (BG) (AU) (AU) (BG) (AG)
                 (AU) (BG) (BG) (BU) (AG) (AU) (BG) (BU) (BU) (AG)
                 (BG) (AU) (BG) (AU) (AG) (AU) (AG) (BG) (BU) (AU)
                 (AG) (BG) (BU) (AG) (BU) (AU) (BU) (BG) (AU) (AG)
                 (BG) (AG) (BU) (AU) (AG) (BG) (AG) (AU) (BU) (BG)
                 (BU) (BU) (AU) (BG) (AG) (AG) (BU) (BG) (AU) (AG)
                 (AU) (BU) (AG) (BG) (BU) (AU) (BG) (AU) (BG) (AG)
                 (BU) (AU) (BG) (AU) (AG) (BU) (BG) (AG) (BG) (BG)
                 (AG) (AU) (BU) (AU) (BU) (BU) (BG) (AU) (AG) (BU)
                 (AG) (AU) (BG) (AU) (AG) (BG) (AU) (BU) (BG) (AU)
                 (BU) (BG) (BU) (AG) (BG) (BG) (AU) (BU) (AG) (BG)
                 (AU) (AG) (BU) (AG) (AG) (BU) (AU) (AU) (BU) (BG)
                 (BU) (AG) (AG) (BU) (AU) (AG) (BG) (BU) (AU) (BU)
                 (AG) (BG) (AU) (BU) (BG) (AG) (AU) (BG) (AU) (AG)
                 (BU) (BG) (BU) (AU) (BG) (AG) (BG) (AG) (BU) (AU)
                 (BU) (BG) (AG) (BU) (AU) (AG) (BG) (BU) (BU) (AU)
                 (AU) (AG) (BG) (BU) (AG) (BG) (BU) (AG) (AU) (BG)
                 (AG) (AG) (AU) (BG) (BU) (AU) (BG) (AU) (BG) (BG)
                 (BU) (BG) (AG) (BU) (AG) (AU) (AG) (BU) (AU) (BG)
                 (AU) (AG) (BU) (BU) (AG) (BU) (AU) (BG) (AG) (AU)
                 (BG) (BU) (AG) (BU) (AU) (AG) (BU) (AG) (BU) (AG)
                 (BG) (AG) (BU) (BG) (AU) (AG) (BG) (AU) (BU) (AG)
                 (BU) (AG) (AG) (BU) (AU) (BG) (AG) (BU) (BG) (BU)
                 (BU) (AG) (BU) (BG) (AG) (AG) (BU) (AU) (BG) (AU)
                 (BU) (BG) (BU) (AG) (AU) (BG) (AG) (BU) (AG) (BU)
                 (AU) (AG) (BG) (BU) (AU) (AU) (BU) (AG) (BU) (BG)
                 (BG) (AG) (AU) (AU) (BG) (AG) (AG) (BG) (BU) (AU)
                 (BG) (BU) (AG) (AU) (BG) (BU) (AG) (BG) (AG) (AU)
                 (BG) (AU) (AU) (BU) (BG) (AU) (BU) (AG) (BG) (AU)
                 (AG) (AU) (AG) (BU) (BG) (BU) (AG) (AU) (AG) (BG)
                 (BU) (BG) (BU) (AG) (AU) (BG) (BU) (AG) (AG) (AU)
                 (BG) (BU) (AG) (BU) (AU) (BG) (AU) (AG) (BG) (AU)
                 (BU) (BG) (AU) (AG) (BG) (AU) (BU) (BG) (BG) (AG)
                 (AU) (BU) (BG) (AU) (BU) (AU) (AG) (BU) (AG) (BU)
                 (BG) (BG) (BU) (AU) (AG) (BU) (AG) (AU) (BG) (BU)
                 (BU) (BG) (AU) (BG) (AG) (AU) (BU) (BG) (BU) (AU)
                 (AG) (BU) (BG) (AU) (AG) (AU) (BG) (AG) (BU) (AG)
                 (BG) (BG) (AU) (AU) (AG) (BG) (BU) (AU) (BG) (BU)
                 (AG) (AU) (AU) (BU) (AG) (BU) (AU) (AG) (AG) (BU)
                 (AG) (AG) (AU) (BU) (BU) (AG) (BG) (AU) (AG) (BU)
                 (BG) (AG) (BG) (BU) (AG) (BU) (BG) (AG) (BU) (AU)
                 (AG) (BU) (AU) (BG) (AG) (BG) (BU) (AU) (AG) (BG)
                 (AU) (AU) (AG) (BG) (AG) (AU) (BG) (AU) (BG) (AG)
                 (BU) (AU) (BG) (BU) (AG) (AG) (BU) (AU) (BG) (BU)
                 (BU) (BG) (AU) (BU) (AG) (AG) (BG) (AU) (BU) (BU)
                 (AU) (AG) (BG) (AG) (BU) (BG) (AU) (BG) (AG) (AU)
                 (BU) (AG) (BU) (AU) (BU) (AU) (BG) (AG) (BG) (AG)
                 (AU) (AG) (BG) (BU) (BU) (AG) (AU) (BG) (AG) (AU)
                 (BU) (BU) (AG) (BG) (AU) (BG) (AG) (BU) (BG) (BU)
                 (AU) (AG) (AU) (BU) (BG) (AG) (BU) (AG) (AU) (BG)
                 (AU) (AG) (BU) (BG) (AU) (AG) (BG) (BU) (AU) (AG)
                 (BG) (AU) (BG) (AU) (BU) (BG) (AG) (BU) (BU) (AU)
                 (AG) (BG) (AG) (BU) (AG) (AU) (BG) (AU) (BU) (AG)
                 (AU) (BG) (BU) (BG) (AU) (AG) (BG) (BU) (AU) (AG)
                 (BU) (AG) (BU) (BU) (AU) (AG) (BG) (AU) (AG) (BU)
                 (BG) (AG) (BU) (BG) (AU) (BU) (AG) (BG) (AG) (AU)
                 (BU) (AG) (AG) (BG) (AU) (BU) (BU) (AG) (BG) (BU)
                 (AU) (AG) (BU) (AU) (AG) (BU) (AU) (BG) (AU) (AG)
                 (BU) (BG) (BG) (BU) (AG) (AG) (BG) (AU) (AG) (BG)
                 (AU) (BG) (BU) (BU) (AG) (BU) (AG) (AU) (AU) (AG)
                 (BU) (BG) (BU) (AG) (AU) (BG) (AG) (BU) (AG) (AU)
                 (BG) (BU) (BG) (AU) (BU) (BG) (AG) (AU) (BU) (AG)
                 (BG) (AU) (BG) (AU) (BU) (BG) (BG) (BU) (AU) (AG)
                 (AU) (BG) (AG) (BU) (BG) (AU) (AG) (AU) (AG) (BU)
                 (BU) (BG) (AU) (AG) (BG) (AU) (BU) (BG) (BU) (AU)
                 (BG) (BU) (AG) (BG) (BU) (AG) (AU) (BU) (BG) (AG)
                 (AU) (BG) (BU) (AU) (AG) (AU) (BG) (AG) (BU) (BU)
                 (AU) (BG) (AG) (AU) (BG) (BG) (AU) (AG) (BG) (BU)
                 (AU) (BU) (BG) (AU) (AG) (AU) (BG) (BU) (AU) (AG)
                 (BU) (AG) (AU) (BG) (BU) (AG) (AU) (BG) (BG) (AG)
                 (BU) (BG) (AG) (AU) (AG) (BU) (AU) (BU) (BG) (AU)
                 (BG) (AG) (BU) (AU) (BG) (AG) (AG) (AU) (BU) (AG)
                 (BU) (AU) (BG) (AG) (BG) (AU) (AG) (BU) (BG) (AU)
                 (BU) (AG) (BU) (AU) (BG) (BG) (AU) (BU) (AG) (BU)
                 (AG) (BG) (BU) (AU) (AG) (BG) (BU) (AG) (AU) (BU)
                 (BG) (AG) (AU) (BG) (BG) (AU) (BU) (BG) (AG) (BU)
                 (BU) (AU) (BG) (AG) (AG) (BU) (BU) (BG) (AU) (AG)
                 (BG) (AG) (BU) (AG) (BU) (AU) (AG) (BG) (AU) (BU)
                 (AU) (AG) (BG) (BU) (BG) (AU) (AG) (AU) (AG) (AU)
                 (BU) (BG) (BG) (AG) (AU) (BG) (BU) (AU) (BG) (AU)
                 (AU) (BU) (BG) (BU) (AG) (AU) (AG) (BG) (BG) (AG)
                 (BG) (AU) (BU) (AU) (BG) (AG) (AU) (BU) (BG) (AG)
                 (BG) (AU) (BU) (AG) (AG) (BU) (AU) (AG) (AU) (BU)
                 (AG) (AG) (BU) (AU) (BG) (BU) (AG) (BG) (AU) (AG)
                 (BG) (AU) (BU) (AU) (BG) (BU) (AG) (AU) (AG) (BG)
                 (AU) (BG) (AU) (BU) (AU) (AU) (BG) (BG) (BG) (BU)
                 (AU) (BG) (BG) (AG) (BU) (AG) (AU) (BU) (AU) (BG)
                 (AG) (BU) (AG) (AU) (BG) (BG) (AG) (BU) (AU) (BG)
                 (AG) (BU) (AU) (AU) (BU) (BG) (AG) (BU) (BG) (AG)
                 (AU) (AG) (AU) (AG) (BU) (AG) (BU) (AU) (BU) (AG)
                 (BG) (AG) (BU) (AG) (AU) (BU) (BU) (BG) (AG) (BG)
                 (AU) (AG) (BU) (AU) (BU) (BG) (AU) (BG) (AG) (AU)
                 (AG) (AU) (BU) (BG) (AU) (BG) (AU) (BU) (BG) (AU)
                 (AG) (BU) (AU) (BU) (BG) (AG) (BG) (AG) (AG) (BU)
                 (AG) (BU) (BG) (BG) (BU) (AU) (AG) (AU) (BG) (AG)
                 (AU) (BG) (BU) (AU) (BG) (AG) (BU) (BU) (AU) (BG)
                 (BG) (AU) (AG) (AG) (BG) (AU) (BU) (AU) (BG) (BG)
                 (BU) (BG) (AU) (AG) (AU) (BU) (BG) (AU) (BG) (BU)
                 (AG) (AG) (BU) (AG) (BG) (AU) (BU) (AU) (BU) (AG)
                 (AU) (BG) (AG) (BG) (BU) (AG) (AU) (BG) (BU) (BU)
                 (AU) (AG) (AG) (BG) (AU) (BU) (AG) (AU) (BG) (BU)
                 (AU) (BG) (AU) (BG) (BG) (BU) (BG) (AU) (AG) (AU)
                 (BU) (BU) (AG) (AG) (BU) (AG) (AG) (BG) (AU) (BG)
                 (BG) (AU) (BG) (BU) (AU) (AG) (BG) (BU) (AU) (AU)
                 (BG) (BG) (BU) (AG) (AU) (BG) (AU) (BU) (AU) (BG)
                 (BG) (BU) (AG) (BU) (AU) (BG) (AU) (BU) (AG) (BU)
                 (AG) (BU) (AU) (BG) (BU) (AU) (BU) (AG) (AU) (BG)
                 (BU) (AU) (AG) (AG) (AG) (AG) (AG) (AG) (AG) (AG)
                 (AG) (AG) (AG) (AG) (AG) (AG) (AG) (AG) (AG) (AG)
                 (AG) (AG) (AG) (AG) (AG) (AG) (AG) (AG) (AG) (AG)
                 (AG) (AG) (AG) (AG) (AG) (AG) (AG) (AG) (AG) (AG)
                 (AG) (AG) (AG) (AG) (AG) (AG) (AG) (AG) (AG) (AG)
                 (AG) (AG) (AG) (AG) (AG) (AG) (AG) (AG) (AG) (AG)
                 (AG) (AG) (AG) (AG) (AG) (AG) (AG) (AG) (AG) (AG)
                 (AG) (AG) (AG) (AG) (AG) (AG) (AG) (AG) (AG) (AG)
                 (AG) (AG) (AG) (AG) (AG) (AG) (AG) (AG) (AG) (AG)
                 (AG) (AG) (AG) (AG) (AG) (AG) (AG) (AG) (AG) (AG)
                 (AG) (AG) (AG) (AG) (AG) (AG) (AG) (AG) (AG) (AG)
                 (AG) (AG) (AG) (AG) (AG) (AG) (AG) (AG) (AG) (AG)
                 (AG) (AG) (AG) (AG) (AG) (AG) (AG) (AG) (AG) (AG)
                 (AG) (AG) (AG) (AG) (AG) (AG) (AG) (AG) (AG) (AG)
                 (AG) (AG) (AG) (AG) (AG) (AG) (AG) (AG) (AG) (AG)
                 (AG) (AG) (AG) (AG) (AG) (AG) (AG) (AG) (AG) (AG)
                 (AG) (AG) (AG) (AG) (AG) (AG) (AG) (AG) (AG) (AG)
                 (AG) (AG) (AG) (AG) (AG) (AG) (AG) (AG) (AG) (AG)
                 (AG) (AG) (AG) (AG) (AG) (AG) (AG) (AG) (AG) (AG)
                 (AG) (AG) (AG) (AG) (AG) (AG) (AG) (AG) (AG) (AG)
                 (AG) (AG) (AG) (AG) (AG) (AG) (AG) (AG) (AG) (AG)
                 (AG) (AG) (AG) (AG) (AG) (AG) (AG) (AG) (AG) (AG)
                 (AG) (AG) (AG) (AG) (AG) (AG) (AG) (AG) (AG) (AG)
                 (AG) (AG) (AG) (AG) (AG) (AG) (AG) (AG) (AG) (AG)
                 (AG) (AG) (AG) (AG) (AG) (AG) (AG) (AG) (AG) (AG)
                 (AG) (AG) (AG) (AG) (AG) (AG) (AG) (AG) (AG) (AG)
                 (AG) (AG) (AG) (AG) (AG) (AG) (AG) (AG) (AG) (AG)
                 (AG) (AG) (AG) (AG) (AG) (AG) (AG) (AG) (AG) (AG)
                 (AG) (AG) (AG) (AG) (AG) (AG) (AG) (AG) (AG) (AG)
                 (AG) (AG) (AG) (AG) (AG) (AG) (AG) (AG) (AG) (AG)
                 (AG) (AG) (AG) (AG) (AG) (AG) (AG) (AG) (AG) (AG)
                 (AG) (AG) (AG) (AG) (AG) (AG) (AG) (AG) (AG) (AG)
                 (AG) (AG) (AG) (AG) (AG) (AG) (AG) (AG) (AG) (AG)
                 (AG) (AG) (AG) (AG) (AG) (AG) (AG) (AG) (AG) (BG)
                 (BG) (BG) (BG) (BG) (BG) (BG) (BG) (BG) (BG) (BG)
                 (BG) (BG) (BG) (BG) (BG) (BG) (BG) (BG) (BG) (BG)
                 (BG) (BG) (BG) (BG) (BG) (BG) (BG) (BG) (BG) (BG)
                 (BG) (BG) (BG) (BG) (BG) (BG) (BG) (BG) (BG) (BG)
                 (BG) (BG) (BG) (BG) (BG) (BG) (BG) (BG) (BG) (BG)
                 (BG) (BG) (BG) (BG) (BG) (BG) (BG) (BG) (BG) (BG)
                 (BG) (BG) (BG) (BG) (BG) (BG) (BG) (BG) (BG) (BG)
                 (BG) (BG) (BG) (BG) (BG) (BG) (BG) (BG) (BG) (BG)
                 (BG) (BG) (BG) (BG) (BG) (BG) (BG) (BG) (BG) (BG)
                 (BG) (BG) (BG) (BG) (BG) (BG) (BG) (BG) (BG) (BG)
                 (BG) (BG) (BG) (BG) (BG) (BG) (BG) (BG) (BG) (BG)
                 (BG) (BG) (BG) (BG) (BG) (BG) (BG) (BG) (BG) (BG)
                 (BG) (BG) (BG) (BG) (BG) (BG) (BG) (BG) (BG) (BG)
                 (BG) (BG) (BG) (BG) (BG) (BG) (BG) (BG) (BG) (BG)
                 (BG) (BG) (BG) (BG) (BG) (BG) (BG) (BG) (BG) (BG)
                 (BG) (BG) (BG) (BG) (BG) (BG) (BG) (BG) (BG) (BG)
                 (BG) (BG) (BG) (BG) (BG) (BG) (BG) (BG) (BG) (BG)
                 (BG) (BG) (BG) (BG) (BG) (BG) (BG) (BG) (BG) (BG)
                 (BG) (BG) (BG) (BG) (BG) (BG) (BG) (BG) (BG) (BG)
                 (BG) (BG) (BG) (BG) (BG) (BG) (BG) (BG) (BG) (BG)
                 (BG) (BG) (BG) (BG) (BG) (BG) (BG) (BG) (BG) (BG)
                 (BG) (BG) (BG) (BG) (BG) (BG) (BG) (BG) (BG) (BG)
                 (BG) (BG) (BG) (BG) (BG) (BG) (BG) (BG) (BG) (BG)
                 (BG) (BG) (BG) (BG) (BG) (BG) (BG) (BG) (BG) (BG)
                 (BG) (BG) (BG) (BG) (BG) (BG) (BG) (BG) (BG) (BG)
                 (BG) (BG) (BG) (BG) (BG) (BG) (BG) (BG) (BG) (BG)
                 (BG) (BG) (BG) (BG) (BG) (BG) (BG) (BG) (BG) (BG)
                 (BG) (BG) (BG) (BG) (BG) (BG) (BG) (BG) (BG) (BG)
                 (BG) (BG) (BG) (BG) (BG) (BG) (BG) (BG) (BG) (BG)
                 (BG) (BG) (BG) (BG) (BG) (BG) (BG) (BG) (BG) (BG)
                 (BG) (BG) (BG) (BG) (BG) (BG) (BG) (BG) (BG) (BG)
                 (BG) (BG) (AU) (AU) (AU) (AU) (AU) (AU) (AU) (AU)
                 (AU) (AU) (AU) (AU) (AU) (AU) (AU) (AU) (AU) (AU)
                 (AU) (AU) (AU) (AU) (AU) (AU) (AU) (AU) (AU) (AU)
                 (AU) (AU) (AU) (AU) (AU) (AU) (AU) (AU) (AU) (AU)
                 (AU) (AU) (AU) (AU) (AU) (AU) (AU) (AU) (AU) (AU)
                 (AU) (AU) (AU) (AU) (AU) (AU) (AU) (AU) (AU) (AU)
                 (AU) (AU) (AU) (AU) (AU) (AU) (AU) (AU) (AU) (AU)
                 (AU) (AU) (AU) (AU) (AU) (AU) (AU) (AU) (AU) (AU)
                 (AU) (AU) (AU) (AU) (AU) (AU) (AU) (AU) (AU) (AU)
                 (AU) (AU) (AU) (AU) (AU) (AU) (AU) (AU) (AU) (AU)
                 (AU) (AU) (AU) (AU) (AU) (AU) (AU) (AU) (AU) (AU)
                 (AU) (AU) (AU) (AU) (AU) (AU) (AU) (AU) (AU) (AU)
                 (AU) (AU) (AU) (AU) (AU) (AU) (AU) (AU) (AU) (AU)
                 (AU) (AU) (AU) (AU) (AU) (AU) (AU) (AU) (AU) (AU)
                 (AU) (AU) (AU) (AU) (AU) (AU) (AU) (AU) (AU) (AU)
                 (AU) (AU) (AU) (AU) (AU) (AU) (AU) (AU) (AU) (AU)
                 (AU) (AU) (AU) (AU) (AU) (AU) (AU) (AU) (AU) (AU)
                 (AU) (AU) (AU) (AU) (AU) (AU) (AU) (AU) (AU) (AU)
                 (AU) (AU) (AU) (AU) (AU) (AU) (AU) (AU) (AU) (AU)
                 (AU) (AU) (AU) (AU) (AU) (AU) (AU) (AU) (AU) (AU)
                 (AU) (AU) (AU) (AU) (AU) (AU) (AU) (AU) (AU) (AU)
                 (AU) (AU) (AU) (AU) (AU) (AU) (AU) (AU) (AU) (AU)
                 (AU) (AU) (AU) (AU) (AU) (AU) (AU) (AU) (AU) (AU)
                 (AU) (AU) (AU) (AU) (AU) (AU) (AU) (AU) (AU) (AU)
                 (AU) (AU) (AU) (AU) (AU) (AU) (AU) (AU) (AU) (AU)
                 (AU) (AU) (AU) (AU) (AU) (AU) (AU) (AU) (AU) (AU)
                 (AU) (AU) (AU) (AU) (AU) (AU) (AU) (AU) (AU) (AU)
                 (AU) (AU) (AU) (AU) (AU) (AU) (AU) (AU) (AU) (AU)
                 (AU) (AU) (AU) (AU) (AU) (AU) (AU) (AU) (AU) (AU)
                 (AU) (AU) (AU) (AU) (AU) (AU) (AU) (AU) (AU) (AU)
                 (AU) (AU) (AU) (AU) (AU) (AU) (AU) (AU) (AU) (AU)
                 (AU) (AU) (AU) (AU) (AU) (BU) (BU) (BU) (BU) (BU)
                 (BU) (BU) (BU) (BU) (BU) (BU) (BU) (BU) (BU) (BU)
                 (BU) (BU) (BU) (BU) (BU) (BU) (BU) (BU) (BU) (BU)
                 (BU) (BU) (BU) (BU) (BU) (BU) (BU) (BU) (BU) (BU)
                 (BU) (BU) (BU) (BU) (BU) (BU) (BU) (BU) (BU) (BU)
                 (BU) (BU) (BU) (BU) (BU) (BU) (BU) (BU) (BU) (BU)
                 (BU) (BU) (BU) (BU) (BU) (BU) (BU) (BU) (BU) (BU)
                 (BU) (BU) (BU) (BU) (BU) (BU) (BU) (BU) (BU) (BU)
                 (BU) (BU) (BU) (BU) (BU) (BU) (BU) (BU) (BU) (BU)
                 (BU) (BU) (BU) (BU) (BU) (BU) (BU) (BU) (BU) (BU)
                 (BU) (BU) (BU) (BU) (BU) (BU) (BU) (BU) (BU) (BU)
                 (BU) (BU) (BU) (BU) (BU) (BU) (BU) (BU) (BU) (BU)
                 (BU) (BU) (BU) (BU) (BU) (BU) (BU) (BU) (BU) (BU)
                 (BU) (BU) (BU) (BU) (BU) (BU) (BU) (BU) (BU) (BU)
                 (BU) (BU) (BU) (BU) (BU) (BU) (BU) (BU) (BU) (BU)
                 (BU) (BU) (BU) (BU) (BU) (BU) (BU) (BU) (BU) (BU)
                 (BU) (BU) (BU) (BU) (BU) (BU) (BU) (BU) (BU) (BU)
                 (BU) (BU) (BU) (BU) (BU) (BU) (BU) (BU) (BU) (BU)
                 (BU) (BU) (BU) (BU) (BU) (BU) (BU) (BU) (BU) (BU)
                 (BU) (BU) (BU) (BU) (BU) (BU) (BU) (BU) (BU) (BU)
                 (BU) (BU) (BU) (BU) (BU) (BU) (BU) (BU) (BU) (BU)
                 (BU) (BU) (BU) (BU) (BU) (BU) (BU) (BU) (BU) (BU)
                 (BU) (BU) (BU) (BU) (BU) (BU) (BU) (BU) (BU) (BU)
                 (BU) (BU) (BU) (BU) (BU) (BU) (BU) (BU) (BU) (BU)
                 (BU) (BU) (BU) (BU) (BU) (BU) (BU) (BU) (BU) (BU)
                 (BU) (BU) (BU) (BU) (BU) (BU) (BU) (BU) (BU) (BU)
                 (BU) (BU) (BU) (BU) (BU) (BU) (BU) (BU) (BU) (BU)
                 (BU) (BU) (BU) (BU) (BU) (BU) (BU) (BU) (BU) (BU)
                 (BU) (BU) (BU) (BU) (BU) (BU) (BU) (BU) (BU) (BU)
                 (BU) (BU) (BU) (BU) (BU) (BU) (BU) (BU) (BU) (BU)
                 (BU) (BU) (BU) (BU) (BU) (BU) (BU) (BU) (BU) (BU)
                 (BU) (BU) (BU) (BU) (BU) (BU) (BU) (BU) (BU) (BU)
                 (BU) (BU) (BU) (BU) (BU) (BU) (BU) (BU) (BU) (BU)
                 (BU) (BU) (BU) (BU) (BU) (BU) (BU)
 The electronic state of the initial guess is 1-AG.
 Leave Link  401 at Tue Oct 21 01:00:15 2025, MaxMem= 13421772800 cpu:       166.8
 (Enter /opt/g09/l502.exe)
 Closed shell SCF:
 Using DIIS extrapolation, IDIIS=  1040.
 Integral symmetry usage will be decided dynamically.
 IVT=    38386921 IEndB=    38386921 NGot= 13421772800 MDV= 13396172422
 LenX= 13396172422 LenY= 13383402520
 Requested convergence on RMS density matrix=1.00D-08 within 128 cycles.
 Requested convergence on MAX density matrix=1.00D-06.
 Requested convergence on             energy=1.00D-06.
 No special actions if energy rises.
 Fock matrices will be formed incrementally for  20 cycles.

 Cycle   1  Pass 1  IDiag  1:
 FoFJK:  IHMeth= 1 ICntrl=       0 DoSepK=T KAlg= 0 I1Cent=   0 FoldK=F
 IRaf=         1 NMat=   1 IRICut=       1 DoRegI=T DoRafI=F ISym2E= 1.
 FoFCou: FMM=F IPFlag=           0 FMFlag=      100000 FMFlg1=        2000
         NFxFlg=           0 DoJE=T BraDBF=F KetDBF=F FulRan=T
         wScrn=  0.000000 ICntrl=     500 IOpCl=  0 I1Cent=           0 NGrid=           0
         NMat0=    1 NMatS0=      1 NMatT0=    0 NMatD0=    1 NMtDS0=    0 NMtDT0=    0
 Petite list used in FoFCou.
 E= -10324.6786250981    
 DIIS: error= 9.40D-02 at cycle   1 NSaved=   1.
 NSaved= 1 IEnMin= 1 EnMin= -10324.6786250981     IErMin= 1 ErrMin= 9.40D-02
 ErrMax= 9.40D-02  0.00D+00 EMaxC= 1.00D-01 BMatC= 2.72D+01 BMatP= 2.72D+01
 IDIUse=3 WtCom= 6.05D-02 WtEn= 9.40D-01
 Coeff-Com:  0.100D+01
 Coeff-En:   0.100D+01
 Coeff:      0.100D+01
 Gap=     0.170 Goal=   None    Shift=    0.000
 GapD=    0.170 DampG=1.000 DampE=0.250 DampFc=0.2500 IDamp=-1.
 Damping current iteration by 2.50D-01
 RMSDP=2.04D-02 MaxDP=4.99D+00              OVMax= 3.17D-02

 Cycle   2  Pass 1  IDiag  1:
 RMSU=  9.46D-04    CP:  7.76D-01
 E= -10325.2639791020     Delta-E=       -0.585354003917 Rises=F Damp=T
 DIIS: error= 7.08D-02 at cycle   2 NSaved=   2.
 NSaved= 2 IEnMin= 2 EnMin= -10325.2639791020     IErMin= 2 ErrMin= 7.08D-02
 ErrMax= 7.08D-02  0.00D+00 EMaxC= 1.00D-01 BMatC= 1.54D+01 BMatP= 2.72D+01
 IDIUse=3 WtCom= 2.92D-01 WtEn= 7.08D-01
 Coeff-Com: -0.305D+01 0.405D+01
 Coeff-En:   0.000D+00 0.100D+01
 Coeff:     -0.891D+00 0.189D+01
 Gap=     0.168 Goal=   None    Shift=    0.000
 RMSDP=1.55D-02 MaxDP=3.76D+00 DE=-5.85D-01 OVMax= 5.98D-03

 Cycle   3  Pass 1  IDiag  1:
 RMSU=  1.02D-03    CP:  9.52D-02  3.00D+00
 E= -10327.0777491934     Delta-E=       -1.813770091452 Rises=F Damp=F
 DIIS: error= 7.78D-04 at cycle   3 NSaved=   3.
 NSaved= 3 IEnMin= 3 EnMin= -10327.0777491934     IErMin= 3 ErrMin= 7.78D-04
 ErrMax= 7.78D-04  0.00D+00 EMaxC= 1.00D-01 BMatC= 5.47D-03 BMatP= 1.54D+01
 IDIUse=3 WtCom= 9.92D-01 WtEn= 7.78D-03
 Coeff-Com: -0.153D+00 0.195D+00 0.959D+00
 Coeff-En:   0.000D+00 0.000D+00 0.100D+01
 Coeff:     -0.152D+00 0.193D+00 0.959D+00
 Gap=     0.168 Goal=   None    Shift=    0.000
 RMSDP=4.07D-04 MaxDP=4.40D-02 DE=-1.81D+00 OVMax= 4.97D-03

 Cycle   4  Pass 1  IDiag  1:
 RMSU=  3.58D-04    CP:  8.93D-02  3.00D+00  1.14D+00
 E= -10327.0810095749     Delta-E=       -0.003260381498 Rises=F Damp=F
 DIIS: error= 1.06D-03 at cycle   4 NSaved=   4.
 NSaved= 4 IEnMin= 4 EnMin= -10327.0810095749     IErMin= 3 ErrMin= 7.78D-04
 ErrMax= 1.06D-03  0.00D+00 EMaxC= 1.00D-01 BMatC= 1.62D-03 BMatP= 5.47D-03
 IDIUse=3 WtCom= 9.89D-01 WtEn= 1.06D-02
 Coeff-Com:  0.510D+00-0.682D+00 0.384D+00 0.787D+00
 Coeff-En:   0.000D+00 0.000D+00 0.000D+00 0.100D+01
 Coeff:      0.505D+00-0.674D+00 0.380D+00 0.790D+00
 Gap=     0.168 Goal=   None    Shift=    0.000
 RMSDP=5.55D-05 MaxDP=5.26D-03 DE=-3.26D-03 OVMax= 2.29D-03

 Cycle   5  Pass 1  IDiag  1:
 RMSU=  2.97D-05    CP:  8.91D-02  3.00D+00  1.15D+00  1.13D+00
 E= -10327.0815733385     Delta-E=       -0.000563763533 Rises=F Damp=F
 DIIS: error= 1.94D-04 at cycle   5 NSaved=   5.
 NSaved= 5 IEnMin= 5 EnMin= -10327.0815733385     IErMin= 5 ErrMin= 1.94D-04
 ErrMax= 1.94D-04  0.00D+00 EMaxC= 1.00D-01 BMatC= 9.69D-05 BMatP= 1.62D-03
 IDIUse=3 WtCom= 9.98D-01 WtEn= 1.94D-03
 Coeff-Com:  0.101D+00-0.135D+00 0.192D-01 0.244D+00 0.770D+00
 Coeff-En:   0.000D+00 0.000D+00 0.000D+00 0.000D+00 0.100D+01
 Coeff:      0.101D+00-0.134D+00 0.192D-01 0.244D+00 0.771D+00
 Gap=     0.168 Goal=   None    Shift=    0.000
 RMSDP=2.24D-05 MaxDP=2.08D-03 DE=-5.64D-04 OVMax= 7.45D-04

 Cycle   6  Pass 1  IDiag  1:
 RMSU=  9.52D-06    CP:  8.92D-02  3.00D+00  1.16D+00  1.18D+00  1.24D+00
 E= -10327.0816405932     Delta-E=       -0.000067254725 Rises=F Damp=F
 DIIS: error= 2.94D-05 at cycle   6 NSaved=   6.
 NSaved= 6 IEnMin= 6 EnMin= -10327.0816405932     IErMin= 6 ErrMin= 2.94D-05
 ErrMax= 2.94D-05  0.00D+00 EMaxC= 1.00D-01 BMatC= 5.47D-06 BMatP= 9.69D-05
 IDIUse=1 WtCom= 1.00D+00 WtEn= 0.00D+00
 Coeff-Com: -0.408D-02 0.560D-02-0.194D-01 0.262D-01 0.238D+00 0.753D+00
 Coeff:     -0.408D-02 0.560D-02-0.194D-01 0.262D-01 0.238D+00 0.753D+00
 Gap=     0.168 Goal=   None    Shift=    0.000
 RMSDP=6.31D-06 MaxDP=5.20D-04 DE=-6.73D-05 OVMax= 7.99D-04

 Cycle   7  Pass 1  IDiag  1:
 RMSU=  2.44D-06    CP:  8.92D-02  3.00D+00  1.16D+00  1.19D+00  1.37D+00
                    CP:  1.18D+00
 E= -10327.0816465024     Delta-E=       -0.000005909205 Rises=F Damp=F
 DIIS: error= 2.11D-05 at cycle   7 NSaved=   7.
 NSaved= 7 IEnMin= 7 EnMin= -10327.0816465024     IErMin= 7 ErrMin= 2.11D-05
 ErrMax= 2.11D-05  0.00D+00 EMaxC= 1.00D-01 BMatC= 1.87D-06 BMatP= 5.47D-06
 IDIUse=1 WtCom= 1.00D+00 WtEn= 0.00D+00
 Coeff-Com: -0.187D-01 0.249D-01-0.132D-01-0.281D-01-0.239D-02 0.394D+00
 Coeff-Com:  0.643D+00
 Coeff:     -0.187D-01 0.249D-01-0.132D-01-0.281D-01-0.239D-02 0.394D+00
 Coeff:      0.643D+00
 Gap=     0.168 Goal=   None    Shift=    0.000
 RMSDP=2.57D-06 MaxDP=1.93D-04 DE=-5.91D-06 OVMax= 3.41D-04

 Cycle   8  Pass 1  IDiag  1:
 RMSU=  1.09D-06    CP:  8.93D-02  3.00D+00  1.16D+00  1.19D+00  1.43D+00
                    CP:  1.29D+00  9.99D-01
 E= -10327.0816486896     Delta-E=       -0.000002187182 Rises=F Damp=F
 DIIS: error= 8.52D-06 at cycle   8 NSaved=   8.
 NSaved= 8 IEnMin= 8 EnMin= -10327.0816486896     IErMin= 8 ErrMin= 8.52D-06
 ErrMax= 8.52D-06  0.00D+00 EMaxC= 1.00D-01 BMatC= 2.29D-07 BMatP= 1.87D-06
 IDIUse=1 WtCom= 1.00D+00 WtEn= 0.00D+00
 Coeff-Com: -0.710D-02 0.946D-02-0.245D-02-0.173D-01-0.398D-01 0.703D-01
 Coeff-Com:  0.279D+00 0.708D+00
 Coeff:     -0.710D-02 0.946D-02-0.245D-02-0.173D-01-0.398D-01 0.703D-01
 Coeff:      0.279D+00 0.708D+00
 Gap=     0.168 Goal=   None    Shift=    0.000
 RMSDP=1.11D-06 MaxDP=7.86D-05 DE=-2.19D-06 OVMax= 2.22D-04

 Cycle   9  Pass 1  IDiag  1:
 RMSU=  4.30D-07    CP:  8.93D-02  3.00D+00  1.16D+00  1.19D+00  1.45D+00
                    CP:  1.34D+00  1.18D+00  1.03D+00
 E= -10327.0816490389     Delta-E=       -0.000000349370 Rises=F Damp=F
 DIIS: error= 3.77D-06 at cycle   9 NSaved=   9.
 NSaved= 9 IEnMin= 9 EnMin= -10327.0816490389     IErMin= 9 ErrMin= 3.77D-06
 ErrMax= 3.77D-06  0.00D+00 EMaxC= 1.00D-01 BMatC= 5.33D-08 BMatP= 2.29D-07
 IDIUse=1 WtCom= 1.00D+00 WtEn= 0.00D+00
 Coeff-Com:  0.114D-02-0.153D-02 0.200D-02-0.196D-02-0.195D-01-0.474D-01
 Coeff-Com: -0.179D-01 0.334D+00 0.751D+00
 Coeff:      0.114D-02-0.153D-02 0.200D-02-0.196D-02-0.195D-01-0.474D-01
 Coeff:     -0.179D-01 0.334D+00 0.751D+00
 Gap=     0.168 Goal=   None    Shift=    0.000
 RMSDP=4.54D-07 MaxDP=5.79D-05 DE=-3.49D-07 OVMax= 5.97D-05

 Cycle  10  Pass 1  IDiag  1:
 RMSU=  1.45D-07    CP:  8.93D-02  3.00D+00  1.16D+00  1.19D+00  1.46D+00
                    CP:  1.36D+00  1.23D+00  1.22D+00  1.15D+00
 E= -10327.0816491367     Delta-E=       -0.000000097752 Rises=F Damp=F
 DIIS: error= 2.99D-06 at cycle  10 NSaved=  10.
 NSaved=10 IEnMin=10 EnMin= -10327.0816491367     IErMin=10 ErrMin= 2.99D-06
 ErrMax= 2.99D-06  0.00D+00 EMaxC= 1.00D-01 BMatC= 1.25D-08 BMatP= 5.33D-08
 IDIUse=1 WtCom= 1.00D+00 WtEn= 0.00D+00
 Coeff-Com:  0.182D-02-0.243D-02 0.140D-02 0.202D-02-0.264D-02-0.301D-01
 Coeff-Com: -0.629D-01 0.372D-01 0.372D+00 0.684D+00
 Coeff:      0.182D-02-0.243D-02 0.140D-02 0.202D-02-0.264D-02-0.301D-01
 Coeff:     -0.629D-01 0.372D-01 0.372D+00 0.684D+00
 Gap=     0.168 Goal=   None    Shift=    0.000
 RMSDP=1.47D-07 MaxDP=1.69D-05 DE=-9.78D-08 OVMax= 5.64D-05

 Cycle  11  Pass 1  IDiag  1:
 RMSU=  8.42D-08    CP:  8.93D-02  3.00D+00  1.16D+00  1.19D+00  1.46D+00
                    CP:  1.36D+00  1.25D+00  1.27D+00  1.34D+00  1.09D+00
 E= -10327.0816491611     Delta-E=       -0.000000024447 Rises=F Damp=F
 DIIS: error= 9.47D-07 at cycle  11 NSaved=  11.
 NSaved=11 IEnMin=11 EnMin= -10327.0816491611     IErMin=11 ErrMin= 9.47D-07
 ErrMax= 9.47D-07  0.00D+00 EMaxC= 1.00D-01 BMatC= 2.08D-09 BMatP= 1.25D-08
 IDIUse=1 WtCom= 1.00D+00 WtEn= 0.00D+00
 Coeff-Com:  0.300D-03-0.398D-03-0.510D-04 0.110D-02 0.401D-02 0.492D-02
 Coeff-Com: -0.232D-01-0.752D-01-0.720D-01 0.228D+00 0.933D+00
 Coeff:      0.300D-03-0.398D-03-0.510D-04 0.110D-02 0.401D-02 0.492D-02
 Coeff:     -0.232D-01-0.752D-01-0.720D-01 0.228D+00 0.933D+00
 Gap=     0.168 Goal=   None    Shift=    0.000
 RMSDP=6.94D-08 MaxDP=7.30D-06 DE=-2.44D-08 OVMax= 5.23D-05

 Cycle  12  Pass 1  IDiag  1:
 RMSU=  4.37D-08    CP:  8.93D-02  3.00D+00  1.16D+00  1.19D+00  1.46D+00
                    CP:  1.36D+00  1.25D+00  1.28D+00  1.40D+00  1.28D+00
                    CP:  1.34D+00
 E= -10327.0816491694     Delta-E=       -0.000000008207 Rises=F Damp=F
 DIIS: error= 8.17D-07 at cycle  12 NSaved=  12.
 NSaved=12 IEnMin=12 EnMin= -10327.0816491694     IErMin=12 ErrMin= 8.17D-07
 ErrMax= 8.17D-07  0.00D+00 EMaxC= 1.00D-01 BMatC= 6.40D-10 BMatP= 2.08D-09
 IDIUse=1 WtCom= 1.00D+00 WtEn= 0.00D+00
 Coeff-Com: -0.163D-03 0.218D-03-0.232D-03 0.915D-04 0.191D-02 0.732D-02
 Coeff-Com: -0.264D-02-0.276D-01-0.835D-01-0.301D-01 0.354D+00 0.781D+00
 Coeff:     -0.163D-03 0.218D-03-0.232D-03 0.915D-04 0.191D-02 0.732D-02
 Coeff:     -0.264D-02-0.276D-01-0.835D-01-0.301D-01 0.354D+00 0.781D+00
 Gap=     0.168 Goal=   None    Shift=    0.000
 RMSDP=3.85D-08 MaxDP=3.21D-06 DE=-8.21D-09 OVMax= 3.05D-05

 Cycle  13  Pass 1  IDiag  1:
 RMSU=  1.78D-08    CP:  8.93D-02  3.00D+00  1.16D+00  1.19D+00  1.46D+00
                    CP:  1.36D+00  1.25D+00  1.29D+00  1.41D+00  1.36D+00
                    CP:  1.62D+00  1.36D+00
 E= -10327.0816491729     Delta-E=       -0.000000003551 Rises=F Damp=F
 DIIS: error= 5.63D-07 at cycle  13 NSaved=  13.
 NSaved=13 IEnMin=13 EnMin= -10327.0816491729     IErMin=13 ErrMin= 5.63D-07
 ErrMax= 5.63D-07  0.00D+00 EMaxC= 1.00D-01 BMatC= 2.99D-10 BMatP= 6.40D-10
 IDIUse=1 WtCom= 1.00D+00 WtEn= 0.00D+00
 Coeff-Com: -0.240D-03 0.320D-03-0.105D-03-0.483D-03-0.953D-03 0.223D-02
 Coeff-Com:  0.692D-02 0.277D-01-0.158D-01-0.122D+00-0.218D+00 0.361D+00
 Coeff-Com:  0.960D+00
 Coeff:     -0.240D-03 0.320D-03-0.105D-03-0.483D-03-0.953D-03 0.223D-02
 Coeff:      0.692D-02 0.277D-01-0.158D-01-0.122D+00-0.218D+00 0.361D+00
 Coeff:      0.960D+00
 Gap=     0.168 Goal=   None    Shift=    0.000
 RMSDP=3.99D-08 MaxDP=2.63D-06 DE=-3.55D-09 OVMax= 3.78D-05

 Cycle  14  Pass 1  IDiag  1:
 RMSU=  1.49D-08    CP:  8.93D-02  3.00D+00  1.16D+00  1.19D+00  1.46D+00
                    CP:  1.36D+00  1.24D+00  1.28D+00  1.42D+00  1.40D+00
                    CP:  1.84D+00  1.93D+00  1.72D+00
 E= -10327.0816491756     Delta-E=       -0.000000002743 Rises=F Damp=F
 DIIS: error= 3.73D-07 at cycle  14 NSaved=  14.
 NSaved=14 IEnMin=14 EnMin= -10327.0816491756     IErMin=14 ErrMin= 3.73D-07
 ErrMax= 3.73D-07  0.00D+00 EMaxC= 1.00D-01 BMatC= 1.34D-10 BMatP= 2.99D-10
 IDIUse=1 WtCom= 1.00D+00 WtEn= 0.00D+00
 Coeff-Com:  0.999D-05-0.139D-04 0.680D-04-0.118D-03-0.101D-02-0.223D-02
 Coeff-Com:  0.452D-03 0.238D-01 0.188D-01-0.150D-01-0.174D+00-0.240D+00
 Coeff-Com:  0.232D+00 0.116D+01
 Coeff:      0.999D-05-0.139D-04 0.680D-04-0.118D-03-0.101D-02-0.223D-02
 Coeff:      0.452D-03 0.238D-01 0.188D-01-0.150D-01-0.174D+00-0.240D+00
 Coeff:      0.232D+00 0.116D+01
 Gap=     0.168 Goal=   None    Shift=    0.000
 RMSDP=3.41D-08 MaxDP=2.13D-06 DE=-2.74D-09 OVMax= 3.43D-05

 Cycle  15  Pass 1  IDiag  1:
 RMSU=  7.44D-09    CP:  8.93D-02  3.00D+00  1.16D+00  1.19D+00  1.46D+00
                    CP:  1.36D+00  1.24D+00  1.29D+00  1.41D+00  1.44D+00
                    CP:  1.96D+00  2.43D+00  2.57D+00  1.90D+00
 E= -10327.0816491763     Delta-E=       -0.000000000662 Rises=F Damp=F
 DIIS: error= 2.68D-07 at cycle  15 NSaved=  15.
 NSaved=15 IEnMin=15 EnMin= -10327.0816491763     IErMin=15 ErrMin= 2.68D-07
 ErrMax= 2.68D-07  0.00D+00 EMaxC= 1.00D-01 BMatC= 7.21D-11 BMatP= 1.34D-10
 IDIUse=1 WtCom= 1.00D+00 WtEn= 0.00D+00
 Coeff-Com:  0.151D-03-0.201D-03 0.111D-03 0.204D-03-0.152D-03-0.280D-02
 Coeff-Com: -0.457D-02 0.441D-02 0.173D-01 0.577D-01 0.343D-03-0.372D+00
 Coeff-Com: -0.352D+00 0.778D+00 0.874D+00
 Coeff:      0.151D-03-0.201D-03 0.111D-03 0.204D-03-0.152D-03-0.280D-02
 Coeff:     -0.457D-02 0.441D-02 0.173D-01 0.577D-01 0.343D-03-0.372D+00
 Coeff:     -0.352D+00 0.778D+00 0.874D+00
 Gap=     0.168 Goal=   None    Shift=    0.000
 RMSDP=2.81D-08 MaxDP=1.78D-06 DE=-6.62D-10 OVMax= 2.98D-05

 Cycle  16  Pass 1  IDiag  1:
 RMSU=  8.78D-09    CP:  8.93D-02  3.00D+00  1.16D+00  1.19D+00  1.46D+00
                    CP:  1.36D+00  1.24D+00  1.29D+00  1.42D+00  1.48D+00
                    CP:  2.06D+00  2.78D+00  3.00D+00  2.72D+00  1.82D+00
 E= -10327.0816491758     Delta-E=        0.000000000538 Rises=F Damp=F
 DIIS: error= 1.23D-07 at cycle  16 NSaved=  16.
 NSaved=16 IEnMin=15 EnMin= -10327.0816491763     IErMin=16 ErrMin= 1.23D-07
 ErrMax= 1.23D-07  0.00D+00 EMaxC= 1.00D-01 BMatC= 1.99D-11 BMatP= 7.21D-11
 IDIUse=1 WtCom= 1.00D+00 WtEn= 0.00D+00
 Coeff-Com:  0.506D-04-0.673D-04 0.798D-05 0.124D-03 0.432D-03 0.162D-03
 Coeff-Com: -0.239D-02-0.786D-02-0.604D-02 0.336D-01 0.877D-01-0.425D-01
 Coeff-Com: -0.228D+00-0.244D+00 0.291D+00 0.112D+01
 Coeff:      0.506D-04-0.673D-04 0.798D-05 0.124D-03 0.432D-03 0.162D-03
 Coeff:     -0.239D-02-0.786D-02-0.604D-02 0.336D-01 0.877D-01-0.425D-01
 Coeff:     -0.228D+00-0.244D+00 0.291D+00 0.112D+01
 Gap=     0.168 Goal=   None    Shift=    0.000
 RMSDP=2.05D-08 MaxDP=2.25D-06 DE= 5.38D-10 OVMax= 1.97D-05

 Cycle  17  Pass 1  IDiag  1:
 RMSU=  7.51D-09    CP:  8.93D-02  3.00D+00  1.16D+00  1.19D+00  1.46D+00
                    CP:  1.36D+00  1.24D+00  1.29D+00  1.42D+00  1.50D+00
                    CP:  2.11D+00  3.00D+00  3.00D+00  3.00D+00  2.62D+00
                    CP:  2.13D+00
 E= -10327.0816491772     Delta-E=       -0.000000001448 Rises=F Damp=F
 DIIS: error= 6.01D-08 at cycle  17 NSaved=  17.
 NSaved=17 IEnMin=17 EnMin= -10327.0816491772     IErMin=17 ErrMin= 6.01D-08
 ErrMax= 6.01D-08  0.00D+00 EMaxC= 1.00D-01 BMatC= 5.00D-12 BMatP= 1.99D-11
 IDIUse=1 WtCom= 1.00D+00 WtEn= 0.00D+00
 Coeff-Com: -0.263D-04 0.352D-04-0.302D-04-0.125D-04 0.215D-03 0.926D-03
 Coeff-Com:  0.187D-03-0.390D-02-0.830D-02-0.169D-02 0.322D-01 0.844D-01
 Coeff-Com:  0.235D-01-0.317D+00-0.126D+00 0.477D+00 0.838D+00
 Coeff:     -0.263D-04 0.352D-04-0.302D-04-0.125D-04 0.215D-03 0.926D-03
 Coeff:      0.187D-03-0.390D-02-0.830D-02-0.169D-02 0.322D-01 0.844D-01
 Coeff:      0.235D-01-0.317D+00-0.126D+00 0.477D+00 0.838D+00
 Gap=     0.168 Goal=   None    Shift=    0.000
 RMSDP=7.98D-09 MaxDP=1.19D-06 DE=-1.45D-09 OVMax= 6.36D-06

 Cycle  18  Pass 1  IDiag  1:
 RMSU=  3.66D-09    CP:  8.93D-02  3.00D+00  1.16D+00  1.19D+00  1.46D+00
                    CP:  1.36D+00  1.24D+00  1.29D+00  1.43D+00  1.51D+00
                    CP:  2.12D+00  3.00D+00  3.00D+00  3.00D+00  2.97D+00
                    CP:  2.60D+00  1.56D+00
 E= -10327.0816491757     Delta-E=        0.000000001528 Rises=F Damp=F
 DIIS: error= 3.10D-08 at cycle  18 NSaved=  18.
 NSaved=18 IEnMin=17 EnMin= -10327.0816491772     IErMin=18 ErrMin= 3.10D-08
 ErrMax= 3.10D-08  0.00D+00 EMaxC= 1.00D-01 BMatC= 1.93D-12 BMatP= 5.00D-12
 IDIUse=1 WtCom= 1.00D+00 WtEn= 0.00D+00
 Coeff-Com: -0.309D-04 0.412D-04-0.177D-04-0.480D-04-0.487D-04 0.422D-03
 Coeff-Com:  0.827D-03 0.741D-03-0.203D-02-0.111D-01-0.153D-01 0.511D-01
 Coeff-Com:  0.953D-01-0.746D-01-0.170D+00-0.168D+00 0.422D+00 0.870D+00
 Coeff:     -0.309D-04 0.412D-04-0.177D-04-0.480D-04-0.487D-04 0.422D-03
 Coeff:      0.827D-03 0.741D-03-0.203D-02-0.111D-01-0.153D-01 0.511D-01
 Coeff:      0.953D-01-0.746D-01-0.170D+00-0.168D+00 0.422D+00 0.870D+00
 Gap=     0.168 Goal=   None    Shift=    0.000
 RMSDP=6.83D-09 MaxDP=1.17D-06 DE= 1.53D-09 OVMax= 3.75D-06

 Cycle  19  Pass 1  IDiag  1:
 RMSU=  2.74D-09    CP:  8.93D-02  3.00D+00  1.16D+00  1.19D+00  1.46D+00
                    CP:  1.36D+00  1.24D+00  1.29D+00  1.43D+00  1.52D+00
                    CP:  2.13D+00  3.00D+00  3.00D+00  3.00D+00  3.00D+00
                    CP:  3.00D+00  2.01D+00  1.90D+00
 E= -10327.0816491764     Delta-E=       -0.000000000742 Rises=F Damp=F
 DIIS: error= 1.16D-08 at cycle  19 NSaved=  19.
 NSaved=19 IEnMin=17 EnMin= -10327.0816491772     IErMin=19 ErrMin= 1.16D-08
 ErrMax= 1.16D-08  0.00D+00 EMaxC= 1.00D-01 BMatC= 3.25D-13 BMatP= 1.93D-12
 IDIUse=1 WtCom= 1.00D+00 WtEn= 0.00D+00
 Coeff-Com: -0.427D-05 0.566D-05 0.192D-05-0.158D-04-0.846D-04-0.703D-04
 Coeff-Com:  0.250D-03 0.145D-02 0.171D-02-0.402D-02-0.167D-01-0.380D-02
 Coeff-Com:  0.384D-01 0.575D-01-0.392D-01-0.202D+00-0.461D-01 0.356D+00
 Coeff-Com:  0.857D+00
 Coeff:     -0.427D-05 0.566D-05 0.192D-05-0.158D-04-0.846D-04-0.703D-04
 Coeff:      0.250D-03 0.145D-02 0.171D-02-0.402D-02-0.167D-01-0.380D-02
 Coeff:      0.384D-01 0.575D-01-0.392D-01-0.202D+00-0.461D-01 0.356D+00
 Coeff:      0.857D+00
 Gap=     0.168 Goal=   None    Shift=    0.000
 RMSDP=5.10D-09 MaxDP=8.29D-07 DE=-7.42D-10 OVMax= 1.19D-06

 SCF Done:  E(RLC-B+HF-LYP) =  -10327.0816492     A.U. after   19 cycles
            NFock= 19  Conv=0.51D-08     -V/T= 2.0026
 KE= 1.030012072115D+04 PE=-9.402936543141D+04 EE= 3.858893884310D+04
 Leave Link  502 at Tue Oct 21 03:33:50 2025, MaxMem= 13421772800 cpu:     73694.1
 (Enter /opt/g09/l801.exe)
 ExpMin= 4.78D-02 ExpMax= 4.06D+05 ExpMxC= 3.92D+03 IAcc=3 IRadAn=         5 AccDes= 0.00D+00
 HarFok:  IExCor=  205 AccDes= 0.00D+00 IRadAn=         5 IDoV=-2 UseB2=F ITyADJ=14
 ICtDFT= 12500011 ScaDFX=  1.000000  1.000000  1.000000  1.000000
 Largest valence mixing into a core orbital is  2.97D-04
 Largest core mixing into a valence orbital is  5.18D-05
 Range of M.O.s used for correlation:   148  3308
 NBasis=  3312 NAE=   441 NBE=   441 NFC=   147 NFV=     0
 NROrb=   3161 NOA=   294 NOB=   294 NVA=  2867 NVB=  2867

 **** Warning!!: The largest alpha MO coefficient is  0.39087705D+02

 Leave Link  801 at Tue Oct 21 03:33:51 2025, MaxMem= 13421772800 cpu:         6.7
 (Enter /opt/g09/l914.exe)
 RHF ground state
 MDV= 13421772800 DFT=T DoStab=F Mixed=T DoRPA=T DoScal=F NonHer=T
 Would need an additional      37611359400000 words for in-memory AO integral storage.
 Making orbital integer symmetry assigments:
 Orbital symmetries:
       Occupied  (AG) (BU) (AG) (AG) (BU) (AG) (AG) (BU) (BU) (AG)
                 (BU) (BG) (AU) (BU) (AU) (BU) (AG) (BU) (AG) (BG)
                 (AU) (AG) (BU) (AG) (BU) (AG) (AU) (BG) (AU) (BU)
                 (AG) (BG) (AU) (BU) (AG) (BG) (AU) (BU) (AG) (AU)
                 (BG) (AG) (BU) (BG) (AU) (BU) (AG) (BG) (AU) (BU)
                 (AG) (AU) (BG) (AG) (BU) (BG) (AU) (BU) (AG) (BG)
                 (BU) (AU) (AG) (BU) (AG) (AU) (BG) (BU) (AG) (AU)
                 (BG) (BU) (AG) (BG) (AU) (BG) (AU) (BU) (AG) (BG)
                 (AU) (BU) (AG) (AG) (BU) (AU) (BG) (BU) (AG) (BG)
                 (AU) (BU) (AG) (BG) (AU) (AU) (AG) (AG) (AU) (BU)
                 (BG) (AG) (AU) (BU) (BG) (BG) (BU) (BG) (AU) (BU)
                 (AG) (BG) (BU) (AU) (AG) (AU) (AG) (BU) (BG) (BG)
                 (AU) (BU) (AG) (BU) (AG) (AU) (AG) (BG) (AU) (BG)
                 (BU) (BU) (AG) (AU) (BG) (BU) (AG) (AG) (AG) (BU)
                 (BU) (AG) (BU) (BG) (AU) (BU) (AU) (AG) (BU) (AG)
                 (BU) (AU) (AG) (BG) (BU) (AU) (AG) (BU) (AG) (BG)
                 (AU) (BG) (BU) (AG) (AU) (BG) (AU) (BU) (AG) (BU)
                 (AG) (BU) (AG) (AU) (AG) (BG) (BU) (AG) (BU) (BU)
                 (AG) (AU) (AG) (BG) (AU) (BG) (AG) (BU) (AU) (AG)
                 (BG) (BU) (AG) (BU) (AU) (AU) (BG) (BU) (AG) (BU)
                 (AG) (BU) (AU) (BG) (AG) (AU) (BG) (BG) (AU) (BG)
                 (BU) (AU) (BG) (AG) (AU) (BU) (AG) (AG) (BU) (BU)
                 (AG) (AG) (AU) (BU) (BG) (AG) (BU) (AU) (BG) (AU)
                 (BG) (AG) (BU) (AG) (AU) (BG) (BU) (AG) (BG) (AU)
                 (AU) (BU) (BG) (BG) (AU) (BG) (AG) (BU) (AG) (BU)
                 (BG) (AG) (AU) (AU) (BU) (BU) (AG) (AG) (BG) (AU)
                 (BU) (AG) (AU) (BU) (BU) (BG) (AG) (AU) (BU) (BG)
                 (AU) (AG) (BG) (BG) (BU) (AG) (AG) (AG) (BG) (BU)
                 (AG) (AU) (AG) (AU) (BG) (BU) (AG) (BG) (AU) (BU)
                 (BU) (AG) (AU) (BG) (BU) (AU) (BU) (AG) (BG) (AG)
                 (BU) (BG) (AU) (AG) (BG) (AU) (BG) (BG) (BU) (AG)
                 (BU) (AU) (AG) (BU) (AG) (BU) (AG) (AG) (AU) (BG)
                 (BG) (AG) (BU) (AU) (BU) (AU) (BG) (BG) (AG) (BG)
                 (AU) (BU) (BG) (AG) (BG) (AU) (BU) (AU) (BU) (AG)
                 (BU) (AG) (AG) (BU) (AU) (AG) (BG) (BG) (BU) (AU)
                 (AG) (AU) (BU) (AG) (BG) (AU) (BG) (BU) (AG) (AG)
                 (AU) (BG) (BU) (AU) (BU) (BU) (AG) (AU) (BU) (BG)
                 (BG) (AU) (BU) (BG) (AU) (BG) (AG) (BU) (AG) (AG)
                 (BU) (AG) (BU) (AU) (BG) (BU) (AU) (AG) (BU) (AG)
                 (BG) (AG) (AU) (BU) (AG) (BG) (BU) (AG) (AG) (AU)
                 (BU) (BG) (AG) (AU) (BU) (AU) (BG) (AU) (BG) (BG)
                 (AU) (BU) (BG) (AG) (AU) (BG) (BU) (AG) (AU) (BU)
                 (AG) (AG) (AG) (BG) (BU) (BU) (AG) (AU) (BU) (AU)
                 (AG) (BG) (BU) (AG) (AG) (BU) (BG) (BU) (AU) (BG)
                 (AU)
       Virtual   (AG) (BG) (AU) (BU) (BG) (AG) (AU) (BG) (BU) (AU)
                 (BU) (AG) (AG) (BU) (BG) (AG) (BU) (AU) (AG) (BU)
                 (BG) (BU) (AG) (AG) (AU) (BU) (AU) (BG) (AG) (AU)
                 (BG) (AG) (BU) (BG) (AG) (BG) (AU) (BU) (AG) (AU)
                 (BU) (BG) (AG) (BU) (AU) (BU) (AG) (BU) (BU) (BG)
                 (AG) (AG) (AU) (BU) (BG) (AU) (AG) (BU) (AU) (AG)
                 (BG) (BU) (AU) (BG) (AG) (AU) (BU) (BG) (BG) (AU)
                 (BU) (AG) (BU) (BG) (AU) (AU) (AG) (BU) (AG) (BG)
                 (BU) (BG) (AG) (AU) (AG) (BU) (AU) (AG) (AG) (AU)
                 (AG) (BU) (BG) (AU) (BU) (BG) (BU) (AG) (BG) (AG)
                 (BU) (BG) (AU) (AG) (BU) (BG) (AU) (BU) (AG) (AU)
                 (BG) (AU) (AG) (BG) (BU) (AG) (BG) (BU) (BU) (AU)
                 (AG) (BU) (BG) (AG) (AG) (AU) (BG) (BU) (AU) (AG)
                 (AU) (BG) (BU) (AU) (BG) (BG) (AG) (AU) (AG) (BU)
                 (AU) (BU) (BG) (AG) (AU) (BU) (BG) (AU) (AG) (BU)
                 (AG) (BG) (AU) (AG) (BU) (AU) (BU) (AG) (BU) (AU)
                 (AG) (BG) (BG) (AG) (AU) (AU) (BU) (AG) (BG) (BU)
                 (BG) (AU) (BG) (AG) (AG) (AU) (BU) (BG) (BU) (AG)
                 (AU) (BU) (BG) (AU) (AG) (BG) (AU) (BG) (AG) (BU)
                 (BG) (BU) (AU) (BG) (BU) (AU) (AG) (BG) (AG) (BU)
                 (AU) (AG) (BG) (BU) (AG) (BU) (AU) (BG) (AU) (BU)
                 (BG) (AU) (AG) (AU) (BG) (AG) (BU) (BG) (BU) (AG)
                 (AG) (BU) (AU) (AU) (BG) (BU) (AG) (BG) (AG) (BU)
                 (BU) (BG) (BU) (AG) (AU) (BU) (AG) (AU) (BU) (AG)
                 (AG) (BG) (BU) (AU) (AG) (BU) (BG) (BU) (AG) (AG)
                 (AU) (BU) (AG) (BU) (BG) (AU) (AG) (BG) (BG) (BU)
                 (AU) (AG) (AU) (BU) (AG) (AU) (BG) (AG) (AU) (BU)
                 (AU) (BU) (AG) (BG) (AG) (BG) (AU) (AG) (BU) (AU)
                 (AG) (BU) (BG) (AU) (AG) (BU) (BG) (AG) (BU) (BG)
                 (BG) (AG) (BU) (BU) (AU) (BU) (AU) (AG) (BU) (AG)
                 (BG) (AU) (AG) (BU) (BG) (AG) (BG) (AU) (AG) (AU)
                 (BU) (AG) (BU) (BG) (AG) (AU) (AU) (BG) (BU) (AU)
                 (BG) (AG) (BU) (AG) (AU) (BU) (BG) (AG) (BU) (BG)
                 (BU) (BG) (AU) (AG) (BU) (BU) (BG) (BG) (AU) (AU)
                 (AG) (BU) (AG) (BG) (AU) (AU) (BG) (AU) (AG) (BG)
                 (AG) (BU) (AU) (AG) (BU) (BG) (BG) (BU) (AG) (AU)
                 (BG) (BG) (AG) (BU) (AU) (AG) (BU) (AG) (BU) (BG)
                 (BU) (AU) (BG) (BU) (AU) (AG) (BU) (BG) (BG) (AU)
                 (AG) (AU) (BU) (AU) (BG) (BU) (AU) (AG) (BU) (AU)
                 (BG) (AG) (BU) (BG) (AG) (AU) (AU) (BU) (BG) (AG)
                 (AU) (BU) (AU) (BG) (AG) (AG) (BG) (BU) (BG) (AU)
                 (AG) (BU) (BG) (BU) (BG) (AG) (BU) (AU) (BG) (AU)
                 (AU) (AG) (BG) (AU) (BG) (BG) (BU) (AU) (AG) (AU)
                 (AG) (BU) (AU) (BU) (BG) (AG) (BU) (BG) (AG) (AU)
                 (BG) (BG) (BU) (AG) (AU) (BG) (AU) (BU) (AU) (BG)
                 (BG) (AG) (AU) (BU) (BU) (BG) (AG) (AU) (BU) (AG)
                 (BG) (BU) (AG) (AU) (BG) (BU) (AU) (AG) (BU) (BG)
                 (AU) (AG) (BU) (AU) (AG) (BG) (BG) (BU) (BG) (AG)
                 (BU) (AU) (AG) (AU) (AG) (BU) (AU) (BG) (BU) (BG)
                 (AU) (AG) (AU) (BG) (BU) (AG) (AG) (BG) (AU) (BG)
                 (AU) (BU) (BU) (BG) (AG) (AG) (AU) (BU) (BU) (BG)
                 (AG) (AU) (BG) (BU) (AG) (AU) (AG) (BU) (AG) (BU)
                 (BG) (AG) (BG) (BU) (AU) (AU) (AG) (BU) (BG) (AU)
                 (AG) (BU) (AU) (AG) (BG) (BU) (AG) (AU) (BG) (AU)
                 (BU) (AU) (BG) (AG) (BU) (BU) (AU) (AG) (BG) (AU)
                 (AG) (BG) (BU) (BG) (AG) (AG) (BU) (AU) (BG) (AG)
                 (AU) (BU) (AG) (AU) (BU) (BG) (AU) (BG) (BU) (AG)
                 (BU) (BG) (AG) (AU) (AU) (BU) (BG) (AG) (BG) (BU)
                 (AG) (BG) (BU) (AU) (BU) (AG) (AG) (BG) (AG) (BU)
                 (AU) (BG) (AG) (BU) (AG) (AU) (BU) (BU) (BG) (AU)
                 (BG) (AU) (BU) (AG) (AU) (BU) (BG) (AU) (AG) (AG)
                 (BU) (AU) (BG) (BG) (BG) (AG) (BU) (BU) (AG) (AG)
                 (BG) (BU) (AU) (AG) (AU) (BG) (AG) (BG) (BG) (AU)
                 (BU) (AU) (BG) (BU) (AG) (BU) (AU) (BU) (BG) (BU)
                 (AG) (AU) (BG) (AU) (BU) (AU) (BG) (AG) (BU) (AU)
                 (BG) (AG) (BG) (AG) (AU) (AG) (BG) (BU) (AU) (BG)
                 (AG) (AG) (BU) (AU) (BU) (AU) (AU) (AG) (BG) (BU)
                 (BU) (BG) (AG) (AU) (BG) (BU) (AG) (AU) (AG) (BG)
                 (AU) (BU) (AU) (AG) (BU) (BG) (BG) (AG) (BU) (AU)
                 (AG) (AU) (BU) (AU) (BG) (BG) (AG) (BG) (BU) (BU)
                 (AG) (BU) (BU) (BG) (AU) (AG) (AU) (BU) (AG) (BG)
                 (BU) (BG) (AU) (BU) (AG) (AG) (BG) (AU) (AU) (BU)
                 (AG) (AG) (BU) (BG) (AG) (BG) (BU) (AU) (AG) (AU)
                 (BU) (AG) (AU) (BG) (BU) (BU) (AG) (AG) (BG) (AU)
                 (BU) (BG) (BU) (AU) (BU) (AG) (BG) (AG) (BU) (BG)
                 (AU) (AG) (BU) (AG) (BG) (AU) (AG) (BG) (BU) (AU)
                 (BG) (BU) (BG) (AU) (AG) (BG) (AU) (BU) (AG) (AU)
                 (BU) (BU) (BG) (AG) (AU) (AG) (BU) (AU) (AU) (BG)
                 (AG) (BG) (AG) (AU) (BG) (BU) (BU) (BG) (AG) (BU)
                 (AU) (BU) (AU) (AG) (BG) (AG) (AG) (BU) (BU) (BG)
                 (AG) (AU) (BG) (BU) (BG) (BU) (AG) (AU) (AU) (AG)
                 (BG) (AG) (BU) (AG) (BU) (BU) (BG) (AU) (AG) (BU)
                 (AU) (AU) (BG) (AG) (BG) (BU) (AU) (AG) (BU) (BG)
                 (AU) (BG) (AU) (AG) (AU) (AG) (BU) (BG) (BU) (BG)
                 (AG) (AG) (BG) (AU) (BU) (BU) (AU) (BG) (AG) (AU)
                 (BU) (AG) (BG) (BU) (AG) (AU) (BU) (AG) (AU) (AG)
                 (BG) (BU) (AU) (BG) (BU) (AG) (BG) (AU) (BU) (AG)
                 (AG) (BG) (AU) (AG) (BU) (AG) (AU) (BG) (BU) (BU)
                 (BG) (AG) (AU) (BU) (BG) (AU) (AG) (BU) (BG) (BU)
                 (AG) (AU) (AG) (BG) (BU) (AG) (AU) (BG) (BU) (AG)
                 (AU) (BU) (BG) (BG) (AG) (BU) (AU) (AU) (AG) (BG)
                 (BU) (AU) (AG) (AG) (BG) (BU) (AU) (AU) (BG) (AU)
                 (AG) (BG) (BG) (BU) (AU) (BG) (AG) (BU) (BG) (BU)
                 (AU) (AG) (BU) (AU) (BG) (AG) (BG) (AU) (AG) (BU)
                 (AU) (BU) (BG) (AG) (BG) (BU) (AG) (AU) (AU) (AG)
                 (BU) (BG) (AU) (BU) (AU) (AG) (BG) (BU) (BG) (AU)
                 (AG) (AU) (AG) (BG) (BU) (BU) (BG) (BG) (AG) (AU)
                 (BG) (AG) (BU) (AU) (BU) (BG) (AG) (AG) (BU) (BU)
                 (AU) (AG) (AU) (AU) (BG) (BU) (AG) (AG) (BG) (AU)
                 (BU) (AU) (AG) (AU) (AG) (BG) (BU) (AG) (BG) (AU)
                 (BU) (AG) (BU) (AU) (BG) (AG) (BU) (BG) (AG) (BG)
                 (AU) (AG) (BU) (BG) (AU) (BU) (AG) (BG) (BU) (AU)
                 (BU) (AU) (AG) (BU) (BG) (AU) (AG) (AU) (AG) (BU)
                 (BG) (AU) (BG) (AG) (AG) (BU) (AU) (BG) (BU) (AG)
                 (BG) (AU) (AG) (BU) (BG) (BU) (BG) (AU) (AG) (AU)
                 (BU) (BU) (AU) (BG) (AG) (BG) (BU) (AG) (BU) (AU)
                 (AG) (BG) (AU) (AG) (BG) (BU) (BU) (AG) (AU) (AG)
                 (BG) (AG) (AU) (BU) (AG) (BG) (BU) (BU) (BG) (AU)
                 (AG) (BG) (AG) (BU) (BU) (AU) (AG) (BG) (BU) (AU)
                 (AU) (BU) (AG) (BG) (BG) (AG) (BU) (BG) (AU) (BU)
                 (AU) (BU) (BG) (AG) (AU) (BU) (AG) (BG) (BG) (AU)
                 (BU) (AG) (AU) (AU) (BU) (AG) (BG) (AG) (AU) (AG)
                 (BG) (BU) (BU) (AU) (BU) (AU) (AG) (BG) (AG) (BG)
                 (AG) (BG) (AU) (BU) (AU) (BG) (AG) (AU) (AU) (BG)
                 (BG) (AG) (BU) (AU) (AU) (BU) (AG) (BG) (BU) (BG)
                 (AU) (AG) (BU) (BG) (BU) (AU) (BG) (AG) (AU) (BU)
                 (BG) (AG) (BU) (AU) (BG) (BG) (AG) (BU) (AG) (AU)
                 (BU) (BG) (BG) (AU) (BG) (AG) (AU) (BU) (BG) (BU)
                 (AG) (BG) (AG) (AU) (BU) (AG) (AU) (AU) (BG) (BU)
                 (BU) (AG) (AU) (BG) (AG) (BU) (BU) (BG) (AU) (AG)
                 (BU) (AG) (BG) (AU) (AG) (BU) (AG) (BG) (BU) (AG)
                 (AU) (BG) (AU) (BU) (BU) (AG) (BU) (BG) (AG) (AU)
                 (AG) (AU) (BG) (BU) (BG) (AU) (BU) (AU) (AG) (AG)
                 (AG) (AU) (BG) (BU) (BG) (AG) (BU) (AU) (BG) (AG)
                 (AG) (AU) (BG) (BU) (AU) (AU) (AG) (BU) (BU) (BG)
                 (AU) (AU) (AG) (BG) (BU) (AG) (BU) (BG) (AU) (AG)
                 (AG) (BG) (AG) (BU) (BU) (AG) (AU) (BU) (BG) (AU)
                 (BG) (AU) (BG) (AG) (AU) (BU) (AG) (BG) (AG) (AU)
                 (BU) (BG) (AU) (AG) (BU) (AU) (AG) (BG) (BU) (AG)
                 (BU) (BG) (AU) (BG) (BU) (AG) (AU) (BU) (AG) (BG)
                 (BU) (AG) (AU) (AG) (BG) (AG) (AU) (BG) (BU) (AU)
                 (BU) (BG) (AU) (BG) (AU) (BU) (AG) (AG) (BG) (AU)
                 (BG) (AG) (BU) (AG) (BG) (AU) (BU) (BG) (AG) (AU)
                 (BU) (AU) (AG) (BG) (BU) (AU) (AG) (AU) (BG) (BU)
                 (BG) (AU) (AG) (BG) (BU) (AU) (AG) (BU) (AU) (AG)
                 (BU) (AU) (BG) (AG) (BU) (BG) (BU) (AU) (BG) (AU)
                 (AG) (BU) (AG) (BG) (AU) (AU) (BG) (BU) (BU) (BG)
                 (AG) (BU) (AU) (AG) (BG) (AG) (BU) (BG) (BU) (BG)
                 (AU) (AG) (BG) (AU) (BU) (BU) (AG) (BG) (AU) (BG)
                 (AG) (BU) (BG) (AG) (BG) (BU) (AU) (AU) (BG) (AG)
                 (BU) (AU) (AG) (BU) (AU) (BG) (AG) (AG) (AU) (BG)
                 (BU) (AU) (BG) (AG) (AG) (BU) (BU) (AU) (BG) (AU)
                 (BU) (AG) (BU) (BG) (AU) (AG) (AU) (BG) (BU) (AG)
                 (AU) (BU) (BG) (AG) (BG) (AU) (BU) (BG) (BU) (AG)
                 (AU) (BU) (BG) (AG) (BU) (AU) (BG) (AU) (AG) (BU)
                 (BG) (BG) (AG) (AU) (BG) (AG) (AU) (BU) (BG) (AU)
                 (BU) (BG) (AG) (AU) (BU) (AG) (BG) (BU) (AU) (AG)
                 (BG) (AU) (BU) (AG) (AU) (AG) (BG) (BU) (BU) (AU)
                 (BG) (AU) (AG) (BU) (AG) (AU) (AG) (BG) (BU) (AU)
                 (AG) (BG) (BG) (BU) (BG) (AG) (AU) (AU) (BU) (AG)
                 (BU) (AU) (BG) (AG) (AU) (AG) (AU) (BU) (BG) (AU)
                 (BG) (AG) (BU) (BG) (AG) (BU) (AG) (AU) (BU) (BG)
                 (AU) (BG) (BU) (AU) (BU) (BG) (BG) (AG) (AG) (AU)
                 (AU) (AG) (AU) (BU) (AG) (BG) (BG) (AU) (BU) (BG)
                 (BU) (AG) (AU) (BG) (AG) (AG) (BU) (BG) (AU) (BG)
                 (BU) (AU) (AG) (BU) (AU) (BG) (AG) (BG) (BU) (AU)
                 (BU) (AG) (AG) (AU) (BG) (BU) (AU) (BU) (AG) (AU)
                 (BG) (AG) (BG) (BU) (AG) (BU) (AU) (AG) (BG) (AU)
                 (BU) (BG) (BU) (AU) (BG) (AG) (AU) (AG) (BU) (AG)
                 (AG) (BG) (AU) (BU) (AG) (BG) (AU) (BG) (AU) (BU)
                 (BU) (AG) (AU) (BG) (BG) (BU) (AU) (AG) (BU) (AG)
                 (BG) (BG) (AU) (AG) (BU) (AU) (BG) (BU) (BU) (BG)
                 (AU) (BG) (AU) (AG) (BU) (BG) (AG) (BG) (AU) (AG)
                 (BG) (AU) (BU) (BU) (AU) (BG) (AG) (AG) (BU) (AU)
                 (AG) (BU) (AG) (AU) (BG) (AU) (BG) (BU) (AU) (AG)
                 (BG) (BU) (AG) (AG) (BU) (BG) (AU) (BU) (AG) (BG)
                 (AU) (BU) (AG) (BG) (BU) (AU) (BU) (AG) (AG) (BU)
                 (BG) (BG) (AU) (AG) (AU) (BU) (AG) (BG) (AU) (BU)
                 (AG) (BU) (AG) (AG) (BU) (BG) (AG) (AU) (BU) (BG)
                 (AG) (BG) (AG) (BU) (AU) (AU) (BG) (AG) (AU) (BU)
                 (AG) (BG) (AU) (BG) (AG) (BU) (AU) (AU) (AG) (AU)
                 (BU) (AG) (BG) (AU) (BG) (AU) (BU) (BU) (BG) (BG)
                 (AU) (AG) (AG) (BU) (BG) (BU) (AU) (BU) (AG) (AU)
                 (BU) (BG) (AU) (AG) (BU) (AU) (BG) (AG) (BG) (AU)
                 (BU) (AG) (AU) (BG) (BU) (AG) (BG) (AU) (BG) (BG)
                 (AG) (BU) (AU) (AG) (BU) (AG) (AU) (BU) (BG) (AG)
                 (AG) (BU) (BU) (AG) (AU) (BG) (BU) (AU) (BG) (AU)
                 (BU) (AG) (BG) (BU) (AG) (BU) (AU) (BG) (AG) (BU)
                 (AU) (AG) (BG) (AU) (AG) (BU) (BG) (AU) (AU) (AG)
                 (BG) (BG) (BU) (AG) (BU) (AU) (BU) (AG) (AU) (AG)
                 (BU) (AG) (BU) (BG) (AU) (BU) (BG) (AG) (AU) (BG)
                 (AG) (BG) (BU) (BG) (AG) (AU) (BU) (AU) (BG) (AG)
                 (BU) (BG) (AU) (AG) (AU) (BG) (AG) (AU) (BU) (BG)
                 (AU) (BG) (BU) (AG) (AU) (BU) (BG) (BU) (AU) (BG)
                 (AU) (AG) (BG) (BU) (AG) (AG) (BG) (BU) (AG) (BG)
                 (AU) (BU) (BU) (AG) (AU) (BU) (BG) (AU) (AG) (BU)
                 (AG) (AU) (BG) (BU) (AG) (BG) (AG) (BU) (AG) (BU)
                 (BG) (AU) (AU) (AG) (BU) (AU) (AG) (AU) (BU) (BG)
                 (AG) (BU) (AG) (AU) (BU) (BG) (AG) (BG) (AG) (AU)
                 (BG) (BU) (AG) (AU) (BG) (BU) (BG) (AU) (AG) (AG)
                 (AU) (BU) (AU) (BG) (BU) (BG) (AG) (BU) (AU) (BU)
                 (BG) (AG) (AU) (BU) (AU) (BG) (BU) (AG) (BG) (BU)
                 (BG) (AG) (BU) (AU) (BG) (AG) (BU) (BG) (BU) (AG)
                 (AU) (AG) (BU) (AU) (AG) (BU) (BG) (AU) (AG) (AG)
                 (BU) (BU) (BG) (AG) (AU) (AU) (BG) (BU) (AG) (BG)
                 (BU) (AG) (AU) (BU) (BG) (AG) (BU) (AU) (BG) (AG)
                 (AG) (AU) (BG) (BU) (BG) (BU) (AG) (BG) (AU) (BU)
                 (AU) (BU) (BG) (AU) (AG) (AG) (BU) (BU) (AG) (BG)
                 (AU) (BU) (BG) (BU) (AG) (AU) (AG) (AU) (BG) (AG)
                 (BU) (BU) (AG) (BU) (BG) (AU) (AG) (BU) (AG) (AG)
                 (BU) (AU) (AG) (BG) (AU) (BU) (BG) (AG) (BU) (AU)
                 (AG) (BG) (BU) (AU) (BU) (AU) (AG) (BG) (BG) (AG)
                 (AU) (BU) (AG) (BU) (AU) (BG) (BU) (BG) (AG) (AU)
                 (BG) (AG) (BU) (BG) (BU) (AU) (AU) (BG) (BU) (AG)
                 (BG) (BU) (AG) (AU) (AG) (BU) (BG) (AG) (AU) (AG)
                 (BU) (AG) (AU) (BG) (BU) (AU) (AG) (BG) (BU) (BU)
                 (AU) (BG) (AU) (AG) (BG) (AG) (BG) (AG) (AU) (AU)
                 (BU) (BU) (AG) (BG) (BG) (BU) (BG) (AG) (AU) (BU)
                 (BU) (AG) (AU) (BU) (AU) (AG) (AG) (AU) (BG) (BU)
                 (BG) (AG) (AU) (BG) (BU) (BG) (BG) (AG) (AU) (BU)
                 (AG) (AU) (BG) (BU) (AU) (BU) (BG) (AG) (AG) (AU)
                 (BU) (BU) (AU) (BG) (BG) (AU) (BU) (AG) (BG) (BG)
                 (AU) (AG) (BU) (AU) (AG) (BG) (AG) (BU) (AU) (AU)
                 (BU) (BG) (AU) (BG) (AG) (AG) (BG) (BU) (AU) (AG)
                 (BU) (AG) (BU) (AU) (BG) (BU) (BG) (AG) (BU) (AU)
                 (AG) (BG) (AU) (AU) (AG) (BU) (AG) (BG) (AU) (AG)
                 (BU) (BU) (BU) (BG) (AU) (AG) (BU) (BG) (AG) (AU)
                 (AU) (BG) (BU) (AG) (BU) (BG) (AG) (AU) (BG) (BU)
                 (AU) (AG) (BU) (AG) (AU) (BG) (BU) (BG) (AU) (AU)
                 (AG) (BU) (BG) (BG) (AG) (BU) (AU) (AG) (AU) (BU)
                 (AG) (AU) (BG) (AG) (BG) (BU) (BU) (AU) (BU) (AG)
                 (BG) (AU) (AG) (BG) (BU) (BG) (BU) (AG) (AU) (AG)
                 (AG) (AU) (BU) (BG) (BU) (AU) (BG) (AG) (BU) (AG)
                 (AU) (AU) (AG) (BG) (BG) (AU) (BU) (AG) (BU) (BG)
                 (AU) (BG) (BU) (AG) (AU) (AG) (BU) (BG) (AG) (BU)
                 (AG) (BU) (AU) (BU) (AU) (BG) (BG) (AU) (AG) (BG)
                 (AU) (AU) (AG) (BU) (AU) (BG) (BG) (AG) (BU) (AG)
                 (AU) (BG) (AU) (AG) (BG) (BU) (AU) (BG) (AG) (BU)
                 (AU) (BG) (AG) (BU) (AU) (BG) (AU) (AG) (BG) (AG)
                 (AU) (BU) (BG) (BU) (AU) (BG) (BU) (AG) (AG) (BG)
                 (BU) (BU) (BU) (AU) (AU) (BG) (AG) (BG) (AU) (BU)
                 (AG) (BG) (AU) (AG) (BU) (AU) (BG) (AG) (BU) (BU)
                 (BG) (AG) (BG) (BU) (AU) (AG) (BG) (AU) (BG) (AU)
                 (BU) (AG) (BU) (AU) (BG) (AU) (AG) (BG) (BU) (BG)
                 (AG) (AU) (AG) (AU) (BU) (BG) (BG) (AG) (AU) (BU)
                 (AU) (BG) (AU) (AG) (BG) (AU) (BU) (BG) (AG) (AU)
                 (AG) (BG) (BU) (AU) (AG) (BU) (AU) (BG) (AU) (BG)
                 (AU) (AG) (BG) (BU) (AU) (BU) (BG) (AG) (AU) (AG)
                 (BG) (BG) (AU) (AG) (BU) (AU) (AG) (BU) (AU) (BG)
                 (AG) (BU) (AU) (BG) (BU) (AU) (AG) (AG) (BG) (BU)
                 (AU) (BG) (BG) (AG) (BU) (AU) (BG) (BU) (AG) (BG)
                 (AU) (BU) (AU) (AU) (BU) (BG) (BG) (AG) (AG) (AU)
                 (BU) (BG) (AG) (BU) (AU) (AU) (BG) (AG) (BU) (BU)
                 (AG) (BG) (AU) (BG) (AG) (BG) (AU) (BU) (BG) (AG)
                 (AU) (BU) (AU) (BG) (BU) (AU) (BG) (AU) (AG) (BG)
                 (AU) (BG) (BU) (AG) (BG) (BU) (AG) (BU) (AU) (AG)
                 (AU) (BG) (BU) (AU) (BG) (AG) (AU) (BG) (AG) (BU)
                 (AG) (BG) (AU) (BU) (BG) (AU) (BG) (AU) (BU) (AG)
                 (BG) (AU) (BG) (BU) (AU) (BG) (BU) (AG) (AU) (BG)
                 (AU) (BG) (BU) (AU) (BU) (AG) (BU) (AG) (BG) (AG)
                 (BG) (BU) (AU) (AG) (BG) (AU) (BU) (AG) (AU) (BG)
                 (BG) (AG) (BU) (AU) (BG) (BU) (AU) (AG) (BG) (BU)
                 (AU) (AG) (AG) (BU) (BU) (AU) (AG) (BG) (AU) (BG)
                 (BU) (AG) (BU) (AU) (BG) (AG) (BU) (AU) (AG) (BG)
                 (AU) (BG) (BU) (BG) (AU) (AG) (BU) (BG) (AU) (BG)
                 (BG) (BU) (AU) (AG) (AG) (BG) (BU) (AG) (BU) (AU)
                 (BU) (AU) (AG) (BG) (AU) (BG) (AU) (AG) (BU) (BG)
                 (AU) (BG) (AG) (AU) (BG) (BU) (BG) (AU) (BG) (BU)
                 (AG) (AU) (BG) (BU) (AU) (BG) (AU) (AG) (BU) (BG)
                 (AU) (BG) (BU) (AG) (AU) (AG) (BU) (BG) (AG) (BU)
                 (AU) (BG) (AG) (AG) (BG) (AU) (BU) (BU) (BG) (AU)
                 (BU) (AG) (AU) (BU) (AG) (AG) (BG) (BU) (AG) (BG)
                 (AU) (BU) (AG) (AU) (BU) (BG) (AU) (AG) (BG) (BU)
                 (AU) (BG) (BU) (AG) (BG) (AU) (BU) (AG) (AU) (BG)
                 (AG) (BU) (AU) (BG) (AG) (AU) (AG) (BU) (BU) (AG)
                 (BG) (BG) (AU) (AG) (AU) (BG) (BU) (BG) (AU) (AU)
                 (BG) (BU) (AG) (BU) (AU) (AG) (BU) (BG) (AG) (AU)
                 (BG) (AG) (BG) (AU) (AG) (BG) (BU) (BG) (AG) (BU)
                 (AG) (AU) (BU) (BU) (AU) (BG) (AG) (AG) (BU) (AU)
                 (BU) (AG) (BG) (BU) (AG) (AU) (BG) (AU) (BG) (AG)
                 (AU) (BU) (AG) (BU) (AG) (AG) (BU) (AU) (BG) (BU)
                 (BG) (AG) (AU) (BG) (AG) (AU) (BU) (AG) (BG) (AU)
                 (BU) (BG) (AG) (BU) (AG) (AG) (BG) (AU) (AU) (BU)
                 (AG) (BU) (BU) (AG) (BU) (BU) (AU) (BG) (AG) (AU)
                 (BU) (BU) (BG) (AU) (AG) (AU) (BU) (AG) (BU) (AU)
                 (AG) (BU) (BG) (AG) (BU) (AG) (BU) (AG) (AU) (AG)
                 (AU) (BU) (BG) (BU) (AG) (AG) (BG) (AG) (BU) (AG)
                 (AU) (BU) (AU) (BG) (BU) (BG) (AU) (BG) (AU) (AG)
                 (BU) (AU) (BU) (AG) (BG) (BU) (AG) (AG) (BU) (AU)
                 (BU) (AG) (AU) (BG) (AG) (BG) (AU) (BU) (BG) (AU)
                 (AG) (BG) (BU) (BG) (AU) (AU) (BG) (BU) (AU) (BG)
                 (AG) (BG) (BU) (AU) (AG) (BU) (AU) (AG) (BG) (AG)
                 (BU) (AG) (BU) (AU) (BG) (AG) (BU) (AU) (BG) (AU)
                 (BG) (AU) (BG) (AU) (BG) (BU) (AG) (BG) (AU) (BU)
                 (AU) (BG) (BG) (AG) (BU) (AU) (BG) (AG) (BU) (AG)
                 (AU) (BU) (AG) (BU) (BG) (AU) (AG) (AU) (BU) (BG)
                 (AG) (BU) (AG) (BU) (BG) (AU) (AG)
    32 initial guesses have been made.
 Convergence on wavefunction:    0.001000000000000
 Davidson Disk Diagonalization:  ConvIn= 1.00D-03 SkipCon=T Conv= 1.00D-03.
 Max sub-space:   200 roots to seek:    32 dimension of matrix:      1685796
 Iteration     1 Dimension    32 NMult     0 NNew     32
 CISAX will form    32 AO SS matrices at one time.
 NMat=    32 NSing=    32 JSym2X=-1.
 FoFJK:  IHMeth= 1 ICntrl=       0 DoSepK=T KAlg= 0 I1Cent=   0 FoldK=F
 IRaf=         1 NMat=  64 IRICut=       1 DoRegI=T DoRafI=F ISym2E=-1.
 FoFCou: FMM=F IPFlag=           0 FMFlag=      100000 FMFlg1=        2000
         NFxFlg=           0 DoJE=F BraDBF=F KetDBF=F FulRan=T
         wScrn=  0.000000 ICntrl=     500 IOpCl=  0 I1Cent=           0 NGrid=           0
         NMat0=   32 NMatS0=     32 NMatT0=    0 NMatD0=   32 NMtDS0=    0 NMtDT0=    0
 Petite list used in FoFCou.
 New state      2 was old state      3
 New state      3 was old state      2
 New state      4 was old state      5
 New state      5 was old state      6
 New state      6 was old state      8
 New state      8 was old state      4
 Excitation Energies [eV] at current iteration:
 Root      1 :     2.040439342719232
 Root      2 :     2.239448086361003
 Root      3 :     2.270071851522803
 Root      4 :     2.312210720483877
 Root      5 :     2.328603423060687
 Root      6 :     2.340067089205459
 Root      7 :     2.362411087820840
 Root      8 :     2.371851422804566
 Root      9 :     2.542258685681496
 Root     10 :     2.713058829743709
 Root     11 :     2.913158149940346
 Root     12 :     2.962566574036357
 Root     13 :     3.236260426962188
 Root     14 :     3.249652948362310
 Root     15 :     3.295841503986021
 Root     16 :     3.308932230194720
 Root     17 :     3.315356714674573
 Root     18 :     3.544309405999456
 Root     19 :     4.624656864200584
 Root     20 :     4.714779887070921
 Root     21 :     4.815749399549005
 Root     22 :     4.920784186136030
 Root     23 :     4.947945159900348
 Root     24 :     4.953329282181233
 Root     25 :     4.986089682538134
 Root     26 :     5.004981220699819
 Root     27 :     5.011179717711028
 Root     28 :     5.095000199637553
 Root     29 :     5.095259496097267
 Root     30 :     5.129962910915955
 Root     31 :     5.565251795518591
 Root     32 :     5.728562651404195
 Iteration     2 Dimension    48 NMult    32 NNew     16
 CISAX will form    16 AO SS matrices at one time.
 NMat=    16 NSing=    16 JSym2X=-1.
 Root      1 not converged, maximum delta is    0.258409996038360
 New state      2 was old state      9
 Root      2 not converged, maximum delta is    0.375330383445484
 Root      3 not converged, maximum delta is    0.377152523143122
 New state      4 was old state      5
 Root      4 not converged, maximum delta is    0.521519427643172
 New state      5 was old state      7
 Root      5 not converged, maximum delta is    0.297340432974257
 New state      6 was old state      8
 Root      6 not converged, maximum delta is    0.173575116141432
 New state      7 was old state      4
 Root      7 not converged, maximum delta is    0.320213079699392
 New state      8 was old state      6
 Root      8 not converged, maximum delta is    0.021219283519814
 Excitation Energies [eV] at current iteration:
 Root      1 :     1.575880898892468   Change is   -0.464558443826764
 Root      2 :     1.726639728470389   Change is   -0.815618957211106
 Root      3 :     1.867214339010827   Change is   -0.402857512511976
 Root      4 :     2.022300141119326   Change is   -0.306303281941361
 Root      5 :     2.124953036215094   Change is   -0.237458051605746
 Root      6 :     2.222046550611732   Change is   -0.149804872192834
 Root      7 :     2.263126573578871   Change is   -0.049084146905006
 Root      8 :     2.285389396165697   Change is   -0.054677693039762
 Iteration     3 Dimension    64 NMult    48 NNew     16
 CISAX will form    16 AO SS matrices at one time.
 NMat=    16 NSing=    16 JSym2X=-1.
 Root      1 not converged, maximum delta is    0.049083657331159
 Root      2 not converged, maximum delta is    0.064145026620332
 Root      3 not converged, maximum delta is    0.089167244334446
 Root      4 not converged, maximum delta is    0.186927289121570
 Root      5 not converged, maximum delta is    0.241509967206602
 Root      6 not converged, maximum delta is    0.280319537564165
 Root      7 not converged, maximum delta is    0.014224671709025
 Root      8 not converged, maximum delta is    0.008198554703986
 Excitation Energies [eV] at current iteration:
 Root      1 :     1.463475844076748   Change is   -0.112405054815720
 Root      2 :     1.560578775861087   Change is   -0.166060952609303
 Root      3 :     1.704227908864418   Change is   -0.162986430146409
 Root      4 :     1.776751263307442   Change is   -0.245548877811884
 Root      5 :     1.938776878962617   Change is   -0.186176157252476
 Root      6 :     2.065410346887179   Change is   -0.156636203724553
 Root      7 :     2.260118572787494   Change is   -0.003008000791377
 Root      8 :     2.280837953288616   Change is   -0.004551442877081
 Iteration     4 Dimension    80 NMult    64 NNew     16
 CISAX will form    16 AO SS matrices at one time.
 NMat=    16 NSing=    16 JSym2X=-1.
 Root      1 not converged, maximum delta is    0.021118063047350
 Root      2 not converged, maximum delta is    0.035594175651943
 Root      3 not converged, maximum delta is    0.027718662678076
 Root      4 not converged, maximum delta is    0.052321297389436
 Root      5 not converged, maximum delta is    0.093446066564298
 Root      6 not converged, maximum delta is    0.186455494880169
 Root      7 not converged, maximum delta is    0.003595508859176
 Root      8 not converged, maximum delta is    0.001332125162807
 Excitation Energies [eV] at current iteration:
 Root      1 :     1.432670355675074   Change is   -0.030805488401674
 Root      2 :     1.513768914870483   Change is   -0.046809860990604
 Root      3 :     1.654735894360654   Change is   -0.049492014503763
 Root      4 :     1.685371436766636   Change is   -0.091379826540807
 Root      5 :     1.850507900356571   Change is   -0.088268978606046
 Root      6 :     1.912409888110653   Change is   -0.153000458776527
 Root      7 :     2.259757760977523   Change is   -0.000360811809971
 Root      8 :     2.280489234067924   Change is   -0.000348719220692
 Iteration     5 Dimension    96 NMult    80 NNew     16
 CISAX will form    16 AO SS matrices at one time.
 NMat=    16 NSing=    16 JSym2X=-1.
 Root      1 not converged, maximum delta is    0.006046304632457
 Root      2 not converged, maximum delta is    0.007077183736266
 Root      3 not converged, maximum delta is    0.009211396290889
 Root      4 not converged, maximum delta is    0.010052067705308
 Root      5 not converged, maximum delta is    0.017332994665324
 Root      6 not converged, maximum delta is    0.018793459173101
 Root      7 not converged, maximum delta is    0.001930313473060
 Root      8 not converged, maximum delta is    0.001077810551113
 Excitation Energies [eV] at current iteration:
 Root      1 :     1.429164285126214   Change is   -0.003506070548860
 Root      2 :     1.508196459824150   Change is   -0.005572455046333
 Root      3 :     1.646881401480327   Change is   -0.007854492880327
 Root      4 :     1.673193123900666   Change is   -0.012178312865970
 Root      5 :     1.837705926742437   Change is   -0.012801973614134
 Root      6 :     1.895246931524363   Change is   -0.017162956586290
 Root      7 :     2.259643831687694   Change is   -0.000113929289829
 Root      8 :     2.280389713902208   Change is   -0.000099520165717
 Iteration     6 Dimension   112 NMult    96 NNew     16
 CISAX will form    16 AO SS matrices at one time.
 NMat=    16 NSing=    16 JSym2X=-1.
 Root      1 not converged, maximum delta is    0.001011687243294
 Root      2 not converged, maximum delta is    0.002420899893219
 Root      3 not converged, maximum delta is    0.001453969564195
 Root      4 not converged, maximum delta is    0.004291856321256
 Root      5 not converged, maximum delta is    0.002917175765543
 Root      6 not converged, maximum delta is    0.004982967681045
 Root      7 not converged, maximum delta is    0.001134034924348
 Root      8 has converged.
 Excitation Energies [eV] at current iteration:
 Root      1 :     1.428687578437482   Change is   -0.000476706688732
 Root      2 :     1.507259129045383   Change is   -0.000937330778767
 Root      3 :     1.645747239874027   Change is   -0.001134161606301
 Root      4 :     1.670948030773499   Change is   -0.002245093127167
 Root      5 :     1.835797509405402   Change is   -0.001908417337035
 Root      6 :     1.891781737724207   Change is   -0.003465193800155
 Root      7 :     2.259623359247145   Change is   -0.000020472440549
 Root      8 :     2.280378773572294   Change is   -0.000010940329913
 Iteration     7 Dimension   126 NMult   112 NNew     14
 CISAX will form    14 AO SS matrices at one time.
 NMat=    14 NSing=    14 JSym2X=-1.
 Root      1 has converged.
 Root      2 has converged.
 Root      3 has converged.
 Root      4 not converged, maximum delta is    0.001708723616807
 Root      5 not converged, maximum delta is    0.001627629155934
 Root      6 not converged, maximum delta is    0.002415025848986
 Root      7 has converged.
 Root      8 has converged.
 Excitation Energies [eV] at current iteration:
 Root      1 :     1.428654615135275   Change is   -0.000032963302207
 Root      2 :     1.507172082404679   Change is   -0.000087046640704
 Root      3 :     1.645617031653264   Change is   -0.000130208220762
 Root      4 :     1.670616483614465   Change is   -0.000331547159034
 Root      5 :     1.835469720156470   Change is   -0.000327789248932
 Root      6 :     1.891309028002294   Change is   -0.000472709721914
 Root      7 :     2.259617481219269   Change is   -0.000005878027875
 Root      8 :     2.280378770139186   Change is   -0.000000003433107
 Iteration     8 Dimension   132 NMult   126 NNew      6
 CISAX will form     6 AO SS matrices at one time.
 NMat=     6 NSing=     6 JSym2X=-1.
 Root      1 has converged.
 Root      2 has converged.
 Root      3 has converged.
 Root      4 has converged.
 Root      5 has converged.
 Root      6 has converged.
 Root      7 has converged.
 Root      8 has converged.
 Excitation Energies [eV] at current iteration:
 Root      1 :     1.428654564129899   Change is   -0.000000051005376
 Root      2 :     1.507170756817662   Change is   -0.000001325587017
 Root      3 :     1.645617031653164   Change is   -0.000000000000100
 Root      4 :     1.670574045810133   Change is   -0.000042437804332
 Root      5 :     1.835424433714626   Change is   -0.000045286441844
 Root      6 :     1.891267102282851   Change is   -0.000041925719442
 Root      7 :     2.259617467192840   Change is   -0.000000014026430
 Root      8 :     2.280378770139259   Change is    0.000000000000072
 Convergence achieved on expansion vectors.
 ***********************************************************************
 Excited states from <AA,BB:AA,BB> singles matrix:
 ***********************************************************************
 
 1PDM for each excited state written to RWF  633
 Ground to excited state transition densities written to RWF  633
 Ground to excited state transition electric dipole moments (Au):
       state          X           Y           Z        Dip. S.      Osc.
         1         0.0000     -0.0000     -0.3688      0.1360      0.0048
         2        -0.0307     -0.2818      0.0000      0.0803      0.0030
         3         0.0000     -0.0000      0.0000      0.0000      0.0000
         4        -0.0000      0.0000     -0.0000      0.0000      0.0000
         5         0.0345      4.0488      0.0000     16.3943      0.7372
         6        -0.0000     -0.0000      4.0500     16.4021      0.7600
         7         0.0000      0.0000     -0.0000      0.0000      0.0000
         8         0.0000      0.0000     -0.0000      0.0000      0.0000
 Ground to excited state transition velocity dipole moments (Au):
       state          X           Y           Z        Dip. S.      Osc.
         1        -0.0000      0.0000      0.0194      0.0004      0.0048
         2         0.0019      0.0157      0.0000      0.0003      0.0030
         3         0.0000     -0.0000      0.0000      0.0000      0.0000
         4        -0.0000      0.0000      0.0000      0.0000      0.0000
         5        -0.0019     -0.2746     -0.0000      0.0754      0.7455
         6        -0.0000      0.0000     -0.2830      0.0801      0.7682
         7        -0.0000     -0.0000     -0.0000      0.0000      0.0000
         8        -0.0000     -0.0000     -0.0000      0.0000      0.0000
 Ground to excited state transition magnetic dipole moments (Au):
       state          X           Y           Z
         1        -0.0000      0.0000      0.0000
         2        -0.0000      0.0000      0.0000
         3        -1.1715      2.5842     -0.0000
         4        -0.0000      0.0000      2.5068
         5        -0.0000     -0.0000      0.0000
         6        -0.0000      0.0000      0.0000
         7         0.0000     -0.0000      0.4213
         8        -0.1660      0.3675      0.0000
 Ground to excited state transition velocity quadrupole moments (Au):
       state          XX          YY          ZZ          XY          XZ          YZ
         1        -0.0000      0.0000     -0.0000     -0.0000     -0.0000     -0.0000
         2        -0.0000      0.0000      0.0000     -0.0000     -0.0000      0.0000
         3         0.0000     -0.0000      0.0000     -0.0000     -1.7099     -0.7674
         4        -0.0641      1.6307     -0.0914      1.7436     -0.0000     -0.0000
         5         0.0000      0.0000      0.0000      0.0000     -0.0000      0.0000
         6        -0.0000      0.0000     -0.0000     -0.0000      0.0000     -0.0000
         7         0.0799      0.0450     -0.0329     -0.0149     -0.0000     -0.0000
         8         0.0000      0.0000     -0.0000      0.0000      0.0378      0.0525
 <0|del|b> * <b|rxdel|0> + <0|del|b> * <b|delr+rdel|0>
 Rotatory Strengths (R) in cgs (10**-40 erg-esu-cm/Gauss)
       state          XX          YY          ZZ    R(velocity)    E-M Angle
         1         0.0000      0.0000      0.0000      0.0000       90.00
         2         0.0000     -0.0000     -0.0000      0.0000       90.00
         3        -0.0000     -0.0000     -0.0000     -0.0000       90.00
         4         0.0000      0.0000     -0.0000      0.0000       90.00
         5        -0.0000     -0.0000      0.0000      0.0000       90.00
         6        -0.0000     -0.0000      0.0000     -0.0000       90.00
         7        -0.0000     -0.0000      0.0000     -0.0000       90.00
         8        -0.0000      0.0000     -0.0000     -0.0000       90.00
 1/2[<0|r|b>*<b|rxdel|0> + (<0|rxdel|b>*<b|r|0>)*]
 Rotatory Strengths (R) in cgs (10**-40 erg-esu-cm/Gauss)
       state          XX          YY          ZZ     R(length)
         1         0.0000      0.0000      0.0000      0.0000
         2        -0.0000      0.0000     -0.0000      0.0000
         3         0.0000      0.0000      0.0000      0.0000
         4        -0.0000     -0.0000      0.0000      0.0000
         5         0.0000      0.0000     -0.0000      0.0000
         6        -0.0000      0.0000     -0.0000     -0.0000
         7        -0.0000      0.0000      0.0000      0.0000
         8         0.0000     -0.0000      0.0000     -0.0000
  1/2[<0|del|b>*<b|r|0> + (<0|r|b>*<b|del|0>)*] (Au)
       state          X           Y           Z        Dip. S.   Osc.(frdel)
         1        -0.0000     -0.0000     -0.0072      0.0072      0.0048
         2        -0.0001     -0.0044      0.0000      0.0045      0.0030
         3         0.0000      0.0000      0.0000     -0.0000     -0.0000
         4         0.0000      0.0000     -0.0000     -0.0000     -0.0000
         5        -0.0001     -1.1119     -0.0000      1.1120      0.7413
         6         0.0000     -0.0000     -1.1461      1.1461      0.7641
         7        -0.0000     -0.0000      0.0000      0.0000      0.0000
         8        -0.0000     -0.0000      0.0000      0.0000      0.0000

 Excitation energies and oscillator strengths:
 
 Excited State   1:      Singlet-AU     1.4287 eV  867.84 nm  f=0.0048  <S**2>=0.000
     439 -> 447       -0.21862
     440 -> 445        0.27201
     441 -> 442        0.58745
     441 -> 447       -0.16068
 This state for optimization and/or second-order correction.
 Total Energy, E(TD-HF/TD-KS) =  -10327.0291471    
 Copying the excited state density for this state as the 1-particle RhoCI density.
 
 Excited State   2:      Singlet-BU     1.5072 eV  822.63 nm  f=0.0030  <S**2>=0.000
     439 -> 443        0.42104
     440 -> 444        0.28965
     441 -> 443        0.26559
     441 -> 446       -0.39496
 
 Excited State   3:      Singlet-BG     1.6456 eV  753.42 nm  f=0.0000  <S**2>=0.000
     439 -> 445       -0.34195
     440 -> 442        0.49731
     440 -> 447        0.18285
     441 -> 445        0.28525
 
 Excited State   4:      Singlet-AG     1.6706 eV  742.17 nm  f=0.0000  <S**2>=0.000
     439 -> 444        0.37033
     440 -> 443        0.45597
     440 -> 446        0.22764
     441 -> 444       -0.28151
 
 Excited State   5:      Singlet-BU     1.8354 eV  675.51 nm  f=0.7372  <S**2>=0.000
     439 -> 443       -0.13764
     439 -> 446       -0.17661
     440 -> 444       -0.36347
     441 -> 443        0.52735
 
 Excited State   6:      Singlet-AU     1.8913 eV  655.56 nm  f=0.7600  <S**2>=0.000
     435 -> 444        0.10063
     439 -> 442        0.51549
     440 -> 445       -0.36378
     441 -> 442        0.12497
     441 -> 447       -0.20516
 
 Excited State   7:      Singlet-AG     2.2596 eV  548.70 nm  f=0.0000  <S**2>=0.000
     439 -> 444        0.33595
     440 -> 443        0.14611
     440 -> 446       -0.10332
     441 -> 444        0.59275
 
 Excited State   8:      Singlet-BG     2.2804 eV  543.70 nm  f=0.0000  <S**2>=0.000
     439 -> 445        0.30428
     440 -> 442       -0.17980
     440 -> 447        0.13271
     441 -> 445        0.59618
 SavETr:  write IOETrn=   770 NScale= 10 NData=  16 NLR=1 NState=    8 LETran=     154.
 Leave Link  914 at Tue Oct 21 10:24:19 2025, MaxMem= 13421772800 cpu:    197017.7
 (Enter /opt/g09/l601.exe)
 Copying SCF densities to generalized density rwf, IOpCl= 0 IROHF=0.
 Hyperfine terms turned off by default for NAtoms > 100.

 **********************************************************************

            Population analysis using the SCF density.

 **********************************************************************

 Orbital symmetries:
       Occupied  (AG) (BU) (AG) (AG) (BU) (AG) (AG) (BU) (BU) (AG)
                 (BU) (BG) (AU) (BU) (AU) (BU) (AG) (BU) (AG) (BG)
                 (AU) (AG) (BU) (AG) (BU) (AG) (AU) (BG) (AU) (BU)
                 (AG) (BG) (AU) (BU) (AG) (BG) (AU) (BU) (AG) (AU)
                 (BG) (AG) (BU) (BG) (AU) (BU) (AG) (BG) (AU) (BU)
                 (AG) (AU) (BG) (AG) (BU) (BG) (AU) (BU) (AG) (BG)
                 (BU) (AU) (AG) (BU) (AG) (AU) (BG) (BU) (AG) (AU)
                 (BG) (BU) (AG) (BG) (AU) (BG) (AU) (BU) (AG) (BG)
                 (AU) (BU) (AG) (AG) (BU) (AU) (BG) (BU) (AG) (BG)
                 (AU) (BU) (AG) (BG) (AU) (AU) (AG) (AG) (AU) (BU)
                 (BG) (AG) (AU) (BU) (BG) (BG) (BU) (BG) (AU) (BU)
                 (AG) (BG) (BU) (AU) (AG) (AU) (AG) (BU) (BG) (BG)
                 (AU) (BU) (AG) (BU) (AG) (AU) (AG) (BG) (AU) (BG)
                 (BU) (BU) (AG) (AU) (BG) (BU) (AG) (AG) (AG) (BU)
                 (BU) (AG) (BU) (BG) (AU) (BU) (AU) (AG) (BU) (AG)
                 (BU) (AU) (AG) (BG) (BU) (AU) (AG) (BU) (AG) (BG)
                 (AU) (BG) (BU) (AG) (AU) (BG) (AU) (BU) (AG) (BU)
                 (AG) (BU) (AG) (AU) (AG) (BG) (BU) (AG) (BU) (BU)
                 (AG) (AU) (AG) (BG) (AU) (BG) (AG) (BU) (AU) (AG)
                 (BG) (BU) (AG) (BU) (AU) (AU) (BG) (BU) (AG) (BU)
                 (AG) (BU) (AU) (BG) (AG) (AU) (BG) (BG) (AU) (BG)
                 (BU) (AU) (BG) (AG) (AU) (BU) (AG) (AG) (BU) (BU)
                 (AG) (AG) (AU) (BU) (BG) (AG) (BU) (AU) (BG) (AU)
                 (BG) (AG) (BU) (AG) (AU) (BG) (BU) (AG) (BG) (AU)
                 (AU) (BU) (BG) (BG) (AU) (BG) (AG) (BU) (AG) (BU)
                 (BG) (AG) (AU) (AU) (BU) (BU) (AG) (AG) (BG) (AU)
                 (BU) (AG) (AU) (BU) (BU) (BG) (AG) (AU) (BU) (BG)
                 (AU) (AG) (BG) (BG) (BU) (AG) (AG) (AG) (BG) (BU)
                 (AG) (AU) (AG) (AU) (BG) (BU) (AG) (BG) (AU) (BU)
                 (BU) (AG) (AU) (BG) (BU) (AU) (BU) (AG) (BG) (AG)
                 (BU) (BG) (AU) (AG) (BG) (AU) (BG) (BG) (BU) (AG)
                 (BU) (AU) (AG) (BU) (AG) (BU) (AG) (AG) (AU) (BG)
                 (BG) (AG) (BU) (AU) (BU) (AU) (BG) (BG) (AG) (BG)
                 (AU) (BU) (BG) (AG) (BG) (AU) (BU) (AU) (BU) (AG)
                 (BU) (AG) (AG) (BU) (AU) (AG) (BG) (BG) (BU) (AU)
                 (AG) (AU) (BU) (AG) (BG) (AU) (BG) (BU) (AG) (AG)
                 (AU) (BG) (BU) (AU) (BU) (BU) (AG) (AU) (BU) (BG)
                 (BG) (AU) (BU) (BG) (AU) (BG) (AG) (BU) (AG) (AG)
                 (BU) (AG) (BU) (AU) (BG) (BU) (AU) (AG) (BU) (AG)
                 (BG) (AG) (AU) (BU) (AG) (BG) (BU) (AG) (AG) (AU)
                 (BU) (BG) (AG) (AU) (BU) (AU) (BG) (AU) (BG) (BG)
                 (AU) (BU) (BG) (AG) (AU) (BG) (BU) (AG) (AU) (BU)
                 (AG) (AG) (AG) (BG) (BU) (BU) (AG) (AU) (BU) (AU)
                 (AG) (BG) (BU) (AG) (AG) (BU) (BG) (BU) (AU) (BG)
                 (AU)
       Virtual   (AG) (BG) (AU) (BU) (BG) (AG) (AU) (BG) (BU) (AU)
                 (BU) (AG) (AG) (BU) (BG) (AG) (BU) (AU) (AG) (BU)
                 (BG) (BU) (AG) (AG) (AU) (BU) (AU) (BG) (AG) (AU)
                 (BG) (AG) (BU) (BG) (AG) (BG) (AU) (BU) (AG) (AU)
                 (BU) (BG) (AG) (BU) (AU) (BU) (AG) (BU) (BU) (BG)
                 (AG) (AG) (AU) (BU) (BG) (AU) (AG) (BU) (AU) (AG)
                 (BG) (BU) (AU) (BG) (AG) (AU) (BU) (BG) (BG) (AU)
                 (BU) (AG) (BU) (BG) (AU) (AU) (AG) (BU) (AG) (BG)
                 (BU) (BG) (AG) (AU) (AG) (BU) (AU) (AG) (AG) (AU)
                 (AG) (BU) (BG) (AU) (BU) (BG) (BU) (AG) (BG) (AG)
                 (BU) (BG) (AU) (AG) (BU) (BG) (AU) (BU) (AG) (AU)
                 (BG) (AU) (AG) (BG) (BU) (AG) (BG) (BU) (BU) (AU)
                 (AG) (BU) (BG) (AG) (AG) (AU) (BG) (BU) (AU) (AG)
                 (AU) (BG) (BU) (AU) (BG) (BG) (AG) (AU) (AG) (BU)
                 (AU) (BU) (BG) (AG) (AU) (BU) (BG) (AU) (AG) (BU)
                 (AG) (BG) (AU) (AG) (BU) (AU) (BU) (AG) (BU) (AU)
                 (AG) (BG) (BG) (AG) (AU) (AU) (BU) (AG) (BG) (BU)
                 (BG) (AU) (BG) (AG) (AG) (AU) (BU) (BG) (BU) (AG)
                 (AU) (BU) (BG) (AU) (AG) (BG) (AU) (BG) (AG) (BU)
                 (BG) (BU) (AU) (BG) (BU) (AU) (AG) (BG) (AG) (BU)
                 (AU) (AG) (BG) (BU) (AG) (BU) (AU) (BG) (AU) (BU)
                 (BG) (AU) (AG) (AU) (BG) (AG) (BU) (BG) (BU) (AG)
                 (AG) (BU) (AU) (AU) (BG) (BU) (AG) (BG) (AG) (BU)
                 (BU) (BG) (BU) (AG) (AU) (BU) (AG) (AU) (BU) (AG)
                 (AG) (BG) (BU) (AU) (AG) (BU) (BG) (BU) (AG) (AG)
                 (AU) (BU) (AG) (BU) (BG) (AU) (AG) (BG) (BG) (BU)
                 (AU) (AG) (AU) (BU) (AG) (AU) (BG) (AG) (AU) (BU)
                 (AU) (BU) (AG) (BG) (AG) (BG) (AU) (AG) (BU) (AU)
                 (AG) (BU) (BG) (AU) (AG) (BU) (BG) (AG) (BU) (BG)
                 (BG) (AG) (BU) (BU) (AU) (BU) (AU) (AG) (BU) (AG)
                 (BG) (AU) (AG) (BU) (BG) (AG) (BG) (AU) (AG) (AU)
                 (BU) (AG) (BU) (BG) (AG) (AU) (AU) (BG) (BU) (AU)
                 (BG) (AG) (BU) (AG) (AU) (BU) (BG) (AG) (BU) (BG)
                 (BU) (BG) (AU) (AG) (BU) (BU) (BG) (BG) (AU) (AU)
                 (AG) (BU) (AG) (BG) (AU) (AU) (BG) (AU) (AG) (BG)
                 (AG) (BU) (AU) (AG) (BU) (BG) (BG) (BU) (AG) (AU)
                 (BG) (BG) (AG) (BU) (AU) (AG) (BU) (AG) (BU) (BG)
                 (BU) (AU) (BG) (BU) (AU) (AG) (BU) (BG) (BG) (AU)
                 (AG) (AU) (BU) (AU) (BG) (BU) (AU) (AG) (BU) (AU)
                 (BG) (AG) (BU) (BG) (AG) (AU) (AU) (BU) (BG) (AG)
                 (AU) (BU) (AU) (BG) (AG) (AG) (BG) (BU) (BG) (AU)
                 (AG) (BU) (BG) (BU) (BG) (AG) (BU) (AU) (BG) (AU)
                 (AU) (AG) (BG) (AU) (BG) (BG) (BU) (AU) (AG) (AU)
                 (AG) (BU) (AU) (BU) (BG) (AG) (BU) (BG) (AG) (AU)
                 (BG) (BG) (BU) (AG) (AU) (BG) (AU) (BU) (AU) (BG)
                 (BG) (AG) (AU) (BU) (BU) (BG) (AG) (AU) (BU) (AG)
                 (BG) (BU) (AG) (AU) (BG) (BU) (AU) (AG) (BU) (BG)
                 (AU) (AG) (BU) (AU) (AG) (BG) (BG) (BU) (BG) (AG)
                 (BU) (AU) (AG) (AU) (AG) (BU) (AU) (BG) (BU) (BG)
                 (AU) (AG) (AU) (BG) (BU) (AG) (AG) (BG) (AU) (BG)
                 (AU) (BU) (BU) (BG) (AG) (AG) (AU) (BU) (BU) (BG)
                 (AG) (AU) (BG) (BU) (AG) (AU) (AG) (BU) (AG) (BU)
                 (BG) (AG) (BG) (BU) (AU) (AU) (AG) (BU) (BG) (AU)
                 (AG) (BU) (AU) (AG) (BG) (BU) (AG) (AU) (BG) (AU)
                 (BU) (AU) (BG) (AG) (BU) (BU) (AU) (AG) (BG) (AU)
                 (AG) (BG) (BU) (BG) (AG) (AG) (BU) (AU) (BG) (AG)
                 (AU) (BU) (AG) (AU) (BU) (BG) (AU) (BG) (BU) (AG)
                 (BU) (BG) (AG) (AU) (AU) (BU) (BG) (AG) (BG) (BU)
                 (AG) (BG) (BU) (AU) (BU) (AG) (AG) (BG) (AG) (BU)
                 (AU) (BG) (AG) (BU) (AG) (AU) (BU) (BU) (BG) (AU)
                 (BG) (AU) (BU) (AG) (AU) (BU) (BG) (AU) (AG) (AG)
                 (BU) (AU) (BG) (BG) (BG) (AG) (BU) (BU) (AG) (AG)
                 (BG) (BU) (AU) (AG) (AU) (BG) (AG) (BG) (BG) (AU)
                 (BU) (AU) (BG) (BU) (AG) (BU) (AU) (BU) (BG) (BU)
                 (AG) (AU) (BG) (AU) (BU) (AU) (BG) (AG) (BU) (AU)
                 (BG) (AG) (BG) (AG) (AU) (AG) (BG) (BU) (AU) (BG)
                 (AG) (AG) (BU) (AU) (BU) (AU) (AU) (AG) (BG) (BU)
                 (BU) (BG) (AG) (AU) (BG) (BU) (AG) (AU) (AG) (BG)
                 (AU) (BU) (AU) (AG) (BU) (BG) (BG) (AG) (BU) (AU)
                 (AG) (AU) (BU) (AU) (BG) (BG) (AG) (BG) (BU) (BU)
                 (AG) (BU) (BU) (BG) (AU) (AG) (AU) (BU) (AG) (BG)
                 (BU) (BG) (AU) (BU) (AG) (AG) (BG) (AU) (AU) (BU)
                 (AG) (AG) (BU) (BG) (AG) (BG) (BU) (AU) (AG) (AU)
                 (BU) (AG) (AU) (BG) (BU) (BU) (AG) (AG) (BG) (AU)
                 (BU) (BG) (BU) (AU) (BU) (AG) (BG) (AG) (BU) (BG)
                 (AU) (AG) (BU) (AG) (BG) (AU) (AG) (BG) (BU) (AU)
                 (BG) (BU) (BG) (AU) (AG) (BG) (AU) (BU) (AG) (AU)
                 (BU) (BU) (BG) (AG) (AU) (AG) (BU) (AU) (AU) (BG)
                 (AG) (BG) (AG) (AU) (BG) (BU) (BU) (BG) (AG) (BU)
                 (AU) (BU) (AU) (AG) (BG) (AG) (AG) (BU) (BU) (BG)
                 (AG) (AU) (BG) (BU) (BG) (BU) (AG) (AU) (AU) (AG)
                 (BG) (AG) (BU) (AG) (BU) (BU) (BG) (AU) (AG) (BU)
                 (AU) (AU) (BG) (AG) (BG) (BU) (AU) (AG) (BU) (BG)
                 (AU) (BG) (AU) (AG) (AU) (AG) (BU) (BG) (BU) (BG)
                 (AG) (AG) (BG) (AU) (BU) (BU) (AU) (BG) (AG) (AU)
                 (BU) (AG) (BG) (BU) (AG) (AU) (BU) (AG) (AU) (AG)
                 (BG) (BU) (AU) (BG) (BU) (AG) (BG) (AU) (BU) (AG)
                 (AG) (BG) (AU) (AG) (BU) (AG) (AU) (BG) (BU) (BU)
                 (BG) (AG) (AU) (BU) (BG) (AU) (AG) (BU) (BG) (BU)
                 (AG) (AU) (AG) (BG) (BU) (AG) (AU) (BG) (BU) (AG)
                 (AU) (BU) (BG) (BG) (AG) (BU) (AU) (AU) (AG) (BG)
                 (BU) (AU) (AG) (AG) (BG) (BU) (AU) (AU) (BG) (AU)
                 (AG) (BG) (BG) (BU) (AU) (BG) (AG) (BU) (BG) (BU)
                 (AU) (AG) (BU) (AU) (BG) (AG) (BG) (AU) (AG) (BU)
                 (AU) (BU) (BG) (AG) (BG) (BU) (AG) (AU) (AU) (AG)
                 (BU) (BG) (AU) (BU) (AU) (AG) (BG) (BU) (BG) (AU)
                 (AG) (AU) (AG) (BG) (BU) (BU) (BG) (BG) (AG) (AU)
                 (BG) (AG) (BU) (AU) (BU) (BG) (AG) (AG) (BU) (BU)
                 (AU) (AG) (AU) (AU) (BG) (BU) (AG) (AG) (BG) (AU)
                 (BU) (AU) (AG) (AU) (AG) (BG) (BU) (AG) (BG) (AU)
                 (BU) (AG) (BU) (AU) (BG) (AG) (BU) (BG) (AG) (BG)
                 (AU) (AG) (BU) (BG) (AU) (BU) (AG) (BG) (BU) (AU)
                 (BU) (AU) (AG) (BU) (BG) (AU) (AG) (AU) (AG) (BU)
                 (BG) (AU) (BG) (AG) (AG) (BU) (AU) (BG) (BU) (AG)
                 (BG) (AU) (AG) (BU) (BG) (BU) (BG) (AU) (AG) (AU)
                 (BU) (BU) (AU) (BG) (AG) (BG) (BU) (AG) (BU) (AU)
                 (AG) (BG) (AU) (AG) (BG) (BU) (BU) (AG) (AU) (AG)
                 (BG) (AG) (AU) (BU) (AG) (BG) (BU) (BU) (BG) (AU)
                 (AG) (BG) (AG) (BU) (BU) (AU) (AG) (BG) (BU) (AU)
                 (AU) (BU) (AG) (BG) (BG) (AG) (BU) (BG) (AU) (BU)
                 (AU) (BU) (BG) (AG) (AU) (BU) (AG) (BG) (BG) (AU)
                 (BU) (AG) (AU) (AU) (BU) (AG) (BG) (AG) (AU) (AG)
                 (BG) (BU) (BU) (AU) (BU) (AU) (AG) (BG) (AG) (BG)
                 (AG) (BG) (AU) (BU) (AU) (BG) (AG) (AU) (AU) (BG)
                 (BG) (AG) (BU) (AU) (AU) (BU) (AG) (BG) (BU) (BG)
                 (AU) (AG) (BU) (BG) (BU) (AU) (BG) (AG) (AU) (BU)
                 (BG) (AG) (BU) (AU) (BG) (BG) (AG) (BU) (AG) (AU)
                 (BU) (BG) (BG) (AU) (BG) (AG) (AU) (BU) (BG) (BU)
                 (AG) (BG) (AG) (AU) (BU) (AG) (AU) (AU) (BG) (BU)
                 (BU) (AG) (AU) (BG) (AG) (BU) (BU) (BG) (AU) (AG)
                 (BU) (AG) (BG) (AU) (AG) (BU) (AG) (BG) (BU) (AG)
                 (AU) (BG) (AU) (BU) (BU) (AG) (BU) (BG) (AG) (AU)
                 (AG) (AU) (BG) (BU) (BG) (AU) (BU) (AU) (AG) (AG)
                 (AG) (AU) (BG) (BU) (BG) (AG) (BU) (AU) (BG) (AG)
                 (AG) (AU) (BG) (BU) (AU) (AU) (AG) (BU) (BU) (BG)
                 (AU) (AU) (AG) (BG) (BU) (AG) (BU) (BG) (AU) (AG)
                 (AG) (BG) (AG) (BU) (BU) (AG) (AU) (BU) (BG) (AU)
                 (BG) (AU) (BG) (AG) (AU) (BU) (AG) (BG) (AG) (AU)
                 (BU) (BG) (AU) (AG) (BU) (AU) (AG) (BG) (BU) (AG)
                 (BU) (BG) (AU) (BG) (BU) (AG) (AU) (BU) (AG) (BG)
                 (BU) (AG) (AU) (AG) (BG) (AG) (AU) (BG) (BU) (AU)
                 (BU) (BG) (AU) (BG) (AU) (BU) (AG) (AG) (BG) (AU)
                 (BG) (AG) (BU) (AG) (BG) (AU) (BU) (BG) (AG) (AU)
                 (BU) (AU) (AG) (BG) (BU) (AU) (AG) (AU) (BG) (BU)
                 (BG) (AU) (AG) (BG) (BU) (AU) (AG) (BU) (AU) (AG)
                 (BU) (AU) (BG) (AG) (BU) (BG) (BU) (AU) (BG) (AU)
                 (AG) (BU) (AG) (BG) (AU) (AU) (BG) (BU) (BU) (BG)
                 (AG) (BU) (AU) (AG) (BG) (AG) (BU) (BG) (BU) (BG)
                 (AU) (AG) (BG) (AU) (BU) (BU) (AG) (BG) (AU) (BG)
                 (AG) (BU) (BG) (AG) (BG) (BU) (AU) (AU) (BG) (AG)
                 (BU) (AU) (AG) (BU) (AU) (BG) (AG) (AG) (AU) (BG)
                 (BU) (AU) (BG) (AG) (AG) (BU) (BU) (AU) (BG) (AU)
                 (BU) (AG) (BU) (BG) (AU) (AG) (AU) (BG) (BU) (AG)
                 (AU) (BU) (BG) (AG) (BG) (AU) (BU) (BG) (BU) (AG)
                 (AU) (BU) (BG) (AG) (BU) (AU) (BG) (AU) (AG) (BU)
                 (BG) (BG) (AG) (AU) (BG) (AG) (AU) (BU) (BG) (AU)
                 (BU) (BG) (AG) (AU) (BU) (AG) (BG) (BU) (AU) (AG)
                 (BG) (AU) (BU) (AG) (AU) (AG) (BG) (BU) (BU) (AU)
                 (BG) (AU) (AG) (BU) (AG) (AU) (AG) (BG) (BU) (AU)
                 (AG) (BG) (BG) (BU) (BG) (AG) (AU) (AU) (BU) (AG)
                 (BU) (AU) (BG) (AG) (AU) (AG) (AU) (BU) (BG) (AU)
                 (BG) (AG) (BU) (BG) (AG) (BU) (AG) (AU) (BU) (BG)
                 (AU) (BG) (BU) (AU) (BU) (BG) (BG) (AG) (AG) (AU)
                 (AU) (AG) (AU) (BU) (AG) (BG) (BG) (AU) (BU) (BG)
                 (BU) (AG) (AU) (BG) (AG) (AG) (BU) (BG) (AU) (BG)
                 (BU) (AU) (AG) (BU) (AU) (BG) (AG) (BG) (BU) (AU)
                 (BU) (AG) (AG) (AU) (BG) (BU) (AU) (BU) (AG) (AU)
                 (BG) (AG) (BG) (BU) (AG) (BU) (AU) (AG) (BG) (AU)
                 (BU) (BG) (BU) (AU) (BG) (AG) (AU) (AG) (BU) (AG)
                 (AG) (BG) (AU) (BU) (AG) (BG) (AU) (BG) (AU) (BU)
                 (BU) (AG) (AU) (BG) (BG) (BU) (AU) (AG) (BU) (AG)
                 (BG) (BG) (AU) (AG) (BU) (AU) (BG) (BU) (BU) (BG)
                 (AU) (BG) (AU) (AG) (BU) (BG) (AG) (BG) (AU) (AG)
                 (BG) (AU) (BU) (BU) (AU) (BG) (AG) (AG) (BU) (AU)
                 (AG) (BU) (AG) (AU) (BG) (AU) (BG) (BU) (AU) (AG)
                 (BG) (BU) (AG) (AG) (BU) (BG) (AU) (BU) (AG) (BG)
                 (AU) (BU) (AG) (BG) (BU) (AU) (BU) (AG) (AG) (BU)
                 (BG) (BG) (AU) (AG) (AU) (BU) (AG) (BG) (AU) (BU)
                 (AG) (BU) (AG) (AG) (BU) (BG) (AG) (AU) (BU) (BG)
                 (AG) (BG) (AG) (BU) (AU) (AU) (BG) (AG) (AU) (BU)
                 (AG) (BG) (AU) (BG) (AG) (BU) (AU) (AU) (AG) (AU)
                 (BU) (AG) (BG) (AU) (BG) (AU) (BU) (BU) (BG) (BG)
                 (AU) (AG) (AG) (BU) (BG) (BU) (AU) (BU) (AG) (AU)
                 (BU) (BG) (AU) (AG) (BU) (AU) (BG) (AG) (BG) (AU)
                 (BU) (AG) (AU) (BG) (BU) (AG) (BG) (AU) (BG) (BG)
                 (AG) (BU) (AU) (AG) (BU) (AG) (AU) (BU) (BG) (AG)
                 (AG) (BU) (BU) (AG) (AU) (BG) (BU) (AU) (BG) (AU)
                 (BU) (AG) (BG) (BU) (AG) (BU) (AU) (BG) (AG) (BU)
                 (AU) (AG) (BG) (AU) (AG) (BU) (BG) (AU) (AU) (AG)
                 (BG) (BG) (BU) (AG) (BU) (AU) (BU) (AG) (AU) (AG)
                 (BU) (AG) (BU) (BG) (AU) (BU) (BG) (AG) (AU) (BG)
                 (AG) (BG) (BU) (BG) (AG) (AU) (BU) (AU) (BG) (AG)
                 (BU) (BG) (AU) (AG) (AU) (BG) (AG) (AU) (BU) (BG)
                 (AU) (BG) (BU) (AG) (AU) (BU) (BG) (BU) (AU) (BG)
                 (AU) (AG) (BG) (BU) (AG) (AG) (BG) (BU) (AG) (BG)
                 (AU) (BU) (BU) (AG) (AU) (BU) (BG) (AU) (AG) (BU)
                 (AG) (AU) (BG) (BU) (AG) (BG) (AG) (BU) (AG) (BU)
                 (BG) (AU) (AU) (AG) (BU) (AU) (AG) (AU) (BU) (BG)
                 (AG) (BU) (AG) (AU) (BU) (BG) (AG) (BG) (AG) (AU)
                 (BG) (BU) (AG) (AU) (BG) (BU) (BG) (AU) (AG) (AG)
                 (AU) (BU) (AU) (BG) (BU) (BG) (AG) (BU) (AU) (BU)
                 (BG) (AG) (AU) (BU) (AU) (BG) (BU) (AG) (BG) (BU)
                 (BG) (AG) (BU) (AU) (BG) (AG) (BU) (BG) (BU) (AG)
                 (AU) (AG) (BU) (AU) (AG) (BU) (BG) (AU) (AG) (AG)
                 (BU) (BU) (BG) (AG) (AU) (AU) (BG) (BU) (AG) (BG)
                 (BU) (AG) (AU) (BU) (BG) (AG) (BU) (AU) (BG) (AG)
                 (AG) (AU) (BG) (BU) (BG) (BU) (AG) (BG) (AU) (BU)
                 (AU) (BU) (BG) (AU) (AG) (AG) (BU) (BU) (AG) (BG)
                 (AU) (BU) (BG) (BU) (AG) (AU) (AG) (AU) (BG) (AG)
                 (BU) (BU) (AG) (BU) (BG) (AU) (AG) (BU) (AG) (AG)
                 (BU) (AU) (AG) (BG) (AU) (BU) (BG) (AG) (BU) (AU)
                 (AG) (BG) (BU) (AU) (BU) (AU) (AG) (BG) (BG) (AG)
                 (AU) (BU) (AG) (BU) (AU) (BG) (BU) (BG) (AG) (AU)
                 (BG) (AG) (BU) (BG) (BU) (AU) (AU) (BG) (BU) (AG)
                 (BG) (BU) (AG) (AU) (AG) (BU) (BG) (AG) (AU) (AG)
                 (BU) (AG) (AU) (BG) (BU) (AU) (AG) (BG) (BU) (BU)
                 (AU) (BG) (AU) (AG) (BG) (AG) (BG) (AG) (AU) (AU)
                 (BU) (BU) (AG) (BG) (BG) (BU) (BG) (AG) (AU) (BU)
                 (BU) (AG) (AU) (BU) (AU) (AG) (AG) (AU) (BG) (BU)
                 (BG) (AG) (AU) (BG) (BU) (BG) (BG) (AG) (AU) (BU)
                 (AG) (AU) (BG) (BU) (AU) (BU) (BG) (AG) (AG) (AU)
                 (BU) (BU) (AU) (BG) (BG) (AU) (BU) (AG) (BG) (BG)
                 (AU) (AG) (BU) (AU) (AG) (BG) (AG) (BU) (AU) (AU)
                 (BU) (BG) (AU) (BG) (AG) (AG) (BG) (BU) (AU) (AG)
                 (BU) (AG) (BU) (AU) (BG) (BU) (BG) (AG) (BU) (AU)
                 (AG) (BG) (AU) (AU) (AG) (BU) (AG) (BG) (AU) (AG)
                 (BU) (BU) (BU) (BG) (AU) (AG) (BU) (BG) (AG) (AU)
                 (AU) (BG) (BU) (AG) (BU) (BG) (AG) (AU) (BG) (BU)
                 (AU) (AG) (BU) (AG) (AU) (BG) (BU) (BG) (AU) (AU)
                 (AG) (BU) (BG) (BG) (AG) (BU) (AU) (AG) (AU) (BU)
                 (AG) (AU) (BG) (AG) (BG) (BU) (BU) (AU) (BU) (AG)
                 (BG) (AU) (AG) (BG) (BU) (BG) (BU) (AG) (AU) (AG)
                 (AG) (AU) (BU) (BG) (BU) (AU) (BG) (AG) (BU) (AG)
                 (AU) (AU) (AG) (BG) (BG) (AU) (BU) (AG) (BU) (BG)
                 (AU) (BG) (BU) (AG) (AU) (AG) (BU) (BG) (AG) (BU)
                 (AG) (BU) (AU) (BU) (AU) (BG) (BG) (AU) (AG) (BG)
                 (AU) (AU) (AG) (BU) (AU) (BG) (BG) (AG) (BU) (AG)
                 (AU) (BG) (AU) (AG) (BG) (BU) (AU) (BG) (AG) (BU)
                 (AU) (BG) (AG) (BU) (AU) (BG) (AU) (AG) (BG) (AG)
                 (AU) (BU) (BG) (BU) (AU) (BG) (BU) (AG) (AG) (BG)
                 (BU) (BU) (BU) (AU) (AU) (BG) (AG) (BG) (AU) (BU)
                 (AG) (BG) (AU) (AG) (BU) (AU) (BG) (AG) (BU) (BU)
                 (BG) (AG) (BG) (BU) (AU) (AG) (BG) (AU) (BG) (AU)
                 (BU) (AG) (BU) (AU) (BG) (AU) (AG) (BG) (BU) (BG)
                 (AG) (AU) (AG) (AU) (BU) (BG) (BG) (AG) (AU) (BU)
                 (AU) (BG) (AU) (AG) (BG) (AU) (BU) (BG) (AG) (AU)
                 (AG) (BG) (BU) (AU) (AG) (BU) (AU) (BG) (AU) (BG)
                 (AU) (AG) (BG) (BU) (AU) (BU) (BG) (AG) (AU) (AG)
                 (BG) (BG) (AU) (AG) (BU) (AU) (AG) (BU) (AU) (BG)
                 (AG) (BU) (AU) (BG) (BU) (AU) (AG) (AG) (BG) (BU)
                 (AU) (BG) (BG) (AG) (BU) (AU) (BG) (BU) (AG) (BG)
                 (AU) (BU) (AU) (AU) (BU) (BG) (BG) (AG) (AG) (AU)
                 (BU) (BG) (AG) (BU) (AU) (AU) (BG) (AG) (BU) (BU)
                 (AG) (BG) (AU) (BG) (AG) (BG) (AU) (BU) (BG) (AG)
                 (AU) (BU) (AU) (BG) (BU) (AU) (BG) (AU) (AG) (BG)
                 (AU) (BG) (BU) (AG) (BG) (BU) (AG) (BU) (AU) (AG)
                 (AU) (BG) (BU) (AU) (BG) (AG) (AU) (BG) (AG) (BU)
                 (AG) (BG) (AU) (BU) (BG) (AU) (BG) (AU) (BU) (AG)
                 (BG) (AU) (BG) (BU) (AU) (BG) (BU) (AG) (AU) (BG)
                 (AU) (BG) (BU) (AU) (BU) (AG) (BU) (AG) (BG) (AG)
                 (BG) (BU) (AU) (AG) (BG) (AU) (BU) (AG) (AU) (BG)
                 (BG) (AG) (BU) (AU) (BG) (BU) (AU) (AG) (BG) (BU)
                 (AU) (AG) (AG) (BU) (BU) (AU) (AG) (BG) (AU) (BG)
                 (BU) (AG) (BU) (AU) (BG) (AG) (BU) (AU) (AG) (BG)
                 (AU) (BG) (BU) (BG) (AU) (AG) (BU) (BG) (AU) (BG)
                 (BG) (BU) (AU) (AG) (AG) (BG) (BU) (AG) (BU) (AU)
                 (BU) (AU) (AG) (BG) (AU) (BG) (AU) (AG) (BU) (BG)
                 (AU) (BG) (AG) (AU) (BG) (BU) (BG) (AU) (BG) (BU)
                 (AG) (AU) (BG) (BU) (AU) (BG) (AU) (AG) (BU) (BG)
                 (AU) (BG) (BU) (AG) (AU) (AG) (BU) (BG) (AG) (BU)
                 (AU) (BG) (AG) (AG) (BG) (AU) (BU) (BU) (BG) (AU)
                 (BU) (AG) (AU) (BU) (AG) (AG) (BG) (BU) (AG) (BG)
                 (AU) (BU) (AG) (AU) (BU) (BG) (AU) (AG) (BG) (BU)
                 (AU) (BG) (BU) (AG) (BG) (AU) (BU) (AG) (AU) (BG)
                 (AG) (BU) (AU) (BG) (AG) (AU) (AG) (BU) (BU) (AG)
                 (BG) (BG) (AU) (AG) (AU) (BG) (BU) (BG) (AU) (AU)
                 (BG) (BU) (AG) (BU) (AU) (AG) (BU) (BG) (AG) (AU)
                 (BG) (AG) (BG) (AU) (AG) (BG) (BU) (BG) (AG) (BU)
                 (AG) (AU) (BU) (BU) (AU) (BG) (AG) (AG) (BU) (AU)
                 (BU) (AG) (BG) (BU) (AG) (AU) (BG) (AU) (BG) (AG)
                 (AU) (BU) (AG) (BU) (AG) (AG) (BU) (AU) (BG) (BU)
                 (BG) (AG) (AU) (BG) (AG) (AU) (BU) (AG) (BG) (AU)
                 (BU) (BG) (AG) (BU) (AG) (AG) (BG) (AU) (AU) (BU)
                 (AG) (BU) (BU) (AG) (BU) (BU) (AU) (BG) (AG) (AU)
                 (BU) (BU) (BG) (AU) (AG) (AU) (BU) (AG) (BU) (AU)
                 (AG) (BU) (BG) (AG) (BU) (AG) (BU) (AG) (AU) (AG)
                 (AU) (BU) (BG) (BU) (AG) (AG) (BG) (AG) (BU) (AG)
                 (AU) (BU) (AU) (BG) (BU) (BG) (AU) (BG) (AU) (AG)
                 (BU) (AU) (BU) (AG) (BG) (BU) (AG) (AG) (BU) (AU)
                 (BU) (AG) (AU) (BG) (AG) (BG) (AU) (BU) (BG) (AU)
                 (AG) (BG) (BU) (BG) (AU) (AU) (BG) (BU) (AU) (BG)
                 (AG) (BG) (BU) (AU) (AG) (BU) (AU) (AG) (BG) (AG)
                 (BU) (AG) (BU) (AU) (BG) (AG) (BU) (AU) (BG) (AU)
                 (BG) (AU) (BG) (AU) (BG) (BU) (AG) (BG) (AU) (BU)
                 (AU) (BG) (BG) (AG) (BU) (AU) (BG) (AG) (BU) (AG)
                 (AU) (BU) (AG) (BU) (BG) (AU) (AG) (AU) (BU) (BG)
                 (AG) (BU) (AG) (BU) (BG) (AU) (AG)
 The electronic state is 1-AG.
 Alpha  occ. eigenvalues -- -345.98762-345.98762-345.98621 -41.85797 -41.85797
 Alpha  occ. eigenvalues --  -41.85632 -36.94088 -36.94088 -36.93922 -36.93239
 Alpha  occ. eigenvalues --  -36.93238 -36.93236 -36.93236 -36.93078 -36.93074
 Alpha  occ. eigenvalues --  -14.22304 -14.22304 -14.22097 -14.22097 -14.22096
 Alpha  occ. eigenvalues --  -14.22095 -14.22092 -14.22091 -14.22065 -14.22065
 Alpha  occ. eigenvalues --  -14.21915 -14.21915 -14.21221 -14.21221 -14.21221
 Alpha  occ. eigenvalues --  -14.21220 -14.21206 -14.21206 -14.21205 -14.21205
 Alpha  occ. eigenvalues --  -14.21056 -14.21055 -14.21055 -14.21055 -10.18799
 Alpha  occ. eigenvalues --  -10.18799 -10.18793 -10.18793 -10.18776 -10.18776
 Alpha  occ. eigenvalues --  -10.18775 -10.18775 -10.18757 -10.18757 -10.18752
 Alpha  occ. eigenvalues --  -10.18751 -10.18735 -10.18735 -10.18735 -10.18735
 Alpha  occ. eigenvalues --  -10.18637 -10.18637 -10.18632 -10.18631 -10.18600
 Alpha  occ. eigenvalues --  -10.18599 -10.18594 -10.18593 -10.11955 -10.11955
 Alpha  occ. eigenvalues --  -10.11946 -10.11946 -10.11913 -10.11913 -10.11888
 Alpha  occ. eigenvalues --  -10.11888 -10.11836 -10.11836 -10.11798 -10.11798
 Alpha  occ. eigenvalues --  -10.11773 -10.11773 -10.11773 -10.11773 -10.11736
 Alpha  occ. eigenvalues --  -10.11736 -10.11736 -10.11736 -10.11703 -10.11703
 Alpha  occ. eigenvalues --  -10.11703 -10.11703 -10.11647 -10.11647 -10.11610
 Alpha  occ. eigenvalues --  -10.11610 -10.11599 -10.11599 -10.11564 -10.11564
 Alpha  occ. eigenvalues --  -10.11556 -10.11556 -10.11539 -10.11539 -10.11539
 Alpha  occ. eigenvalues --  -10.11539 -10.11526 -10.11526 -10.11526 -10.11526
 Alpha  occ. eigenvalues --  -10.11520 -10.11520 -10.11471 -10.11471 -10.11471
 Alpha  occ. eigenvalues --  -10.11471 -10.11443 -10.11443 -10.11443 -10.11443
 Alpha  occ. eigenvalues --  -10.11408 -10.11408 -10.11408 -10.11408 -10.11386
 Alpha  occ. eigenvalues --  -10.11386 -10.11383 -10.11383 -10.11344 -10.11344
 Alpha  occ. eigenvalues --  -10.11321 -10.11321 -10.11304 -10.11304 -10.11281
 Alpha  occ. eigenvalues --  -10.11281 -10.11190 -10.11190 -10.11149 -10.11149
 Alpha  occ. eigenvalues --   -4.80848  -4.80848  -4.80688  -3.25442  -3.25442
 Alpha  occ. eigenvalues --   -3.25281  -3.24006  -3.24006  -3.23998  -3.23998
 Alpha  occ. eigenvalues --   -3.23849  -3.23834  -1.15552  -1.15368  -1.15039
 Alpha  occ. eigenvalues --   -1.13988  -1.13976  -1.13874  -1.13816  -1.13651
 Alpha  occ. eigenvalues --   -1.13482  -1.11034  -1.10951  -1.10730  -1.08671
 Alpha  occ. eigenvalues --   -1.08620  -1.08419  -1.04395  -1.04353  -1.04343
 Alpha  occ. eigenvalues --   -1.04337  -1.04176  -1.04164  -1.01248  -1.01186
 Alpha  occ. eigenvalues --   -1.00968  -1.00219  -1.00205  -1.00142  -0.99977
 Alpha  occ. eigenvalues --   -0.99966  -0.99927  -0.99886  -0.99840  -0.99663
 Alpha  occ. eigenvalues --   -0.99607  -0.99585  -0.99541  -0.91692  -0.91635
 Alpha  occ. eigenvalues --   -0.91407  -0.90468  -0.90425  -0.90261  -0.90244
 Alpha  occ. eigenvalues --   -0.90121  -0.90104  -0.90064  -0.89934  -0.89890
 Alpha  occ. eigenvalues --   -0.89789  -0.89760  -0.89742  -0.89734  -0.89528
 Alpha  occ. eigenvalues --   -0.89525  -0.89504  -0.89442  -0.89371  -0.89345
 Alpha  occ. eigenvalues --   -0.89290  -0.89124  -0.85748  -0.85742  -0.85579
 Alpha  occ. eigenvalues --   -0.82975  -0.82972  -0.82962  -0.82943  -0.82807
 Alpha  occ. eigenvalues --   -0.82744  -0.77437  -0.77398  -0.77395  -0.77313
 Alpha  occ. eigenvalues --   -0.77163  -0.77064  -0.76479  -0.76463  -0.76424
 Alpha  occ. eigenvalues --   -0.76424  -0.76251  -0.76185  -0.75692  -0.75678
 Alpha  occ. eigenvalues --   -0.75497  -0.75379  -0.75375  -0.75209  -0.72894
 Alpha  occ. eigenvalues --   -0.72871  -0.72844  -0.72838  -0.72778  -0.72766
 Alpha  occ. eigenvalues --   -0.72680  -0.72663  -0.72630  -0.71674  -0.71651
 Alpha  occ. eigenvalues --   -0.71480  -0.69115  -0.69095  -0.68889  -0.68006
 Alpha  occ. eigenvalues --   -0.67999  -0.67997  -0.67997  -0.67830  -0.67822
 Alpha  occ. eigenvalues --   -0.66653  -0.66650  -0.66481  -0.66339  -0.66338
 Alpha  occ. eigenvalues --   -0.66313  -0.66308  -0.66193  -0.66162  -0.62986
 Alpha  occ. eigenvalues --   -0.62722  -0.62698  -0.62696  -0.62624  -0.62621
 Alpha  occ. eigenvalues --   -0.62617  -0.62567  -0.62502  -0.62468  -0.62396
 Alpha  occ. eigenvalues --   -0.62392  -0.62230  -0.61903  -0.61893  -0.61075
 Alpha  occ. eigenvalues --   -0.61024  -0.60996  -0.60523  -0.60521  -0.60506
 Alpha  occ. eigenvalues --   -0.60505  -0.60496  -0.60339  -0.60327  -0.60322
 Alpha  occ. eigenvalues --   -0.59224  -0.59224  -0.59208  -0.59157  -0.59030
 Alpha  occ. eigenvalues --   -0.58924  -0.58895  -0.58644  -0.58504  -0.58469
 Alpha  occ. eigenvalues --   -0.58317  -0.58228  -0.58222  -0.58176  -0.58054
 Alpha  occ. eigenvalues --   -0.57998  -0.57995  -0.57839  -0.57743  -0.57724
 Alpha  occ. eigenvalues --   -0.57633  -0.57625  -0.57564  -0.56958  -0.56788
 Alpha  occ. eigenvalues --   -0.56665  -0.56541  -0.56507  -0.56264  -0.56256
 Alpha  occ. eigenvalues --   -0.56146  -0.56080  -0.56062  -0.55960  -0.55893
 Alpha  occ. eigenvalues --   -0.55858  -0.55803  -0.55703  -0.55344  -0.54953
 Alpha  occ. eigenvalues --   -0.54953  -0.54758  -0.54753  -0.54739  -0.54688
 Alpha  occ. eigenvalues --   -0.54683  -0.54572  -0.54555  -0.53841  -0.53470
 Alpha  occ. eigenvalues --   -0.53468  -0.53315  -0.52738  -0.52530  -0.52305
 Alpha  occ. eigenvalues --   -0.52086  -0.51348  -0.51152  -0.50996  -0.50422
 Alpha  occ. eigenvalues --   -0.50353  -0.49427  -0.49406  -0.49308  -0.48635
 Alpha  occ. eigenvalues --   -0.48631  -0.48363  -0.48310  -0.48280  -0.48218
 Alpha  occ. eigenvalues --   -0.48199  -0.48196  -0.48195  -0.48099  -0.48090
 Alpha  occ. eigenvalues --   -0.47692  -0.47556  -0.47549  -0.47524  -0.47521
 Alpha  occ. eigenvalues --   -0.47377  -0.47376  -0.47315  -0.47304  -0.47290
 Alpha  occ. eigenvalues --   -0.47194  -0.47083  -0.46704  -0.46692  -0.46486
 Alpha  occ. eigenvalues --   -0.45948  -0.45553  -0.45544  -0.45464  -0.45447
 Alpha  occ. eigenvalues --   -0.45322  -0.45263  -0.45239  -0.45231  -0.45135
 Alpha  occ. eigenvalues --   -0.44089  -0.43843  -0.43382  -0.43328  -0.43078
 Alpha  occ. eigenvalues --   -0.42827  -0.42613  -0.42458  -0.42325  -0.39700
 Alpha  occ. eigenvalues --   -0.39675  -0.39646  -0.39607  -0.39552  -0.39440
 Alpha  occ. eigenvalues --   -0.38959  -0.38205  -0.37828  -0.37828  -0.37621
 Alpha  occ. eigenvalues --   -0.37403  -0.37181  -0.36701  -0.36318  -0.36240
 Alpha  occ. eigenvalues --   -0.36043  -0.35999  -0.35808  -0.35729  -0.35719
 Alpha  occ. eigenvalues --   -0.35703  -0.35566  -0.35561  -0.35560  -0.35527
 Alpha  occ. eigenvalues --   -0.35317  -0.35218  -0.35033  -0.34821  -0.34705
 Alpha  occ. eigenvalues --   -0.34701  -0.34503  -0.34488  -0.34242  -0.33959
 Alpha  occ. eigenvalues --   -0.33618  -0.33458  -0.33117  -0.23702  -0.23383
 Alpha  occ. eigenvalues --   -0.23152
 Alpha virt. eigenvalues --   -0.06388  -0.06011  -0.05494  -0.05447  -0.04988
 Alpha virt. eigenvalues --   -0.04458   0.02941   0.03342   0.03533   0.03744
 Alpha virt. eigenvalues --    0.04023   0.04211   0.04303   0.04407   0.04736
 Alpha virt. eigenvalues --    0.05085   0.05114   0.05251   0.05332   0.05362
 Alpha virt. eigenvalues --    0.05845   0.08040   0.08169   0.09676   0.09743
 Alpha virt. eigenvalues --    0.09870   0.09985   0.10072   0.10369   0.10529
 Alpha virt. eigenvalues --    0.10535   0.10599   0.10650   0.10671   0.10710
 Alpha virt. eigenvalues --    0.10892   0.10954   0.11292   0.11575   0.11612
 Alpha virt. eigenvalues --    0.11641   0.11948   0.12114   0.12115   0.12512
 Alpha virt. eigenvalues --    0.12747   0.12994   0.13228   0.13279   0.13457
 Alpha virt. eigenvalues --    0.13492   0.13648   0.13674   0.13947   0.13962
 Alpha virt. eigenvalues --    0.14044   0.14141   0.14206   0.14294   0.14453
 Alpha virt. eigenvalues --    0.14557   0.14680   0.14747   0.14897   0.14985
 Alpha virt. eigenvalues --    0.15201   0.15640   0.15652   0.15866   0.16054
 Alpha virt. eigenvalues --    0.16088   0.16394   0.16661   0.16796   0.16896
 Alpha virt. eigenvalues --    0.17553   0.17581   0.17930   0.17965   0.18301
 Alpha virt. eigenvalues --    0.18388   0.18426   0.18610   0.18632   0.19189
 Alpha virt. eigenvalues --    0.19816   0.19834   0.19839   0.20068   0.20165
 Alpha virt. eigenvalues --    0.20202   0.20357   0.20422   0.20633   0.20639
 Alpha virt. eigenvalues --    0.20659   0.20772   0.20804   0.21093   0.21214
 Alpha virt. eigenvalues --    0.21297   0.21475   0.21750   0.22004   0.22187
 Alpha virt. eigenvalues --    0.22249   0.22395   0.22468   0.22579   0.22633
 Alpha virt. eigenvalues --    0.23063   0.23106   0.23720   0.23779   0.24113
 Alpha virt. eigenvalues --    0.24639   0.24793   0.24903   0.25150   0.25199
 Alpha virt. eigenvalues --    0.25227   0.25500   0.25610   0.25627   0.25802
 Alpha virt. eigenvalues --    0.25805   0.25913   0.26158   0.26161   0.26422
 Alpha virt. eigenvalues --    0.26510   0.26701   0.26709   0.26717   0.26759
 Alpha virt. eigenvalues --    0.26973   0.27213   0.27316   0.27392   0.27434
 Alpha virt. eigenvalues --    0.27629   0.27677   0.27708   0.27744   0.27790
 Alpha virt. eigenvalues --    0.27831   0.28128   0.28193   0.28254   0.28365
 Alpha virt. eigenvalues --    0.28366   0.28425   0.28642   0.28760   0.28883
 Alpha virt. eigenvalues --    0.29009   0.29121   0.29214   0.29276   0.29307
 Alpha virt. eigenvalues --    0.29463   0.29468   0.29538   0.29639   0.29641
 Alpha virt. eigenvalues --    0.29715   0.29722   0.29856   0.29857   0.29919
 Alpha virt. eigenvalues --    0.30024   0.30177   0.30190   0.30198   0.30257
 Alpha virt. eigenvalues --    0.30339   0.30386   0.30424   0.30434   0.30524
 Alpha virt. eigenvalues --    0.30643   0.30719   0.30745   0.30793   0.30834
 Alpha virt. eigenvalues --    0.31200   0.31258   0.31314   0.31395   0.31471
 Alpha virt. eigenvalues --    0.31480   0.31605   0.31728   0.31968   0.31974
 Alpha virt. eigenvalues --    0.32021   0.32098   0.32155   0.32226   0.32302
 Alpha virt. eigenvalues --    0.32373   0.32517   0.32528   0.32542   0.32862
 Alpha virt. eigenvalues --    0.32883   0.32949   0.33226   0.33242   0.33326
 Alpha virt. eigenvalues --    0.33856   0.33884   0.33956   0.34256   0.34465
 Alpha virt. eigenvalues --    0.34469   0.34549   0.34559   0.34825   0.34925
 Alpha virt. eigenvalues --    0.35170   0.35345   0.35419   0.35449   0.35480
 Alpha virt. eigenvalues --    0.35573   0.35737   0.35969   0.36057   0.36067
 Alpha virt. eigenvalues --    0.36209   0.36342   0.36348   0.36353   0.36415
 Alpha virt. eigenvalues --    0.36679   0.36720   0.36778   0.37166   0.37331
 Alpha virt. eigenvalues --    0.37500   0.37753   0.37761   0.37766   0.37787
 Alpha virt. eigenvalues --    0.38060   0.38359   0.38369   0.38380   0.38501
 Alpha virt. eigenvalues --    0.38799   0.38920   0.38935   0.39090   0.39094
 Alpha virt. eigenvalues --    0.39118   0.39120   0.39505   0.39529   0.39550
 Alpha virt. eigenvalues --    0.39683   0.39732   0.39740   0.39740   0.40089
 Alpha virt. eigenvalues --    0.40135   0.40174   0.40322   0.40589   0.40651
 Alpha virt. eigenvalues --    0.40807   0.40827   0.40887   0.40970   0.41022
 Alpha virt. eigenvalues --    0.41203   0.41244   0.41262   0.41339   0.41444
 Alpha virt. eigenvalues --    0.41563   0.41613   0.41743   0.41784   0.41858
 Alpha virt. eigenvalues --    0.41885   0.41908   0.41982   0.42320   0.42353
 Alpha virt. eigenvalues --    0.42447   0.42698   0.42727   0.42884   0.42925
 Alpha virt. eigenvalues --    0.43087   0.43115   0.43226   0.43458   0.43819
 Alpha virt. eigenvalues --    0.43868   0.43998   0.44025   0.44051   0.44128
 Alpha virt. eigenvalues --    0.44344   0.44367   0.44488   0.44490   0.44550
 Alpha virt. eigenvalues --    0.44574   0.44781   0.44865   0.44980   0.45093
 Alpha virt. eigenvalues --    0.45111   0.45392   0.45426   0.45583   0.45619
 Alpha virt. eigenvalues --    0.45694   0.45705   0.45712   0.45891   0.45958
 Alpha virt. eigenvalues --    0.46075   0.46279   0.46394   0.46406   0.46417
 Alpha virt. eigenvalues --    0.46533   0.46632   0.46649   0.46851   0.46936
 Alpha virt. eigenvalues --    0.47058   0.47153   0.47301   0.47521   0.47711
 Alpha virt. eigenvalues --    0.47730   0.47872   0.47917   0.47984   0.48010
 Alpha virt. eigenvalues --    0.48084   0.48101   0.48189   0.48302   0.48458
 Alpha virt. eigenvalues --    0.48538   0.48649   0.48745   0.48842   0.48876
 Alpha virt. eigenvalues --    0.48888   0.48973   0.49066   0.49251   0.49261
 Alpha virt. eigenvalues --    0.49480   0.49519   0.49574   0.49590   0.49671
 Alpha virt. eigenvalues --    0.49991   0.50022   0.50214   0.50242   0.50347
 Alpha virt. eigenvalues --    0.50373   0.50593   0.50633   0.50649   0.50680
 Alpha virt. eigenvalues --    0.50834   0.51034   0.51073   0.51113   0.51185
 Alpha virt. eigenvalues --    0.51211   0.51337   0.51341   0.51381   0.51622
 Alpha virt. eigenvalues --    0.51636   0.51718   0.51761   0.51858   0.51874
 Alpha virt. eigenvalues --    0.51900   0.51956   0.52261   0.52439   0.52509
 Alpha virt. eigenvalues --    0.52701   0.52847   0.52918   0.53100   0.53134
 Alpha virt. eigenvalues --    0.53258   0.53409   0.53425   0.53425   0.53446
 Alpha virt. eigenvalues --    0.53614   0.53652   0.53716   0.53860   0.53976
 Alpha virt. eigenvalues --    0.54114   0.54127   0.54299   0.54476   0.54487
 Alpha virt. eigenvalues --    0.54526   0.54633   0.54766   0.54860   0.54908
 Alpha virt. eigenvalues --    0.55048   0.55140   0.55326   0.55540   0.55775
 Alpha virt. eigenvalues --    0.55901   0.55974   0.56044   0.56226   0.56331
 Alpha virt. eigenvalues --    0.56374   0.56390   0.56604   0.56691   0.56725
 Alpha virt. eigenvalues --    0.56782   0.57164   0.57312   0.57433   0.57456
 Alpha virt. eigenvalues --    0.57519   0.57689   0.57692   0.58271   0.58332
 Alpha virt. eigenvalues --    0.58478   0.58559   0.58583   0.58703   0.58881
 Alpha virt. eigenvalues --    0.58970   0.59041   0.59219   0.59349   0.59480
 Alpha virt. eigenvalues --    0.59664   0.59792   0.59813   0.59927   0.60280
 Alpha virt. eigenvalues --    0.60306   0.60383   0.60416   0.60489   0.60587
 Alpha virt. eigenvalues --    0.60711   0.60746   0.60999   0.61125   0.61187
 Alpha virt. eigenvalues --    0.61233   0.61286   0.61391   0.61421   0.61645
 Alpha virt. eigenvalues --    0.61647   0.61784   0.61899   0.62009   0.62010
 Alpha virt. eigenvalues --    0.62122   0.62303   0.62701   0.62835   0.62861
 Alpha virt. eigenvalues --    0.62881   0.63071   0.63156   0.63276   0.63538
 Alpha virt. eigenvalues --    0.63629   0.63736   0.63747   0.63814   0.63851
 Alpha virt. eigenvalues --    0.63867   0.64189   0.64390   0.64555   0.64889
 Alpha virt. eigenvalues --    0.64932   0.65133   0.65145   0.65452   0.65492
 Alpha virt. eigenvalues --    0.65538   0.65584   0.65792   0.65903   0.66055
 Alpha virt. eigenvalues --    0.66583   0.66610   0.66686   0.66720   0.66838
 Alpha virt. eigenvalues --    0.66914   0.67043   0.67174   0.67289   0.67515
 Alpha virt. eigenvalues --    0.67646   0.67771   0.68021   0.68057   0.68059
 Alpha virt. eigenvalues --    0.68385   0.68390   0.68729   0.68786   0.68915
 Alpha virt. eigenvalues --    0.68915   0.68979   0.69141   0.69167   0.69287
 Alpha virt. eigenvalues --    0.69921   0.69942   0.69956   0.70179   0.70230
 Alpha virt. eigenvalues --    0.70351   0.70402   0.70526   0.70566   0.70731
 Alpha virt. eigenvalues --    0.70955   0.70998   0.71140   0.71207   0.71460
 Alpha virt. eigenvalues --    0.71475   0.71761   0.71979   0.72202   0.72230
 Alpha virt. eigenvalues --    0.72481   0.72546   0.72700   0.72737   0.72817
 Alpha virt. eigenvalues --    0.72925   0.72944   0.72986   0.73125   0.73216
 Alpha virt. eigenvalues --    0.73229   0.73355   0.73480   0.73561   0.73567
 Alpha virt. eigenvalues --    0.73727   0.73893   0.74007   0.74176   0.74219
 Alpha virt. eigenvalues --    0.74228   0.74323   0.74538   0.74565   0.74586
 Alpha virt. eigenvalues --    0.74843   0.74889   0.75007   0.75044   0.75169
 Alpha virt. eigenvalues --    0.75195   0.75369   0.75915   0.75973   0.76047
 Alpha virt. eigenvalues --    0.76053   0.76341   0.76345   0.76453   0.76528
 Alpha virt. eigenvalues --    0.76705   0.76823   0.76981   0.77020   0.77023
 Alpha virt. eigenvalues --    0.77036   0.77187   0.77264   0.77383   0.77676
 Alpha virt. eigenvalues --    0.77685   0.77795   0.78022   0.78068   0.78208
 Alpha virt. eigenvalues --    0.78241   0.78251   0.78253   0.78694   0.78724
 Alpha virt. eigenvalues --    0.78749   0.78759   0.79253   0.79301   0.79429
 Alpha virt. eigenvalues --    0.79507   0.79650   0.79735   0.79753   0.80004
 Alpha virt. eigenvalues --    0.80021   0.80088   0.80378   0.80436   0.80458
 Alpha virt. eigenvalues --    0.80599   0.80678   0.80691   0.80898   0.81027
 Alpha virt. eigenvalues --    0.81202   0.81225   0.81277   0.81283   0.81617
 Alpha virt. eigenvalues --    0.81699   0.81711   0.81885   0.81919   0.81960
 Alpha virt. eigenvalues --    0.82019   0.82123   0.82163   0.82382   0.82385
 Alpha virt. eigenvalues --    0.82464   0.82718   0.82738   0.82832   0.82858
 Alpha virt. eigenvalues --    0.82925   0.82971   0.83054   0.83167   0.83317
 Alpha virt. eigenvalues --    0.83325   0.83487   0.83492   0.83777   0.83845
 Alpha virt. eigenvalues --    0.84109   0.84187   0.84223   0.84351   0.84358
 Alpha virt. eigenvalues --    0.84619   0.84663   0.84681   0.84717   0.84913
 Alpha virt. eigenvalues --    0.85007   0.85013   0.85141   0.85194   0.85234
 Alpha virt. eigenvalues --    0.85524   0.85602   0.85840   0.85870   0.85873
 Alpha virt. eigenvalues --    0.85898   0.86336   0.86516   0.86682   0.86752
 Alpha virt. eigenvalues --    0.86832   0.86864   0.87050   0.87066   0.87154
 Alpha virt. eigenvalues --    0.87321   0.87341   0.87359   0.87385   0.87582
 Alpha virt. eigenvalues --    0.87739   0.87863   0.87956   0.88092   0.88194
 Alpha virt. eigenvalues --    0.88217   0.88301   0.88431   0.88448   0.88606
 Alpha virt. eigenvalues --    0.88754   0.88772   0.88810   0.88979   0.89288
 Alpha virt. eigenvalues --    0.89330   0.89345   0.89417   0.89677   0.89775
 Alpha virt. eigenvalues --    0.89933   0.90240   0.90267   0.90530   0.90690
 Alpha virt. eigenvalues --    0.90744   0.90760   0.90880   0.91094   0.91131
 Alpha virt. eigenvalues --    0.91224   0.91360   0.91465   0.91589   0.91716
 Alpha virt. eigenvalues --    0.91959   0.91965   0.92127   0.92251   0.92325
 Alpha virt. eigenvalues --    0.92340   0.92630   0.92660   0.92983   0.93083
 Alpha virt. eigenvalues --    0.93124   0.93264   0.93279   0.93508   0.93706
 Alpha virt. eigenvalues --    0.93862   0.93877   0.94387   0.94687   0.94818
 Alpha virt. eigenvalues --    0.94886   0.94902   0.95262   0.95598   0.95745
 Alpha virt. eigenvalues --    0.95975   0.96244   0.96298   0.96427   0.96449
 Alpha virt. eigenvalues --    0.96486   0.96693   0.96741   0.96859   0.96895
 Alpha virt. eigenvalues --    0.96998   0.97200   0.97358   0.97483   0.97601
 Alpha virt. eigenvalues --    0.97921   0.97937   0.98005   0.98082   0.98160
 Alpha virt. eigenvalues --    0.98176   0.98607   0.98727   0.98961   0.99044
 Alpha virt. eigenvalues --    0.99189   0.99272   0.99290   0.99330   0.99564
 Alpha virt. eigenvalues --    0.99802   0.99981   1.00115   1.00203   1.00240
 Alpha virt. eigenvalues --    1.00282   1.00699   1.00815   1.01040   1.01129
 Alpha virt. eigenvalues --    1.01188   1.01256   1.01475   1.01570   1.01929
 Alpha virt. eigenvalues --    1.01977   1.02045   1.02046   1.02183   1.02204
 Alpha virt. eigenvalues --    1.02258   1.02730   1.02743   1.03099   1.03121
 Alpha virt. eigenvalues --    1.03243   1.03251   1.03265   1.03306   1.03413
 Alpha virt. eigenvalues --    1.03540   1.03722   1.03735   1.03912   1.04095
 Alpha virt. eigenvalues --    1.04636   1.04832   1.04876   1.04944   1.04976
 Alpha virt. eigenvalues --    1.05283   1.05397   1.05484   1.05527   1.05821
 Alpha virt. eigenvalues --    1.05823   1.06048   1.06225   1.06406   1.06502
 Alpha virt. eigenvalues --    1.06765   1.06805   1.06807   1.06839   1.06877
 Alpha virt. eigenvalues --    1.07040   1.07252   1.07562   1.07678   1.07796
 Alpha virt. eigenvalues --    1.07889   1.08002   1.08064   1.08109   1.08148
 Alpha virt. eigenvalues --    1.08329   1.08703   1.08720   1.08784   1.08831
 Alpha virt. eigenvalues --    1.08915   1.09493   1.09503   1.09505   1.09879
 Alpha virt. eigenvalues --    1.10065   1.10101   1.10162   1.10460   1.10621
 Alpha virt. eigenvalues --    1.10930   1.11013   1.11037   1.11188   1.11268
 Alpha virt. eigenvalues --    1.11443   1.11537   1.11695   1.11868   1.12024
 Alpha virt. eigenvalues --    1.12064   1.12222   1.12660   1.12715   1.12767
 Alpha virt. eigenvalues --    1.12982   1.13288   1.13294   1.13746   1.13760
 Alpha virt. eigenvalues --    1.13792   1.14221   1.14254   1.14519   1.14581
 Alpha virt. eigenvalues --    1.14760   1.14786   1.14808   1.15205   1.15457
 Alpha virt. eigenvalues --    1.15691   1.15933   1.16353   1.16384   1.16431
 Alpha virt. eigenvalues --    1.16467   1.16564   1.16647   1.16860   1.17154
 Alpha virt. eigenvalues --    1.17441   1.17522   1.17556   1.17608   1.17819
 Alpha virt. eigenvalues --    1.18404   1.18418   1.18502   1.18516   1.19023
 Alpha virt. eigenvalues --    1.19243   1.19271   1.19506   1.19605   1.19946
 Alpha virt. eigenvalues --    1.20262   1.20357   1.20363   1.20473   1.20559
 Alpha virt. eigenvalues --    1.20588   1.20913   1.21093   1.21263   1.21281
 Alpha virt. eigenvalues --    1.21366   1.21568   1.21613   1.21720   1.22264
 Alpha virt. eigenvalues --    1.22339   1.22415   1.22480   1.22641   1.22926
 Alpha virt. eigenvalues --    1.23101   1.23114   1.23196   1.23264   1.23446
 Alpha virt. eigenvalues --    1.23692   1.23971   1.24179   1.24183   1.24677
 Alpha virt. eigenvalues --    1.24758   1.24791   1.24879   1.24906   1.24973
 Alpha virt. eigenvalues --    1.25130   1.25388   1.25497   1.25748   1.25801
 Alpha virt. eigenvalues --    1.25813   1.25954   1.26139   1.26302   1.26479
 Alpha virt. eigenvalues --    1.26726   1.26895   1.26968   1.27251   1.27452
 Alpha virt. eigenvalues --    1.27500   1.27524   1.27760   1.27879   1.28006
 Alpha virt. eigenvalues --    1.28284   1.28546   1.28577   1.28728   1.28751
 Alpha virt. eigenvalues --    1.28844   1.29143   1.29447   1.29473   1.29627
 Alpha virt. eigenvalues --    1.29661   1.29690   1.29827   1.30247   1.30274
 Alpha virt. eigenvalues --    1.30300   1.30307   1.30640   1.30733   1.30941
 Alpha virt. eigenvalues --    1.31051   1.31179   1.31274   1.31360   1.31543
 Alpha virt. eigenvalues --    1.31660   1.31933   1.31994   1.32521   1.32879
 Alpha virt. eigenvalues --    1.32957   1.33106   1.33321   1.33367   1.33478
 Alpha virt. eigenvalues --    1.33521   1.33711   1.33869   1.34153   1.34242
 Alpha virt. eigenvalues --    1.34388   1.34479   1.34486   1.34958   1.35079
 Alpha virt. eigenvalues --    1.35162   1.35287   1.35329   1.35361   1.35370
 Alpha virt. eigenvalues --    1.35491   1.36176   1.36190   1.36349   1.36403
 Alpha virt. eigenvalues --    1.36490   1.36878   1.36953   1.37018   1.37028
 Alpha virt. eigenvalues --    1.37323   1.37421   1.37469   1.37840   1.38012
 Alpha virt. eigenvalues --    1.38258   1.38452   1.38459   1.38593   1.38796
 Alpha virt. eigenvalues --    1.38839   1.38978   1.38996   1.39205   1.39382
 Alpha virt. eigenvalues --    1.39474   1.39491   1.39885   1.39932   1.39945
 Alpha virt. eigenvalues --    1.40122   1.40663   1.40691   1.40700   1.40797
 Alpha virt. eigenvalues --    1.41028   1.41242   1.41259   1.41379   1.41512
 Alpha virt. eigenvalues --    1.41766   1.41848   1.42043   1.42127   1.42265
 Alpha virt. eigenvalues --    1.42623   1.42624   1.42902   1.42964   1.42970
 Alpha virt. eigenvalues --    1.43114   1.43195   1.43222   1.43299   1.43555
 Alpha virt. eigenvalues --    1.43860   1.43880   1.44145   1.44169   1.44292
 Alpha virt. eigenvalues --    1.44323   1.44483   1.44753   1.44786   1.44956
 Alpha virt. eigenvalues --    1.45151   1.45308   1.45396   1.45490   1.45549
 Alpha virt. eigenvalues --    1.45565   1.46005   1.46035   1.46105   1.46194
 Alpha virt. eigenvalues --    1.46264   1.46314   1.46579   1.46724   1.46964
 Alpha virt. eigenvalues --    1.47262   1.47434   1.47463   1.47682   1.47908
 Alpha virt. eigenvalues --    1.47939   1.48001   1.48209   1.48373   1.48390
 Alpha virt. eigenvalues --    1.48444   1.48573   1.49117   1.49227   1.49425
 Alpha virt. eigenvalues --    1.49496   1.49506   1.49536   1.49809   1.49876
 Alpha virt. eigenvalues --    1.50047   1.50165   1.50219   1.50272   1.50581
 Alpha virt. eigenvalues --    1.50788   1.50803   1.50841   1.51111   1.51228
 Alpha virt. eigenvalues --    1.51491   1.51553   1.51734   1.51938   1.52090
 Alpha virt. eigenvalues --    1.52163   1.52253   1.52509   1.52740   1.52897
 Alpha virt. eigenvalues --    1.52954   1.52986   1.53312   1.53331   1.53419
 Alpha virt. eigenvalues --    1.53458   1.53617   1.53722   1.54056   1.54103
 Alpha virt. eigenvalues --    1.54152   1.54738   1.54742   1.55219   1.55328
 Alpha virt. eigenvalues --    1.55357   1.55396   1.55481   1.55659   1.55712
 Alpha virt. eigenvalues --    1.55755   1.55869   1.56294   1.56609   1.56723
 Alpha virt. eigenvalues --    1.56793   1.56940   1.56986   1.57123   1.57241
 Alpha virt. eigenvalues --    1.57358   1.57472   1.57529   1.57533   1.57589
 Alpha virt. eigenvalues --    1.57755   1.57768   1.58022   1.58024   1.58280
 Alpha virt. eigenvalues --    1.58443   1.58762   1.58828   1.58935   1.59037
 Alpha virt. eigenvalues --    1.59117   1.59399   1.59563   1.59699   1.59759
 Alpha virt. eigenvalues --    1.59899   1.60368   1.60444   1.60491   1.60532
 Alpha virt. eigenvalues --    1.60743   1.61215   1.61338   1.61636   1.61639
 Alpha virt. eigenvalues --    1.61913   1.62089   1.62316   1.62385   1.62752
 Alpha virt. eigenvalues --    1.63257   1.63280   1.63325   1.63510   1.63530
 Alpha virt. eigenvalues --    1.63820   1.63848   1.64098   1.64212   1.64225
 Alpha virt. eigenvalues --    1.64351   1.64408   1.64497   1.64861   1.65044
 Alpha virt. eigenvalues --    1.65473   1.65560   1.65658   1.65783   1.65899
 Alpha virt. eigenvalues --    1.66034   1.66246   1.66327   1.66453   1.66953
 Alpha virt. eigenvalues --    1.67206   1.67277   1.67432   1.67471   1.67925
 Alpha virt. eigenvalues --    1.67995   1.68129   1.68166   1.68412   1.68672
 Alpha virt. eigenvalues --    1.68709   1.68895   1.69011   1.69034   1.69197
 Alpha virt. eigenvalues --    1.69249   1.69553   1.69565   1.69609   1.69893
 Alpha virt. eigenvalues --    1.70140   1.70166   1.70605   1.70646   1.70834
 Alpha virt. eigenvalues --    1.71209   1.71212   1.71224   1.71413   1.71427
 Alpha virt. eigenvalues --    1.71516   1.71750   1.71760   1.71898   1.71995
 Alpha virt. eigenvalues --    1.72136   1.72587   1.72697   1.72713   1.72952
 Alpha virt. eigenvalues --    1.73118   1.73344   1.73400   1.73495   1.73710
 Alpha virt. eigenvalues --    1.73767   1.73785   1.74070   1.74072   1.74346
 Alpha virt. eigenvalues --    1.74412   1.74601   1.74679   1.74702   1.74846
 Alpha virt. eigenvalues --    1.74889   1.75089   1.75358   1.75436   1.75567
 Alpha virt. eigenvalues --    1.75605   1.75818   1.76027   1.76038   1.76218
 Alpha virt. eigenvalues --    1.76224   1.76409   1.76601   1.76879   1.76966
 Alpha virt. eigenvalues --    1.77119   1.77186   1.77291   1.77651   1.77702
 Alpha virt. eigenvalues --    1.77717   1.77845   1.78216   1.78254   1.78606
 Alpha virt. eigenvalues --    1.78608   1.78710   1.78858   1.79042   1.79200
 Alpha virt. eigenvalues --    1.79233   1.79253   1.79819   1.79895   1.79967
 Alpha virt. eigenvalues --    1.80116   1.80148   1.80231   1.80312   1.80581
 Alpha virt. eigenvalues --    1.80616   1.80634   1.80649   1.80759   1.81255
 Alpha virt. eigenvalues --    1.81358   1.81390   1.81516   1.81604   1.81619
 Alpha virt. eigenvalues --    1.82036   1.82049   1.82200   1.82607   1.82645
 Alpha virt. eigenvalues --    1.82655   1.82893   1.83046   1.83157   1.83359
 Alpha virt. eigenvalues --    1.83526   1.83761   1.83766   1.84020   1.84046
 Alpha virt. eigenvalues --    1.84137   1.84342   1.84354   1.84668   1.84830
 Alpha virt. eigenvalues --    1.85179   1.85217   1.85371   1.85449   1.85519
 Alpha virt. eigenvalues --    1.85722   1.85861   1.86237   1.86304   1.86375
 Alpha virt. eigenvalues --    1.86555   1.86685   1.86806   1.86880   1.86926
 Alpha virt. eigenvalues --    1.87178   1.87408   1.87486   1.87805   1.88017
 Alpha virt. eigenvalues --    1.88180   1.88369   1.88440   1.88594   1.88606
 Alpha virt. eigenvalues --    1.88609   1.88642   1.88898   1.89133   1.89201
 Alpha virt. eigenvalues --    1.89259   1.89402   1.89590   1.89613   1.89617
 Alpha virt. eigenvalues --    1.89640   1.89959   1.90015   1.90076   1.90097
 Alpha virt. eigenvalues --    1.90537   1.90541   1.90962   1.91304   1.91320
 Alpha virt. eigenvalues --    1.91326   1.91852   1.91950   1.91991   1.92192
 Alpha virt. eigenvalues --    1.92310   1.92564   1.92630   1.92806   1.93018
 Alpha virt. eigenvalues --    1.93096   1.93125   1.93335   1.93442   1.93799
 Alpha virt. eigenvalues --    1.93981   1.93993   1.93995   1.94044   1.94411
 Alpha virt. eigenvalues --    1.94573   1.94669   1.94694   1.94912   1.94977
 Alpha virt. eigenvalues --    1.95251   1.95506   1.95666   1.96037   1.96246
 Alpha virt. eigenvalues --    1.96266   1.96884   1.96912   1.96915   1.96960
 Alpha virt. eigenvalues --    1.97400   1.97487   1.97603   1.97786   1.98066
 Alpha virt. eigenvalues --    1.98096   1.98222   1.98273   1.98401   1.98950
 Alpha virt. eigenvalues --    1.99046   1.99101   1.99251   1.99327   1.99648
 Alpha virt. eigenvalues --    1.99962   2.00309   2.00379   2.00660   2.00794
 Alpha virt. eigenvalues --    2.01081   2.01093   2.01327   2.01379   2.01394
 Alpha virt. eigenvalues --    2.01510   2.01746   2.01757   2.02126   2.02127
 Alpha virt. eigenvalues --    2.02385   2.02405   2.02573   2.02831   2.03048
 Alpha virt. eigenvalues --    2.03088   2.03339   2.03436   2.03662   2.03861
 Alpha virt. eigenvalues --    2.04145   2.04166   2.04282   2.05017   2.05154
 Alpha virt. eigenvalues --    2.05268   2.05414   2.05831   2.05947   2.06248
 Alpha virt. eigenvalues --    2.06653   2.06772   2.06949   2.07076   2.07088
 Alpha virt. eigenvalues --    2.07431   2.07628   2.07661   2.07845   2.08389
 Alpha virt. eigenvalues --    2.08400   2.08718   2.08748   2.09001   2.09299
 Alpha virt. eigenvalues --    2.09582   2.09715   2.09970   2.10188   2.10336
 Alpha virt. eigenvalues --    2.10519   2.10601   2.11521   2.11724   2.11847
 Alpha virt. eigenvalues --    2.12003   2.12319   2.12470   2.12628   2.12840
 Alpha virt. eigenvalues --    2.12895   2.13480   2.13532   2.13767   2.13866
 Alpha virt. eigenvalues --    2.14113   2.14405   2.14493   2.14709   2.14762
 Alpha virt. eigenvalues --    2.15012   2.15162   2.15782   2.15814   2.16090
 Alpha virt. eigenvalues --    2.16467   2.16838   2.17143   2.17375   2.17594
 Alpha virt. eigenvalues --    2.17688   2.17700   2.17841   2.18112   2.18158
 Alpha virt. eigenvalues --    2.18369   2.18488   2.19348   2.19569   2.19623
 Alpha virt. eigenvalues --    2.19762   2.19804   2.20041   2.20142   2.20444
 Alpha virt. eigenvalues --    2.20595   2.20639   2.20866   2.20999   2.21023
 Alpha virt. eigenvalues --    2.21453   2.21714   2.21914   2.21925   2.22134
 Alpha virt. eigenvalues --    2.22516   2.22671   2.22999   2.23164   2.23462
 Alpha virt. eigenvalues --    2.23584   2.23691   2.23807   2.24015   2.24233
 Alpha virt. eigenvalues --    2.24999   2.25091   2.25601   2.25666   2.25914
 Alpha virt. eigenvalues --    2.25982   2.26153   2.26650   2.26738   2.27207
 Alpha virt. eigenvalues --    2.27649   2.27833   2.27839   2.27862   2.28020
 Alpha virt. eigenvalues --    2.28173   2.28287   2.28628   2.28844   2.28899
 Alpha virt. eigenvalues --    2.29342   2.29431   2.29733   2.29857   2.30057
 Alpha virt. eigenvalues --    2.30158   2.30250   2.30372   2.30666   2.30988
 Alpha virt. eigenvalues --    2.31224   2.31587   2.31648   2.32090   2.32136
 Alpha virt. eigenvalues --    2.32654   2.32665   2.32938   2.33201   2.33346
 Alpha virt. eigenvalues --    2.33530   2.33849   2.34061   2.34564   2.34650
 Alpha virt. eigenvalues --    2.34776   2.35176   2.35361   2.35503   2.35737
 Alpha virt. eigenvalues --    2.36208   2.36485   2.36629   2.37000   2.37160
 Alpha virt. eigenvalues --    2.37226   2.37243   2.37760   2.37906   2.38080
 Alpha virt. eigenvalues --    2.38669   2.38854   2.38909   2.38935   2.39133
 Alpha virt. eigenvalues --    2.39238   2.39346   2.39741   2.40235   2.40247
 Alpha virt. eigenvalues --    2.40445   2.40532   2.40808   2.40998   2.41331
 Alpha virt. eigenvalues --    2.41731   2.41804   2.41982   2.41992   2.42135
 Alpha virt. eigenvalues --    2.42268   2.42497   2.42795   2.42809   2.42821
 Alpha virt. eigenvalues --    2.43114   2.43219   2.43690   2.43754   2.43777
 Alpha virt. eigenvalues --    2.43896   2.44097   2.44213   2.44293   2.44645
 Alpha virt. eigenvalues --    2.44676   2.44889   2.44941   2.45302   2.45575
 Alpha virt. eigenvalues --    2.46047   2.46122   2.46294   2.46509   2.46813
 Alpha virt. eigenvalues --    2.47085   2.47142   2.47161   2.47555   2.47771
 Alpha virt. eigenvalues --    2.48099   2.48202   2.48671   2.48777   2.48785
 Alpha virt. eigenvalues --    2.49061   2.49257   2.49468   2.49540   2.50002
 Alpha virt. eigenvalues --    2.50255   2.50327   2.50662   2.50694   2.50946
 Alpha virt. eigenvalues --    2.50953   2.50985   2.51467   2.51546   2.51630
 Alpha virt. eigenvalues --    2.51976   2.52055   2.52168   2.52313   2.52378
 Alpha virt. eigenvalues --    2.52573   2.52587   2.53190   2.53467   2.53620
 Alpha virt. eigenvalues --    2.53865   2.53968   2.54095   2.54269   2.54328
 Alpha virt. eigenvalues --    2.54469   2.54513   2.55028   2.55091   2.55379
 Alpha virt. eigenvalues --    2.55470   2.55546   2.55659   2.55720   2.55981
 Alpha virt. eigenvalues --    2.56117   2.56338   2.56351   2.56452   2.56954
 Alpha virt. eigenvalues --    2.56976   2.57215   2.57227   2.57804   2.57826
 Alpha virt. eigenvalues --    2.58092   2.58474   2.58520   2.58796   2.59009
 Alpha virt. eigenvalues --    2.59031   2.59325   2.59506   2.59719   2.59781
 Alpha virt. eigenvalues --    2.59858   2.60348   2.60444   2.60896   2.60909
 Alpha virt. eigenvalues --    2.60934   2.60995   2.61270   2.61816   2.61850
 Alpha virt. eigenvalues --    2.62302   2.62373   2.62431   2.62548   2.62799
 Alpha virt. eigenvalues --    2.63299   2.63475   2.63530   2.63698   2.64049
 Alpha virt. eigenvalues --    2.64353   2.64370   2.64398   2.64707   2.65376
 Alpha virt. eigenvalues --    2.66019   2.66259   2.66424   2.66665   2.67073
 Alpha virt. eigenvalues --    2.67249   2.67418   2.67551   2.67624   2.67714
 Alpha virt. eigenvalues --    2.68006   2.68057   2.68068   2.68236   2.68310
 Alpha virt. eigenvalues --    2.68586   2.69248   2.69303   2.69527   2.70382
 Alpha virt. eigenvalues --    2.70497   2.71114   2.71232   2.71563   2.72637
 Alpha virt. eigenvalues --    2.72658   2.72977   2.73073   2.73237   2.73278
 Alpha virt. eigenvalues --    2.73497   2.73931   2.74119   2.74123   2.74345
 Alpha virt. eigenvalues --    2.74407   2.74645   2.75278   2.75290   2.75491
 Alpha virt. eigenvalues --    2.75639   2.76132   2.76940   2.77153   2.77245
 Alpha virt. eigenvalues --    2.77413   2.77537   2.77578   2.77659   2.77841
 Alpha virt. eigenvalues --    2.77869   2.78324   2.78426   2.78559   2.78604
 Alpha virt. eigenvalues --    2.78733   2.78745   2.79149   2.79172   2.79505
 Alpha virt. eigenvalues --    2.79525   2.79634   2.79932   2.80100   2.80186
 Alpha virt. eigenvalues --    2.80452   2.80529   2.80621   2.80788   2.80835
 Alpha virt. eigenvalues --    2.81019   2.81045   2.81358   2.81422   2.81483
 Alpha virt. eigenvalues --    2.81798   2.82003   2.82065   2.82112   2.82238
 Alpha virt. eigenvalues --    2.82555   2.82673   2.82959   2.83024   2.83052
 Alpha virt. eigenvalues --    2.83291   2.83339   2.83364   2.84005   2.84057
 Alpha virt. eigenvalues --    2.84413   2.84455   2.84669   2.84742   2.84920
 Alpha virt. eigenvalues --    2.85276   2.85819   2.86123   2.86638   2.86879
 Alpha virt. eigenvalues --    2.87316   2.87343   2.87743   2.88111   2.88435
 Alpha virt. eigenvalues --    2.88442   2.89594   2.89931   2.90053   2.90443
 Alpha virt. eigenvalues --    2.90478   2.90705   2.91327   2.91345   2.91395
 Alpha virt. eigenvalues --    2.91577   2.91815   2.92368   2.92375   2.92702
 Alpha virt. eigenvalues --    2.92717   2.93002   2.93115   2.93185   2.93263
 Alpha virt. eigenvalues --    2.93672   2.94410   2.94732   2.94781   2.94979
 Alpha virt. eigenvalues --    2.95230   2.95278   2.95406   2.95629   2.96260
 Alpha virt. eigenvalues --    2.96475   2.96750   2.97341   2.97449   2.97648
 Alpha virt. eigenvalues --    2.97799   2.97933   2.98013   2.98092   2.98420
 Alpha virt. eigenvalues --    2.98438   2.98607   2.98961   2.99051   2.99164
 Alpha virt. eigenvalues --    2.99241   2.99450   2.99514   2.99596   2.99782
 Alpha virt. eigenvalues --    2.99802   3.00287   3.00435   3.00668   3.00883
 Alpha virt. eigenvalues --    3.00912   3.01151   3.01151   3.01482   3.01583
 Alpha virt. eigenvalues --    3.01775   3.01820   3.01948   3.02288   3.02335
 Alpha virt. eigenvalues --    3.02580   3.02742   3.02823   3.02907   3.03100
 Alpha virt. eigenvalues --    3.03202   3.03341   3.03413   3.03617   3.03853
 Alpha virt. eigenvalues --    3.03908   3.03950   3.04080   3.04760   3.04872
 Alpha virt. eigenvalues --    3.04959   3.04962   3.05520   3.05538   3.06126
 Alpha virt. eigenvalues --    3.06215   3.06597   3.06856   3.06924   3.06925
 Alpha virt. eigenvalues --    3.07244   3.07326   3.07610   3.07656   3.07894
 Alpha virt. eigenvalues --    3.08085   3.08089   3.08428   3.08579   3.08926
 Alpha virt. eigenvalues --    3.09013   3.09052   3.09447   3.09588   3.09656
 Alpha virt. eigenvalues --    3.09661   3.09982   3.10590   3.10616   3.10715
 Alpha virt. eigenvalues --    3.10792   3.11026   3.11031   3.11109   3.11563
 Alpha virt. eigenvalues --    3.11995   3.12141   3.12233   3.12249   3.12390
 Alpha virt. eigenvalues --    3.12540   3.12544   3.12780   3.12811   3.12983
 Alpha virt. eigenvalues --    3.13146   3.13146   3.13679   3.13695   3.13771
 Alpha virt. eigenvalues --    3.14117   3.14169   3.14233   3.14696   3.14989
 Alpha virt. eigenvalues --    3.15012   3.15159   3.15469   3.15515   3.15531
 Alpha virt. eigenvalues --    3.15547   3.16420   3.16594   3.16621   3.16939
 Alpha virt. eigenvalues --    3.17136   3.17317   3.17534   3.17760   3.17828
 Alpha virt. eigenvalues --    3.17855   3.18220   3.18298   3.18455   3.18651
 Alpha virt. eigenvalues --    3.19005   3.19264   3.19270   3.19328   3.19657
 Alpha virt. eigenvalues --    3.20169   3.20259   3.20472   3.20606   3.20647
 Alpha virt. eigenvalues --    3.21008   3.21092   3.21094   3.21246   3.21334
 Alpha virt. eigenvalues --    3.21515   3.21544   3.21589   3.21957   3.21993
 Alpha virt. eigenvalues --    3.22067   3.22123   3.22475   3.22627   3.22762
 Alpha virt. eigenvalues --    3.22990   3.23056   3.23200   3.23220   3.23348
 Alpha virt. eigenvalues --    3.23363   3.23784   3.23936   3.24217   3.24450
 Alpha virt. eigenvalues --    3.24687   3.24886   3.25174   3.25190   3.25269
 Alpha virt. eigenvalues --    3.25507   3.25577   3.25743   3.25834   3.25988
 Alpha virt. eigenvalues --    3.26107   3.26280   3.26346   3.26351   3.26473
 Alpha virt. eigenvalues --    3.26820   3.27081   3.27089   3.27255   3.27355
 Alpha virt. eigenvalues --    3.28043   3.28488   3.28499   3.28551   3.28655
 Alpha virt. eigenvalues --    3.28770   3.28855   3.29047   3.29105   3.29238
 Alpha virt. eigenvalues --    3.29436   3.29541   3.29608   3.29749   3.29884
 Alpha virt. eigenvalues --    3.30006   3.30089   3.30182   3.30297   3.30813
 Alpha virt. eigenvalues --    3.30909   3.30913   3.31032   3.31558   3.31734
 Alpha virt. eigenvalues --    3.31735   3.31749   3.31996   3.32050   3.32146
 Alpha virt. eigenvalues --    3.32154   3.32290   3.32556   3.32940   3.33244
 Alpha virt. eigenvalues --    3.33358   3.33381   3.33832   3.33855   3.34016
 Alpha virt. eigenvalues --    3.34387   3.34525   3.34704   3.34838   3.35030
 Alpha virt. eigenvalues --    3.35232   3.35423   3.35506   3.35507   3.35571
 Alpha virt. eigenvalues --    3.35872   3.36189   3.36245   3.36467   3.36729
 Alpha virt. eigenvalues --    3.37195   3.37195   3.37222   3.37238   3.37353
 Alpha virt. eigenvalues --    3.37409   3.37640   3.37785   3.38366   3.39063
 Alpha virt. eigenvalues --    3.39184   3.39318   3.39520   3.39542   3.39625
 Alpha virt. eigenvalues --    3.39715   3.39778   3.39795   3.40017   3.40324
 Alpha virt. eigenvalues --    3.40624   3.40700   3.40907   3.41247   3.41548
 Alpha virt. eigenvalues --    3.41735   3.41810   3.42083   3.42137   3.42151
 Alpha virt. eigenvalues --    3.42196   3.42274   3.42876   3.42970   3.43001
 Alpha virt. eigenvalues --    3.43167   3.43268   3.43498   3.43715   3.43749
 Alpha virt. eigenvalues --    3.43865   3.43880   3.43961   3.44350   3.44412
 Alpha virt. eigenvalues --    3.44457   3.44496   3.44794   3.45011   3.45240
 Alpha virt. eigenvalues --    3.45437   3.45526   3.45530   3.45677   3.45691
 Alpha virt. eigenvalues --    3.46032   3.46382   3.46423   3.46866   3.46937
 Alpha virt. eigenvalues --    3.47009   3.47172   3.47320   3.47389   3.47516
 Alpha virt. eigenvalues --    3.48081   3.48246   3.48277   3.48297   3.48561
 Alpha virt. eigenvalues --    3.48678   3.48744   3.49188   3.49261   3.49475
 Alpha virt. eigenvalues --    3.49575   3.49591   3.49735   3.49915   3.50073
 Alpha virt. eigenvalues --    3.50261   3.51117   3.51137   3.51249   3.51612
 Alpha virt. eigenvalues --    3.51676   3.51705   3.51723   3.51800   3.52177
 Alpha virt. eigenvalues --    3.52261   3.52559   3.53131   3.53139   3.53377
 Alpha virt. eigenvalues --    3.53531   3.53636   3.53898   3.53902   3.54043
 Alpha virt. eigenvalues --    3.54468   3.54546   3.54939   3.54994   3.55292
 Alpha virt. eigenvalues --    3.55334   3.56086   3.56152   3.56157   3.56411
 Alpha virt. eigenvalues --    3.56700   3.56878   3.57022   3.57143   3.57181
 Alpha virt. eigenvalues --    3.57268   3.57547   3.57607   3.58104   3.58202
 Alpha virt. eigenvalues --    3.58286   3.58299   3.58385   3.58395   3.58528
 Alpha virt. eigenvalues --    3.58624   3.58732   3.59060   3.59073   3.59486
 Alpha virt. eigenvalues --    3.59617   3.59873   3.60046   3.60382   3.60667
 Alpha virt. eigenvalues --    3.60834   3.61001   3.61067   3.61209   3.61442
 Alpha virt. eigenvalues --    3.61512   3.61545   3.61627   3.61851   3.62013
 Alpha virt. eigenvalues --    3.62038   3.62166   3.62402   3.62590   3.62803
 Alpha virt. eigenvalues --    3.63070   3.63380   3.63486   3.63573   3.63834
 Alpha virt. eigenvalues --    3.63908   3.64205   3.64337   3.64404   3.64587
 Alpha virt. eigenvalues --    3.64710   3.64723   3.64864   3.65356   3.65457
 Alpha virt. eigenvalues --    3.65709   3.65895   3.65959   3.66153   3.66305
 Alpha virt. eigenvalues --    3.66439   3.66621   3.66766   3.66772   3.66876
 Alpha virt. eigenvalues --    3.66896   3.67497   3.67863   3.67925   3.68055
 Alpha virt. eigenvalues --    3.68061   3.68324   3.68641   3.68764   3.69174
 Alpha virt. eigenvalues --    3.69262   3.69486   3.69774   3.69913   3.70564
 Alpha virt. eigenvalues --    3.70920   3.70998   3.71052   3.71157   3.71363
 Alpha virt. eigenvalues --    3.71852   3.72248   3.72289   3.72472   3.73026
 Alpha virt. eigenvalues --    3.73057   3.73380   3.73494   3.73735   3.73799
 Alpha virt. eigenvalues --    3.74072   3.74093   3.74249   3.74438   3.74692
 Alpha virt. eigenvalues --    3.74732   3.74966   3.75032   3.75286   3.75527
 Alpha virt. eigenvalues --    3.75576   3.75641   3.75791   3.76518   3.76829
 Alpha virt. eigenvalues --    3.77126   3.77368   3.77917   3.78163   3.78253
 Alpha virt. eigenvalues --    3.78580   3.78680   3.79035   3.79095   3.79198
 Alpha virt. eigenvalues --    3.79393   3.79748   3.79871   3.79874   3.80404
 Alpha virt. eigenvalues --    3.81285   3.81356   3.81523   3.81669   3.82121
 Alpha virt. eigenvalues --    3.82194   3.82232   3.82756   3.83278   3.83663
 Alpha virt. eigenvalues --    3.83790   3.83915   3.84455   3.84515   3.85232
 Alpha virt. eigenvalues --    3.85489   3.85887   3.86208   3.86211   3.86504
 Alpha virt. eigenvalues --    3.86677   3.86677   3.87053   3.87367   3.87375
 Alpha virt. eigenvalues --    3.87481   3.87846   3.87931   3.89134   3.89524
 Alpha virt. eigenvalues --    3.89547   3.89964   3.89981   3.91116   3.91540
 Alpha virt. eigenvalues --    3.91549   3.91734   3.92060   3.92867   3.94015
 Alpha virt. eigenvalues --    3.94226   3.94246   3.94367   3.95552   3.95926
 Alpha virt. eigenvalues --    3.96017   3.96147   3.96172   3.96297   3.97172
 Alpha virt. eigenvalues --    3.97337   3.97588   3.98205   3.98713   3.98931
 Alpha virt. eigenvalues --    3.99114   3.99558   3.99928   4.00091   4.00311
 Alpha virt. eigenvalues --    4.01161   4.01181   4.01484   4.02026   4.02736
 Alpha virt. eigenvalues --    4.03269   4.04116   4.04163   4.04336   4.04487
 Alpha virt. eigenvalues --    4.05010   4.05132   4.05372   4.05541   4.05592
 Alpha virt. eigenvalues --    4.05855   4.06078   4.07061   4.08056   4.08116
 Alpha virt. eigenvalues --    4.08605   4.09250   4.09361   4.09684   4.10067
 Alpha virt. eigenvalues --    4.10251   4.10347   4.10405   4.10654   4.10904
 Alpha virt. eigenvalues --    4.11139   4.11373   4.11661   4.11665   4.11945
 Alpha virt. eigenvalues --    4.12117   4.12243   4.12432   4.12524   4.12630
 Alpha virt. eigenvalues --    4.13650   4.14685   4.15062   4.15079   4.15293
 Alpha virt. eigenvalues --    4.15506   4.16302   4.16676   4.17240   4.17497
 Alpha virt. eigenvalues --    4.17615   4.17737   4.17973   4.18701   4.19536
 Alpha virt. eigenvalues --    4.20379   4.20999   4.21125   4.21748   4.21831
 Alpha virt. eigenvalues --    4.24097   4.24784   4.25049   4.25059   4.25423
 Alpha virt. eigenvalues --    4.26513   4.27468   4.28132   4.28564   4.28707
 Alpha virt. eigenvalues --    4.29313   4.29445   4.29601   4.29919   4.30272
 Alpha virt. eigenvalues --    4.30852   4.31138   4.31380   4.31470   4.33035
 Alpha virt. eigenvalues --    4.33164   4.33721   4.34172   4.36309   4.36417
 Alpha virt. eigenvalues --    4.36458   4.36685   4.38184   4.38388   4.38539
 Alpha virt. eigenvalues --    4.38885   4.39414   4.39778   4.39875   4.40250
 Alpha virt. eigenvalues --    4.40269   4.40413   4.40525   4.40952   4.41345
 Alpha virt. eigenvalues --    4.41533   4.41595   4.42942   4.42997   4.43620
 Alpha virt. eigenvalues --    4.44053   4.44934   4.45175   4.45190   4.45441
 Alpha virt. eigenvalues --    4.45688   4.46253   4.46789   4.46863   4.47340
 Alpha virt. eigenvalues --    4.47718   4.47813   4.48240   4.51451   4.51716
 Alpha virt. eigenvalues --    4.52242   4.52621   4.52842   4.52898   4.53356
 Alpha virt. eigenvalues --    4.53508   4.53599   4.55286   4.56424   4.56943
 Alpha virt. eigenvalues --    4.57473   4.64110   4.64142   4.65065   4.65167
 Alpha virt. eigenvalues --    4.65266   4.65336   4.65424   4.66599   4.66600
 Alpha virt. eigenvalues --    4.70190   4.70376   4.71935   4.72215   4.72246
 Alpha virt. eigenvalues --    4.79883   4.80278   4.80361   4.80552   4.81800
 Alpha virt. eigenvalues --    4.81916   4.82437   4.82608   4.82871   4.82883
 Alpha virt. eigenvalues --    4.83814   4.84076   4.87233   4.87477   4.88168
 Alpha virt. eigenvalues --    4.88262   4.88345   4.88997   4.90592   4.91042
 Alpha virt. eigenvalues --    4.91101   4.91729   4.92507   4.93399   4.93433
 Alpha virt. eigenvalues --    4.94104   4.94681   4.94969   4.99248   5.00057
 Alpha virt. eigenvalues --    5.02613   5.03315   5.03507   5.03768   5.03940
 Alpha virt. eigenvalues --    5.03941   5.04611   5.05275   5.05428   5.05966
 Alpha virt. eigenvalues --    5.06198   5.06503   5.06867   5.07282   5.07565
 Alpha virt. eigenvalues --    5.08212   5.08421   5.09439   5.09816   5.10057
 Alpha virt. eigenvalues --    5.10137   5.10810   5.10980   5.11854   5.12556
 Alpha virt. eigenvalues --    5.13702   5.14043   5.14731   5.15305   5.15815
 Alpha virt. eigenvalues --    5.16107   5.16715   5.18028   5.20042   5.20189
 Alpha virt. eigenvalues --    5.21112   5.21280   5.22172   5.22532   5.23843
 Alpha virt. eigenvalues --    5.23905   5.24111   5.24302   5.26222   5.26853
 Alpha virt. eigenvalues --    5.26891   5.30053   5.30478   5.32306   5.34830
 Alpha virt. eigenvalues --    5.34930   5.36421   5.36795   5.37073   5.37416
 Alpha virt. eigenvalues --    5.37648   5.37958   5.38199   5.41192   5.42615
 Alpha virt. eigenvalues --    5.43204   5.43873   5.44521   5.45789   5.46044
 Alpha virt. eigenvalues --    5.46280   5.46406   5.47296   5.48544   5.49609
 Alpha virt. eigenvalues --    5.49709   5.49954   5.50256   5.50645   5.50958
 Alpha virt. eigenvalues --    5.51059   5.51159   5.51537   5.56530   5.58099
 Alpha virt. eigenvalues --    5.58773   5.60486   5.60686   5.61164   5.63479
 Alpha virt. eigenvalues --    5.70988   5.71171   5.72686   5.72827   5.73264
 Alpha virt. eigenvalues --    5.73613   5.74076   5.74144   5.77670   5.78009
 Alpha virt. eigenvalues --    5.81623   5.82918   5.99099   6.01109   6.01190
 Alpha virt. eigenvalues --    6.01486   6.08177   6.10780   6.15038   6.15677
 Alpha virt. eigenvalues --    6.18505   6.62035   6.62041   6.62266   6.62811
 Alpha virt. eigenvalues --    6.62955   6.63530   6.63790   6.63888   6.63995
 Alpha virt. eigenvalues --    6.65281   6.65289   6.65320   6.65365   6.66049
 Alpha virt. eigenvalues --    6.66065   6.79275   6.79288   6.79360   6.79587
 Alpha virt. eigenvalues --    6.80118   6.80247  21.75041  21.80085  21.82888
 Alpha virt. eigenvalues --   21.84816  21.88515  21.89354  21.90413  21.92704
 Alpha virt. eigenvalues --   22.03226  22.03666  22.06616  22.09870  22.10625
 Alpha virt. eigenvalues --   22.11255  22.12479  22.14301  22.16672  22.17000
 Alpha virt. eigenvalues --   22.20125  22.21339  22.21530  22.22162  22.22824
 Alpha virt. eigenvalues --   22.23125  22.24181  22.24949  22.25070  22.25532
 Alpha virt. eigenvalues --   22.27102  22.27157  22.27489  22.27691  22.27695
 Alpha virt. eigenvalues --   22.28941  22.29913  22.30441  22.30642  22.31238
 Alpha virt. eigenvalues --   22.32114  22.33803  22.34889  22.35345  22.36598
 Alpha virt. eigenvalues --   22.36749  22.37130  22.37383  22.38400  22.42191
 Alpha virt. eigenvalues --   22.48957  22.50578  22.51099  22.51552  22.52322
 Alpha virt. eigenvalues --   22.53207  22.54397  22.56392  22.57845  22.57969
 Alpha virt. eigenvalues --   22.58880  22.60871  22.63819  22.63849  22.64104
 Alpha virt. eigenvalues --   22.64902  22.65118  22.65910  22.66079  22.67498
 Alpha virt. eigenvalues --   22.69018  22.70322  22.70346  22.72519  22.72694
 Alpha virt. eigenvalues --   22.73547  22.75686  22.77768  22.77915  22.79076
 Alpha virt. eigenvalues --   22.79714  22.83549  22.83754  22.84650  22.85054
 Alpha virt. eigenvalues --   22.89392  23.34567  23.34735  23.36082  23.37061
 Alpha virt. eigenvalues --   23.37757  23.37862  23.38639  23.38680  23.39693
 Alpha virt. eigenvalues --   23.40914  23.41155  23.42444  32.25683  32.26073
 Alpha virt. eigenvalues --   32.26192  32.30174  32.30443  32.30852  32.47066
 Alpha virt. eigenvalues --   32.51069  32.54893  32.56721  32.57634  32.63140
 Alpha virt. eigenvalues --   32.63154  32.64268  32.64406  32.65029  32.65996
 Alpha virt. eigenvalues --   32.71854  32.74889  32.76013  32.78612  32.80294
 Alpha virt. eigenvalues --   32.80493  32.85683
          Condensed to atoms (all electrons):
 Mulliken charges:
               1
     1  C   -0.093949
     2  C   -0.084464
     3  C   -0.211575
     4  C    0.054559
     5  C    0.125413
     6  C   -0.218937
     7  C    0.395883
     8  C    0.387974
     9  N   -0.284743
    10  N   -0.570738
    11  N   -0.558142
    12  H    0.121401
    13  H    0.121232
    14  H    0.142684
    15  H    0.137655
    16  C   -0.086287
    17  C   -0.086287
    18  C   -0.214614
    19  C    0.107995
    20  C    0.107995
    21  C   -0.214614
    22  C    0.337186
    23  C    0.337186
    24  N   -0.290224
    25  N   -0.558142
    26  H    0.121548
    27  H    0.121548
    28  H    0.135988
    29  H    0.135988
    30  C   -0.085072
    31  C   -0.085072
    32  C   -0.241807
    33  C    0.116893
    34  C    0.116893
    35  C   -0.241807
    36  C    0.390155
    37  C    0.390155
    38  N   -0.286451
    39  N   -0.570738
    40  H    0.124224
    41  H    0.124224
    42  H    0.137920
    43  H    0.137920
    44  C   -0.084464
    45  C   -0.093949
    46  C   -0.218937
    47  C    0.125413
    48  C    0.054559
    49  C   -0.211575
    50  C    0.387974
    51  C    0.395883
    52  N   -0.284743
    53  H    0.121232
    54  H    0.121401
    55  H    0.137655
    56  H    0.142684
    57  Zn  -0.166184
    58  C   -0.081217
    59  C   -0.081217
    60  C   -0.231195
    61  C    0.120020
    62  C    0.120020
    63  C   -0.231195
    64  C    0.376927
    65  C    0.376927
    66  N   -0.327280
    67  N   -0.610789
    68  N   -0.610789
    69  H    0.115941
    70  H    0.115941
    71  H    0.132208
    72  H    0.132208
    73  C   -0.065608
    74  C   -0.065608
    75  C   -0.266027
    76  C    0.101236
    77  C    0.101236
    78  C   -0.266027
    79  C    0.388844
    80  C    0.388844
    81  N   -0.278097
    82  N   -0.610789
    83  H    0.117257
    84  H    0.117257
    85  H    0.121648
    86  H    0.121648
    87  C   -0.065608
    88  C   -0.065608
    89  C   -0.266027
    90  C    0.101236
    91  C    0.101236
    92  C   -0.266027
    93  C    0.388844
    94  C    0.388844
    95  N   -0.278097
    96  N   -0.610789
    97  H    0.117257
    98  H    0.117257
    99  H    0.121648
   100  H    0.121648
   101  C   -0.081217
   102  C   -0.081217
   103  C   -0.231195
   104  C    0.120020
   105  C    0.120020
   106  C   -0.231195
   107  C    0.376927
   108  C    0.376927
   109  N   -0.327280
   110  H    0.115941
   111  H    0.115941
   112  H    0.132208
   113  H    0.132208
   114  Zn   0.585964
   115  C   -0.084464
   116  C   -0.093949
   117  C   -0.218937
   118  C    0.125413
   119  C    0.054559
   120  C   -0.211575
   121  C    0.387974
   122  C    0.395883
   123  N   -0.284743
   124  N   -0.558142
   125  N   -0.570738
   126  H    0.121232
   127  H    0.121401
   128  H    0.137655
   129  H    0.142684
   130  C   -0.085072
   131  C   -0.085072
   132  C   -0.241807
   133  C    0.116893
   134  C    0.116893
   135  C   -0.241807
   136  C    0.390155
   137  C    0.390155
   138  N   -0.286451
   139  N   -0.570738
   140  H    0.124224
   141  H    0.124224
   142  H    0.137920
   143  H    0.137920
   144  C   -0.086287
   145  C   -0.086287
   146  C   -0.214614
   147  C    0.107995
   148  C    0.107995
   149  C   -0.214614
   150  C    0.337186
   151  C    0.337186
   152  N   -0.290224
   153  N   -0.558142
   154  H    0.121548
   155  H    0.121548
   156  H    0.135988
   157  H    0.135988
   158  C   -0.093949
   159  C   -0.084464
   160  C   -0.211575
   161  C    0.054559
   162  C    0.125413
   163  C   -0.218937
   164  C    0.395883
   165  C    0.387974
   166  N   -0.284743
   167  H    0.121401
   168  H    0.121232
   169  H    0.142684
   170  H    0.137655
   171  Zn  -0.166184
 Sum of Mulliken charges =  -0.00000
 Mulliken charges with hydrogens summed into heavy atoms:
               1
     1  C    0.027452
     2  C    0.036768
     3  C   -0.068891
     4  C    0.054559
     5  C    0.125413
     6  C   -0.081282
     7  C    0.395883
     8  C    0.387974
     9  N   -0.284743
    10  N   -0.570738
    11  N   -0.558142
    16  C    0.035261
    17  C    0.035261
    18  C   -0.078625
    19  C    0.107995
    20  C    0.107995
    21  C   -0.078625
    22  C    0.337186
    23  C    0.337186
    24  N   -0.290224
    25  N   -0.558142
    30  C    0.039152
    31  C    0.039152
    32  C   -0.103887
    33  C    0.116893
    34  C    0.116893
    35  C   -0.103887
    36  C    0.390155
    37  C    0.390155
    38  N   -0.286451
    39  N   -0.570738
    44  C    0.036768
    45  C    0.027452
    46  C   -0.081282
    47  C    0.125413
    48  C    0.054559
    49  C   -0.068891
    50  C    0.387974
    51  C    0.395883
    52  N   -0.284743
    57  Zn  -0.166184
    58  C    0.034724
    59  C    0.034724
    60  C   -0.098987
    61  C    0.120020
    62  C    0.120020
    63  C   -0.098987
    64  C    0.376927
    65  C    0.376927
    66  N   -0.327280
    67  N   -0.610789
    68  N   -0.610789
    73  C    0.051649
    74  C    0.051649
    75  C   -0.144379
    76  C    0.101236
    77  C    0.101236
    78  C   -0.144379
    79  C    0.388844
    80  C    0.388844
    81  N   -0.278097
    82  N   -0.610789
    87  C    0.051649
    88  C    0.051649
    89  C   -0.144379
    90  C    0.101236
    91  C    0.101236
    92  C   -0.144379
    93  C    0.388844
    94  C    0.388844
    95  N   -0.278097
    96  N   -0.610789
   101  C    0.034724
   102  C    0.034724
   103  C   -0.098987
   104  C    0.120020
   105  C    0.120020
   106  C   -0.098987
   107  C    0.376927
   108  C    0.376927
   109  N   -0.327280
   114  Zn   0.585964
   115  C    0.036768
   116  C    0.027452
   117  C   -0.081282
   118  C    0.125413
   119  C    0.054559
   120  C   -0.068891
   121  C    0.387974
   122  C    0.395883
   123  N   -0.284743
   124  N   -0.558142
   125  N   -0.570738
   130  C    0.039152
   131  C    0.039152
   132  C   -0.103887
   133  C    0.116893
   134  C    0.116893
   135  C   -0.103887
   136  C    0.390155
   137  C    0.390155
   138  N   -0.286451
   139  N   -0.570738
   144  C    0.035261
   145  C    0.035261
   146  C   -0.078625
   147  C    0.107995
   148  C    0.107995
   149  C   -0.078625
   150  C    0.337186
   151  C    0.337186
   152  N   -0.290224
   153  N   -0.558142
   158  C    0.027452
   159  C    0.036768
   160  C   -0.068891
   161  C    0.054559
   162  C    0.125413
   163  C   -0.081282
   164  C    0.395883
   165  C    0.387974
   166  N   -0.284743
   171  Zn  -0.166184
 Electronic spatial extent (au):  <R**2>=          96752.2557
 Charge=             -0.0000 electrons
 Dipole moment (field-independent basis, Debye):
    X=             -0.0000    Y=              0.0000    Z=              0.0000  Tot=              0.0000
 Quadrupole moment (field-independent basis, Debye-Ang):
   XX=           -752.8882   YY=           -636.9730   ZZ=           -636.2441
   XY=             -2.9150   XZ=             -0.0000   YZ=             -0.0000
 Traceless Quadrupole moment (field-independent basis, Debye-Ang):
   XX=            -77.5197   YY=             38.3954   ZZ=             39.1243
   XY=             -2.9150   XZ=             -0.0000   YZ=             -0.0000
 Octapole moment (field-independent basis, Debye-Ang**2):
  XXX=             -0.0000  YYY=             -0.0000  ZZZ=             -0.0000  XYY=             -0.0000
  XXY=              0.0000  XXZ=             -0.0000  XZZ=             -0.0000  YZZ=             -0.0000
  YYZ=             -0.0000  XYZ=              0.0000
 Hexadecapole moment (field-independent basis, Debye-Ang**3):
 XXXX=         -35524.0920 YYYY=         -48448.1930 ZZZZ=         -40590.3826 XXXY=          -8949.5089
 XXXZ=             -0.0000 YYYX=          -7695.1744 YYYZ=              0.0000 ZZZX=             -0.0000
 ZZZY=              0.0000 XXYY=         -15212.6585 XXZZ=         -13687.8780 YYZZ=         -15867.9797
 XXYZ=             -0.0000 YYXZ=              0.0000 ZZXY=          -2596.7517
 N-N= 3.481322421798D+04 E-N=-9.402936541245D+04  KE= 1.030012072115D+04
 Symmetry AG   KE= 4.028037215391D+03
 Symmetry BG   KE= 1.418063578535D+03
 Symmetry AU   KE= 1.621618085858D+03
 Symmetry BU   KE= 3.232401841367D+03
 Leave Link  601 at Tue Oct 21 10:26:16 2025, MaxMem= 13421772800 cpu:       927.7
 (Enter /opt/g09/l9999.exe)

 Test job not archived.
 1\1\ WCSS.PL-BEM-CMOKC406W\SP\RLC-BLYP TD-FC\Gen\C96H48N24Zn3\SERGEY\2
 1-Oct-2025\0\\#p td(nstates=8) lc-blyp/gen iop(3/107=0400000000, 3/108
 =0400000000) geom=check guess=read\\ZnPc dimer lc-blyp(mu=0.4)/def2-tz
 vp(-f), monomer geom b3pw/631dp\\0,1\C,0,0.70282505,6.55507353,0.\C,0,
 -0.70282505,6.55507353,0.\C,0,1.42385811,5.3647644,0.\C,0,0.70355705,4
 .17204132,0.\C,0,-0.70355705,4.17204132,0.\C,0,-1.42385811,5.3647644,0
 .\C,0,1.11636308,2.77432121,0.\C,0,-1.11636308,2.77432121,0.\N,0,0.,1.
 98231715,0.\N,0,-2.38508318,2.38508318,0.\N,0,2.38508318,2.38508318,0.
 \H,0,1.23253009,7.5037036,0.\H,0,-1.23253009,7.5037036,0.\H,0,2.509174
 19,5.35528741,0.\H,0,-2.50917419,5.35528741,0.\C,0,6.55507353,-0.70282
 505,0.\C,0,6.55507353,0.70282505,0.\C,0,5.3647644,-1.42385811,0.\C,0,4
 .17204132,-0.70355705,0.\C,0,4.17204132,0.70355705,0.\C,0,5.3647644,1.
 42385811,0.\C,0,2.77432121,-1.11636308,0.\C,0,2.77432121,1.11636308,0.
 \N,0,1.98231715,0.,0.\N,0,2.38508318,-2.38508318,0.\H,0,7.5037036,-1.2
 3253009,0.\H,0,7.5037036,1.23253009,0.\H,0,5.35528741,-2.50917419,0.\H
 ,0,5.35528741,2.50917419,0.\C,0,-6.55507353,0.70282505,0.\C,0,-6.55507
 353,-0.70282505,0.\C,0,-5.3647644,1.42385811,0.\C,0,-4.17204132,0.7035
 5705,0.\C,0,-4.17204132,-0.70355705,0.\C,0,-5.3647644,-1.42385811,0.\C
 ,0,-2.77432121,1.11636308,0.\C,0,-2.77432121,-1.11636308,0.\N,0,-1.982
 31715,0.,0.\N,0,-2.38508318,-2.38508318,0.\H,0,-7.5037036,1.23253009,0
 .\H,0,-7.5037036,-1.23253009,0.\H,0,-5.35528741,2.50917419,0.\H,0,-5.3
 5528741,-2.50917419,0.\C,0,-0.70282505,-6.55507353,0.\C,0,0.70282505,-
 6.55507353,0.\C,0,-1.42385811,-5.3647644,0.\C,0,-0.70355705,-4.1720413
 2,0.\C,0,0.70355705,-4.17204132,0.\C,0,1.42385811,-5.3647644,0.\C,0,-1
 .11636308,-2.77432121,0.\C,0,1.11636308,-2.77432121,0.\N,0,0.,-1.98231
 715,0.\H,0,-1.23253009,-7.5037036,0.\H,0,1.23253009,-7.5037036,0.\H,0,
 -2.50917419,-5.35528741,0.\H,0,2.50917419,-5.35528741,0.\Zn,0,0.,0.,0.
 \C,0,2.45282505,6.55507353,3.4\C,0,1.04717495,6.55507353,3.4\C,0,3.173
 85811,5.3647644,3.4\C,0,2.45355705,4.17204132,3.4\C,0,1.04644295,4.172
 04132,3.4\C,0,0.32614189,5.3647644,3.4\C,0,2.86636308,2.77432121,3.4\C
 ,0,0.63363692,2.77432121,3.4\N,0,1.75,1.98231715,3.4\N,0,-0.63508318,2
 .38508318,3.4\N,0,4.13508318,2.38508318,3.4\H,0,2.98253009,7.5037036,3
 .4\H,0,0.51746991,7.5037036,3.4\H,0,4.25917419,5.35528741,3.4\H,0,-0.7
 5917419,5.35528741,3.4\C,0,8.30507353,-0.70282505,3.4\C,0,8.30507353,0
 .70282505,3.4\C,0,7.1147644,-1.42385811,3.4\C,0,5.92204132,-0.70355705
 ,3.4\C,0,5.92204132,0.70355705,3.4\C,0,7.1147644,1.42385811,3.4\C,0,4.
 52432121,-1.11636308,3.4\C,0,4.52432121,1.11636308,3.4\N,0,3.73231715,
 0.,3.4\N,0,4.13508318,-2.38508318,3.4\H,0,9.2537036,-1.23253009,3.4\H,
 0,9.2537036,1.23253009,3.4\H,0,7.10528741,-2.50917419,3.4\H,0,7.105287
 41,2.50917419,3.4\C,0,-4.80507353,0.70282505,3.4\C,0,-4.80507353,-0.70
 282505,3.4\C,0,-3.6147644,1.42385811,3.4\C,0,-2.42204132,0.70355705,3.
 4\C,0,-2.42204132,-0.70355705,3.4\C,0,-3.6147644,-1.42385811,3.4\C,0,-
 1.02432121,1.11636308,3.4\C,0,-1.02432121,-1.11636308,3.4\N,0,-0.23231
 715,0.,3.4\N,0,-0.63508318,-2.38508318,3.4\H,0,-5.7537036,1.23253009,3
 .4\H,0,-5.7537036,-1.23253009,3.4\H,0,-3.60528741,2.50917419,3.4\H,0,-
 3.60528741,-2.50917419,3.4\C,0,1.04717495,-6.55507353,3.4\C,0,2.452825
 05,-6.55507353,3.4\C,0,0.32614189,-5.3647644,3.4\C,0,1.04644295,-4.172
 04132,3.4\C,0,2.45355705,-4.17204132,3.4\C,0,3.17385811,-5.3647644,3.4
 \C,0,0.63363692,-2.77432121,3.4\C,0,2.86636308,-2.77432121,3.4\N,0,1.7
 5,-1.98231715,3.4\H,0,0.51746991,-7.5037036,3.4\H,0,2.98253009,-7.5037
 036,3.4\H,0,-0.75917419,-5.35528741,3.4\H,0,4.25917419,-5.35528741,3.4
 \Zn,0,1.75,0.,3.4\C,0,4.20282505,6.55507353,6.8\C,0,2.79717495,6.55507
 353,6.8\C,0,4.92385811,5.3647644,6.8\C,0,4.20355705,4.17204132,6.8\C,0
 ,2.79644295,4.17204132,6.8\C,0,2.07614189,5.3647644,6.8\C,0,4.61636308
 ,2.77432121,6.8\C,0,2.38363692,2.77432121,6.8\N,0,3.5,1.98231715,6.8\N
 ,0,1.11491682,2.38508318,6.8\N,0,5.88508318,2.38508318,6.8\H,0,4.73253
 009,7.5037036,6.8\H,0,2.26746991,7.5037036,6.8\H,0,6.00917419,5.355287
 41,6.8\H,0,0.99082581,5.35528741,6.8\C,0,10.05507353,-0.70282505,6.8\C
 ,0,10.05507353,0.70282505,6.8\C,0,8.8647644,-1.42385811,6.8\C,0,7.6720
 4132,-0.70355705,6.8\C,0,7.67204132,0.70355705,6.8\C,0,8.8647644,1.423
 85811,6.8\C,0,6.27432121,-1.11636308,6.8\C,0,6.27432121,1.11636308,6.8
 \N,0,5.48231715,0.,6.8\N,0,5.88508318,-2.38508318,6.8\H,0,11.0037036,-
 1.23253009,6.8\H,0,11.0037036,1.23253009,6.8\H,0,8.85528741,-2.5091741
 9,6.8\H,0,8.85528741,2.50917419,6.8\C,0,-3.05507353,0.70282505,6.8\C,0
 ,-3.05507353,-0.70282505,6.8\C,0,-1.8647644,1.42385811,6.8\C,0,-0.6720
 4132,0.70355705,6.8\C,0,-0.67204132,-0.70355705,6.8\C,0,-1.8647644,-1.
 42385811,6.8\C,0,0.72567879,1.11636308,6.8\C,0,0.72567879,-1.11636308,
 6.8\N,0,1.51768285,0.,6.8\N,0,1.11491682,-2.38508318,6.8\H,0,-4.003703
 6,1.23253009,6.8\H,0,-4.0037036,-1.23253009,6.8\H,0,-1.85528741,2.5091
 7419,6.8\H,0,-1.85528741,-2.50917419,6.8\C,0,2.79717495,-6.55507353,6.
 8\C,0,4.20282505,-6.55507353,6.8\C,0,2.07614189,-5.3647644,6.8\C,0,2.7
 9644295,-4.17204132,6.8\C,0,4.20355705,-4.17204132,6.8\C,0,4.92385811,
 -5.3647644,6.8\C,0,2.38363692,-2.77432121,6.8\C,0,4.61636308,-2.774321
 21,6.8\N,0,3.5,-1.98231715,6.8\H,0,2.26746991,-7.5037036,6.8\H,0,4.732
 53009,-7.5037036,6.8\H,0,0.99082581,-5.35528741,6.8\H,0,6.00917419,-5.
 35528741,6.8\Zn,0,3.5,0.,6.8\\Version=ES64L-G09RevE.01\State=1-AG\HF=-
 10327.0816492\RMSD=5.096e-09\PG=C02H [O(Zn1),C2(N1.N1),SGH(N6Zn2),X(C9
 6H48N16)]\\@


 Until you make peace with who you are,
 you'll never be content with what you have.
                           -- Doris Mortman
 Job cpu time:       3 days  3 hours 31 minutes 45.0 seconds.
 File lengths (MBytes):  RWF=  20707 Int=      0 D2E=      0 Chk=   3240 Scr=      1
 Normal termination of Gaussian 09 at Tue Oct 21 10:26:19 2025.
