%chk=ZnPc2_35x0.chk
%nprocshared=8
%mem=16GB
#p lc-blyp/def2svp iop(3/107=0400000000, 3/108=0400000000)

lc-blyp(mu=0.4)/def2-tzvp(-f), geom b3pw/631dp

0 1
C	0.70282510	6.55507406	0.00000000
C	-0.70282510	6.55507406	0.00000000
C	1.42385822	5.36476482	0.00000000
C	0.70355710	4.17204164	0.00000000
C	-0.70355710	4.17204164	0.00000000
C	-1.42385822	5.36476482	0.00000000
C	1.11636317	2.77432142	0.00000000
C	-1.11636317	2.77432142	0.00000000
N	0.00000000	1.98231730	0.00000000
N	-2.38508336	2.38508336	0.00000000
N	2.38508336	2.38508336	0.00000000
H	1.23253018	7.50370418	0.00000000
H	-1.23253018	7.50370418	0.00000000
H	2.50917438	5.35528784	0.00000000
H	-2.50917438	5.35528784	0.00000000
C	6.55507406	-0.70282510	0.00000000
C	6.55507406	0.70282510	0.00000000
C	5.36476482	-1.42385822	0.00000000
C	4.17204164	-0.70355710	0.00000000
C	4.17204164	0.70355710	0.00000000
C	5.36476482	1.42385822	0.00000000
C	2.77432142	-1.11636317	0.00000000
C	2.77432142	1.11636317	0.00000000
N	1.98231730	0.00000000	0.00000000
N	2.38508336	-2.38508336	0.00000000
H	7.50370418	-1.23253018	0.00000000
H	7.50370418	1.23253018	0.00000000
H	5.35528784	-2.50917438	0.00000000
H	5.35528784	2.50917438	0.00000000
C	-6.55507406	0.70282510	0.00000000
C	-6.55507406	-0.70282510	0.00000000
C	-5.36476482	1.42385822	0.00000000
C	-4.17204164	0.70355710	0.00000000
C	-4.17204164	-0.70355710	0.00000000
C	-5.36476482	-1.42385822	0.00000000
C	-2.77432142	1.11636317	0.00000000
C	-2.77432142	-1.11636317	0.00000000
N	-1.98231730	0.00000000	0.00000000
N	-2.38508336	-2.38508336	0.00000000
H	-7.50370418	1.23253018	0.00000000
H	-7.50370418	-1.23253018	0.00000000
H	-5.35528784	2.50917438	0.00000000
H	-5.35528784	-2.50917438	0.00000000
C	-0.70282510	-6.55507406	0.00000000
C	0.70282510	-6.55507406	0.00000000
C	-1.42385822	-5.36476482	0.00000000
C	-0.70355710	-4.17204164	0.00000000
C	0.70355710	-4.17204164	0.00000000
C	1.42385822	-5.36476482	0.00000000
C	-1.11636317	-2.77432142	0.00000000
C	1.11636317	-2.77432142	0.00000000
N	0.00000000	-1.98231730	0.00000000
H	-1.23253018	-7.50370418	0.00000000
H	1.23253018	-7.50370418	0.00000000
H	-2.50917438	-5.35528784	0.00000000
H	2.50917438	-5.35528784	0.00000000
Zn	0.00000000	0.00000000	0.00000000
C	0.70282510	6.55507406	3.50000000
C	-0.70282510	6.55507406	3.50000000
C	1.42385822	5.36476482	3.50000000
C	0.70355710	4.17204164	3.50000000
C	-0.70355710	4.17204164	3.50000000
C	-1.42385822	5.36476482	3.50000000
C	1.11636317	2.77432142	3.50000000
C	-1.11636317	2.77432142	3.50000000
N	0.00000000	1.98231730	3.50000000
N	-2.38508336	2.38508336	3.50000000
N	2.38508336	2.38508336	3.50000000
H	1.23253018	7.50370418	3.50000000
H	-1.23253018	7.50370418	3.50000000
H	2.50917438	5.35528784	3.50000000
H	-2.50917438	5.35528784	3.50000000
C	6.55507406	-0.70282510	3.50000000
C	6.55507406	0.70282510	3.50000000
C	5.36476482	-1.42385822	3.50000000
C	4.17204164	-0.70355710	3.50000000
C	4.17204164	0.70355710	3.50000000
C	5.36476482	1.42385822	3.50000000
C	2.77432142	-1.11636317	3.50000000
C	2.77432142	1.11636317	3.50000000
N	1.98231730	0.00000000	3.50000000
N	2.38508336	-2.38508336	3.50000000
H	7.50370418	-1.23253018	3.50000000
H	7.50370418	1.23253018	3.50000000
H	5.35528784	-2.50917438	3.50000000
H	5.35528784	2.50917438	3.50000000
C	-6.55507406	0.70282510	3.50000000
C	-6.55507406	-0.70282510	3.50000000
C	-5.36476482	1.42385822	3.50000000
C	-4.17204164	0.70355710	3.50000000
C	-4.17204164	-0.70355710	3.50000000
C	-5.36476482	-1.42385822	3.50000000
C	-2.77432142	1.11636317	3.50000000
C	-2.77432142	-1.11636317	3.50000000
N	-1.98231730	0.00000000	3.50000000
N	-2.38508336	-2.38508336	3.50000000
H	-7.50370418	1.23253018	3.50000000
H	-7.50370418	-1.23253018	3.50000000
H	-5.35528784	2.50917438	3.50000000
H	-5.35528784	-2.50917438	3.50000000
C	-0.70282510	-6.55507406	3.50000000
C	0.70282510	-6.55507406	3.50000000
C	-1.42385822	-5.36476482	3.50000000
C	-0.70355710	-4.17204164	3.50000000
C	0.70355710	-4.17204164	3.50000000
C	1.42385822	-5.36476482	3.50000000
C	-1.11636317	-2.77432142	3.50000000
C	1.11636317	-2.77432142	3.50000000
N	0.00000000	-1.98231730	3.50000000
H	-1.23253018	-7.50370418	3.50000000
H	1.23253018	-7.50370418	3.50000000
H	-2.50917438	-5.35528784	3.50000000
H	2.50917438	-5.35528784	3.50000000
Zn	0.00000000	0.00000000	3.50000000

