%chk=ZnPc2_35x30.chk
%nprocshared=8
%mem=16GB
#p lc-blyp/def2svp iop(3/107=0400000000,3/108=0400000000)

lc-blyp(mu=0.4)/def2-tzvp(-f), geom b3pw/631dp

0 1
 C                  2.37545492    6.14981081    0.00000000
 C                  1.01770109    6.51361985    0.00000000
 C                  2.76384473    4.81344327    0.00000000
 C                  1.75938780    3.84778880    0.00000000
 C                  0.40021986    4.21197674    0.00000000
 C                  0.01316188    5.55048651    0.00000000
 C                  1.79637124    2.39085266    0.00000000
 C                 -0.36027680    2.96872476    0.00000000
 N                  0.51306147    1.91477148    0.00000000
 N                 -1.68650862    2.92111861    0.00000000
 N                  2.92111861    1.68650862    0.00000000
 H                  3.13263428    6.92901938    0.00000000
 H                  0.75156881    7.56702394    0.00000000
 H                  3.80972682    4.52338871    0.00000000
 H                 -1.03762586    5.82223295    0.00000000
 C                  6.14981081   -2.37545492    0.00000000
 C                  6.51361985   -1.01770109    0.00000000
 C                  4.81344327   -2.76384473    0.00000000
 C                  3.84778880   -1.75938780    0.00000000
 C                  4.21197674   -0.40021986    0.00000000
 C                  5.55048651   -0.01316188    0.00000000
 C                  2.39085266   -1.79637124    0.00000000
 C                  2.96872476    0.36027680    0.00000000
 N                  1.91477148   -0.51306147    0.00000000
 N                  1.68650862   -2.92111861    0.00000000
 H                  6.92901938   -3.13263428    0.00000000
 H                  7.56702394   -0.75156881    0.00000000
 H                  4.52338871   -3.80972682    0.00000000
 H                  5.82223295    1.03762586    0.00000000
 C                 -6.14981081    2.37545492    0.00000000
 C                 -6.51361985    1.01770109    0.00000000
 C                 -4.81344327    2.76384473    0.00000000
 C                 -3.84778880    1.75938780    0.00000000
 C                 -4.21197674    0.40021986    0.00000000
 C                 -5.55048651    0.01316188    0.00000000
 C                 -2.39085266    1.79637124    0.00000000
 C                 -2.96872476   -0.36027680    0.00000000
 N                 -1.91477148    0.51306147    0.00000000
 N                 -2.92111861   -1.68650862    0.00000000
 H                 -6.92901938    3.13263428    0.00000000
 H                 -7.56702394    0.75156881    0.00000000
 H                 -4.52338871    3.80972682    0.00000000
 H                 -5.82223295   -1.03762586    0.00000000
 C                 -2.37545492   -6.14981081    0.00000000
 C                 -1.01770109   -6.51361985    0.00000000
 C                 -2.76384473   -4.81344327    0.00000000
 C                 -1.75938780   -3.84778880    0.00000000
 C                 -0.40021986   -4.21197674    0.00000000
 C                 -0.01316188   -5.55048651    0.00000000
 C                 -1.79637124   -2.39085266    0.00000000
 C                  0.36027680   -2.96872476    0.00000000
 N                 -0.51306147   -1.91477148    0.00000000
 H                 -3.13263428   -6.92901938    0.00000000
 H                 -0.75156881   -7.56702394    0.00000000
 H                 -3.80972682   -4.52338871    0.00000000
 H                  1.03762586   -5.82223295    0.00000000
 Zn                 0.00000000    0.00000000    0.00000000
 C                 -1.01770109    6.51361985    3.50000000
 C                 -2.37545492    6.14981081    3.50000000
 C                 -0.01316188    5.55048651    3.50000000
 C                 -0.40021986    4.21197674    3.50000000
 C                 -1.75938780    3.84778880    3.50000000
 C                 -2.76384473    4.81344327    3.50000000
 C                  0.36027680    2.96872476    3.50000000
 C                 -1.79637124    2.39085266    3.50000000
 N                 -0.51306147    1.91477148    3.50000000
 N                 -2.92111861    1.68650862    3.50000000
 N                  1.68650862    2.92111861    3.50000000
 H                 -0.75156881    7.56702394    3.50000000
 H                 -3.13263428    6.92901938    3.50000000
 H                  1.03762586    5.82223295    3.50000000
 H                 -3.80972682    4.52338871    3.50000000
 C                  6.51361985    1.01770109    3.50000000
 C                  6.14981081    2.37545492    3.50000000
 C                  5.55048651    0.01316188    3.50000000
 C                  4.21197674    0.40021986    3.50000000
 C                  3.84778880    1.75938780    3.50000000
 C                  4.81344327    2.76384473    3.50000000
 C                  2.96872476   -0.36027680    3.50000000
 C                  2.39085266    1.79637124    3.50000000
 N                  1.91477148    0.51306147    3.50000000
 N                  2.92111861   -1.68650862    3.50000000
 H                  7.56702394    0.75156881    3.50000000
 H                  6.92901938    3.13263428    3.50000000
 H                  5.82223295   -1.03762586    3.50000000
 H                  4.52338871    3.80972682    3.50000000
 C                 -6.51361985   -1.01770109    3.50000000
 C                 -6.14981081   -2.37545492    3.50000000
 C                 -5.55048651   -0.01316188    3.50000000
 C                 -4.21197674   -0.40021986    3.50000000
 C                 -3.84778880   -1.75938780    3.50000000
 C                 -4.81344327   -2.76384473    3.50000000
 C                 -2.96872476    0.36027680    3.50000000
 C                 -2.39085266   -1.79637124    3.50000000
 N                 -1.91477148   -0.51306147    3.50000000
 N                 -1.68650862   -2.92111861    3.50000000
 H                 -7.56702394   -0.75156881    3.50000000
 H                 -6.92901938   -3.13263428    3.50000000
 H                 -5.82223295    1.03762586    3.50000000
 H                 -4.52338871   -3.80972682    3.50000000
 C                  1.01770109   -6.51361985    3.50000000
 C                  2.37545492   -6.14981081    3.50000000
 C                  0.01316188   -5.55048651    3.50000000
 C                  0.40021986   -4.21197674    3.50000000
 C                  1.75938780   -3.84778880    3.50000000
 C                  2.76384473   -4.81344327    3.50000000
 C                 -0.36027680   -2.96872476    3.50000000
 C                  1.79637124   -2.39085266    3.50000000
 N                  0.51306147   -1.91477148    3.50000000
 H                  0.75156881   -7.56702394    3.50000000
 H                  3.13263428   -6.92901938    3.50000000
 H                 -1.03762586   -5.82223295    3.50000000
 H                  3.80972682   -4.52338871    3.50000000
 Zn                 0.00000000    0.00000000    3.50000000

--Link1--
%chk=ZnPc2_35x30.chk
%nprocshared=8
%mem=120GB
#p td(nstates=6) lc-blyp/gen iop(3/107=0400000000, 3/108=0400000000) geom=check guess=read

ZnPc dimer lc-blyp(mu=0.4)/def2-tzvp(-f), monomer geom b3pw/631dp

0 1

H Zn 0
def2tzvp
****
C     0
S    6   1.00
  13575.3496820              0.22245814352D-03
   2035.2333680              0.17232738252D-02
    463.22562359             0.89255715314D-02
    131.20019598             0.35727984502D-01
     42.853015891            0.11076259931
     15.584185766            0.24295627626
S    2   1.00
      6.2067138508           0.41440263448
      2.5764896527           0.23744968655
S    1   1.00
      0.57696339419          1.0000000
S    1   1.00
      0.22972831358          1.0000000
S    1   1.00
      0.95164440028D-01      1.0000000
P    4   1.00
     34.697232244            0.53333657805D-02
      7.9582622826           0.35864109092D-01
      2.3780826883           0.14215873329
      0.81433208183          0.34270471845
P    1   1.00
      0.28887547253           .46445822433
P    1   1.00
      0.10056823671           .24955789874
D    1   1.00
      1.09700000             1.0000000
D    1   1.00
      0.31800000             1.0000000
****
N     0
S    6   1.00
  19730.8006470              0.21887984991D-03
   2957.8958745              0.16960708803D-02
    673.22133595             0.87954603538D-02
    190.68249494             0.35359382605D-01
     62.295441898            0.11095789217
     22.654161182            0.24982972552
S    2   1.00
      8.9791477428           0.40623896148
      3.6863002370           0.24338217176
S    1   1.00
      0.84660076805          1.0000000
S    1   1.00
      0.33647133771          1.0000000
S    1   1.00
      0.13647653675          1.0000000
P    4   1.00
     49.200380510            0.55552416751D-02
     11.346790537            0.38052379723D-01
      3.4273972411           0.14953671029
      1.1785525134           0.34949305230
P    1   1.00
      0.41642204972           .45843153697
P    1   1.00
      0.14260826011           .24428771672
D    1   1.00
      1.65400000             1.0000000
D    1   1.00
      0.46900000             1.0000000
****


