%chk=ZnPcXRD7.chk
%nproc=2
%mem=8GB
#p opt=readopt b3pw91/6-31g(d,p)

Title Card Required

0 1
 Zn             
 N                  1    3.35713856
 N                  1    1.98017144    2   45.55639955
 N                  3    2.42352040    1  100.63373666    2 -179.99501186    0
 N                  1    1.97841558    3   88.96624553    4    0.16045982    0
 C                  2    1.33371431    1   62.02848844    5    1.01201402    0
 C                  6    1.45021633    2  123.08399056    1  177.60149702    0
 C                  7    1.39286490    6  131.67788764    2    0.13122913    0
 C                  8    1.38821675    7  117.08983143    6 -178.90108606    0
 C                  9    1.39779606    8  121.69642889    7   -0.33288908    0
 C                 10    1.39570253    9  121.25168975    8   -0.14660160    0
 C                 11    1.39354819   10  117.10448016    9    0.20225508    0
 C                  4    1.32745204    3   26.57803280    1  177.20241876    0
 C                  4    1.33072286    3   96.46576100    1   -1.32613103    0
 C                 14    1.45802185    4  123.70536707    3 -178.18322568    0
 C                 15    1.39547127   14  132.94685782    4    2.12032684    0
 C                 16    1.38879128   15  117.56090969   14  178.70808031    0
 C                 17    1.39501072   16  121.54050477   15    0.30589874    0
 C                 18    1.39103126   17  121.32704296   16   -0.03811086    0
 C                 19    1.39196626   18  117.28704949   17   -0.43859031    0
 C                  5    1.36392672    1  124.58100600    3  179.40822378    0
 N                 21    1.33181786    5  127.98886164    1    1.70466816    0
 N                  1    1.98017144    5   91.03375447   21   -0.59177622    0
 N                 23    2.42352040    1  100.63373666    5  179.83954018    0
 N                  1    1.97841558   23   88.96624553   24   -0.16045982    0
 C                 22    1.33371431   21  123.94231456    5   -2.77492867    0
 C                 26    1.45021633   22  123.08399056   21 -175.76530046    0
 C                 27    1.39286490   26  131.67788764   22   -0.13122913    0
 C                 28    1.38821675   27  117.08983143   26  178.90108606    0
 C                 29    1.39779606   28  121.69642889   27    0.33288908    0
 C                 30    1.39570253   29  121.25168975   28    0.14660160    0
 C                 31    1.39354819   30  117.10448016   29   -0.20225508    0
 C                 24    1.32745204   23   26.57803280    1 -177.20241876    0
 C                 24    1.33072286   23   96.46576100    1    1.32613103    0
 C                 34    1.45802185   24  123.70536707   23  178.18322568    0
 C                 35    1.39547127   34  132.94685782   24   -2.12032684    0
 C                 36    1.38879128   35  117.56090969   34 -178.70808031    0
 C                 37    1.39501072   36  121.54050477   35   -0.30589874    0
 C                 38    1.39103126   37  121.32704296   36    0.03811086    0
 C                 39    1.39196626   38  117.28704949   37    0.43859031    0
 C                  2    1.33181786    1   61.93825652    5  179.28580416    0
 Bq                22    3.23126745   21   90.22683966    5   94.48023918    0
 H                 36            B1   35            A1   34            D1    0
 H                 37            B2   36            A2   35            D2    0
 H                 38            B3   37            A3   36            D3    0
 H                 39            B4   38            A4   37            D4    0
 H                  8            B5    7            A5    6            D5    0
 H                  9            B6    8            A6    7            D6    0
 H                 10            B7    9            A7    8            D7    0
 H                 11            B8   10            A8    9            D8    0
 H                 16            B9   15            A9   14            D9    0
 H                 17           B10   16           A10   15           D10    0
 H                 18           B11   17           A11   16           D11    0
 H                 19           B12   18           A12   17           D12    0
 H                 28           B13   27           A13   26           D13    0
 H                 29           B14   28           A14   27           D14    0
 H                 30           B15   29           A15   28           D15    0
 H                 31           B16   30           A16   29           D16    0

   B1             1.07000000
   B2             1.07000000
   B3             1.07000000
   B4             1.07000000
   B5             1.07000000
   B6             1.07000000
   B7             1.07000000
   B8             1.07000000
   B9             1.07000000
   B10            1.07000000
   B11            1.07000000
   B12            1.07000000
   B13            1.07000000
   B14            1.07000000
   B15            1.07000000
   B16            1.07000000
   A1           121.21954516
   A2           119.22974762
   A3           119.33647852
   A4           121.35647526
   A5           121.45508429
   A6           119.15178555
   A7           119.37415513
   A8           121.44775992
   A9           121.21954516
   A10          119.22974762
   A11          119.33647852
   A12          121.35647526
   A13          121.45508429
   A14          119.15178555
   A15          119.37415513
   A16          121.44775992
   D1             1.29191969
   D2           179.69410126
   D3          -179.96188914
   D4          -179.56140969
   D5             1.09891394
   D6           179.66711092
   D7           179.85339840
   D8          -179.79774492
   D9            -1.29191969
   D10         -179.69410126
   D11          179.96188914
   D12          179.56140969
   D13           -1.09891394
   D14         -179.66711092
   D15         -179.85339840
   D16          179.79774492

