%chk=ZnPcXRD0.chk
# pbepbe/3-21g/auto

Title Card Required

0 1
 Zn                 0.00000000    0.00000000    0.00000000
 Tv                19.27400000    0.00000000    0.00000000
 Tv                 0.00000000    4.85380000    0.00000000
 Tv                -7.38182831    0.00000000   12.54186668

