 Entering Gaussian System, Link 0=g09
 Input=./ZnPc3_34_20.gjf
 Output=./ZnPc3_34_20.log
 Initial command:
 /home/sergey/g09/l1.exe "/home/sergey/SCRATCH/Gau-11489.inp" -scrdir="/home/sergey/SCRATCH/"
 Entering Link 1 = /home/sergey/g09/l1.exe PID=     11490.
  
 Copyright (c) 1988,1990,1992,1993,1995,1998,2003,2009,2015,
            Gaussian, Inc.  All Rights Reserved.
  
 This is part of the Gaussian(R) 09 program.  It is based on
 the Gaussian(R) 03 system (copyright 2003, Gaussian, Inc.),
 the Gaussian(R) 98 system (copyright 1998, Gaussian, Inc.),
 the Gaussian(R) 94 system (copyright 1995, Gaussian, Inc.),
 the Gaussian 92(TM) system (copyright 1992, Gaussian, Inc.),
 the Gaussian 90(TM) system (copyright 1990, Gaussian, Inc.),
 the Gaussian 88(TM) system (copyright 1988, Gaussian, Inc.),
 the Gaussian 86(TM) system (copyright 1986, Carnegie Mellon
 University), and the Gaussian 82(TM) system (copyright 1983,
 Carnegie Mellon University). Gaussian is a federally registered
 trademark of Gaussian, Inc.
  
 This software contains proprietary and confidential information,
 including trade secrets, belonging to Gaussian, Inc.
  
 This software is provided under written license and may be
 used, copied, transmitted, or stored only in accord with that
 written license.
  
 The following legend is applicable only to US Government
 contracts under FAR:
  
                    RESTRICTED RIGHTS LEGEND
  
 Use, reproduction and disclosure by the US Government is
 subject to restrictions as set forth in subparagraphs (a)
 and (c) of the Commercial Computer Software - Restricted
 Rights clause in FAR 52.227-19.
  
 Gaussian, Inc.
 340 Quinnipiac St., Bldg. 40, Wallingford CT 06492
  
  
 ---------------------------------------------------------------
 Warning -- This program may not be used in any manner that
 competes with the business of Gaussian, Inc. or will provide
 assistance to any competitor of Gaussian, Inc.  The licensee
 of this program is prohibited from giving any competitor of
 Gaussian, Inc. access to this program.  By using this program,
 the user acknowledges that Gaussian, Inc. is engaged in the
 business of creating and licensing software in the field of
 computational chemistry and represents and warrants to the
 licensee that it is not a competitor of Gaussian, Inc. and that
 it will not use this program in any manner prohibited above.
 ---------------------------------------------------------------
  

 Cite this work as:
 Gaussian 09, Revision E.01,
 M. J. Frisch, G. W. Trucks, H. B. Schlegel, G. E. Scuseria, 
 M. A. Robb, J. R. Cheeseman, G. Scalmani, V. Barone, B. Mennucci, 
 G. A. Petersson, H. Nakatsuji, M. Caricato, X. Li, H. P. Hratchian, 
 A. F. Izmaylov, J. Bloino, G. Zheng, J. L. Sonnenberg, M. Hada, 
 M. Ehara, K. Toyota, R. Fukuda, J. Hasegawa, M. Ishida, T. Nakajima, 
 Y. Honda, O. Kitao, H. Nakai, T. Vreven, J. A. Montgomery, Jr., 
 J. E. Peralta, F. Ogliaro, M. Bearpark, J. J. Heyd, E. Brothers, 
 K. N. Kudin, V. N. Staroverov, T. Keith, R. Kobayashi, J. Normand, 
 K. Raghavachari, A. Rendell, J. C. Burant, S. S. Iyengar, J. Tomasi, 
 M. Cossi, N. Rega, J. M. Millam, M. Klene, J. E. Knox, J. B. Cross, 
 V. Bakken, C. Adamo, J. Jaramillo, R. Gomperts, R. E. Stratmann, 
 O. Yazyev, A. J. Austin, R. Cammi, C. Pomelli, J. W. Ochterski, 
 R. L. Martin, K. Morokuma, V. G. Zakrzewski, G. A. Voth, 
 P. Salvador, J. J. Dannenberg, S. Dapprich, A. D. Daniels, 
 O. Farkas, J. B. Foresman, J. V. Ortiz, J. Cioslowski, 
 and D. J. Fox, Gaussian, Inc., Wallingford CT, 2013.
 
 ******************************************
 Gaussian 09:  ES64L-G09RevE.01 30-Nov-2015
                14-Apr-2026 
 ******************************************
 %chk=ZnPc3_34_20.chk
 %mem=16GB
 %nproc=6
 Will use up to    6 processors via shared memory.
 Default route:  MaxDisk=477GB
 --------------------------------------------------------
 # lc-blyp/def2svp iop(3/107=0350000000,3/108=0350000000)
 --------------------------------------------------------
 1/38=1/1;
 2/12=2,17=6,18=5,40=1/2;
 3/5=43,7=101,11=2,16=1,25=1,30=1,74=1000402,107=350000000,108=350000000/1,2,3;
 4//1;
 5/5=2,38=5/2;
 6/7=2,8=2,9=2,10=2,28=1/1;
 99/5=1,9=1/99;
 ----------------------
 monomer geom r2scan-3c
 ----------------------
 Symbolic Z-matrix:
 Charge =  0 Multiplicity = 1
 C                     0.70166   6.5542    0. 
 C                    -0.70166   6.5542    0. 
 C                     1.42257   5.36493   0. 
 C                     0.70397   4.17457   0. 
 C                    -0.70397   4.17457   0. 
 C                    -1.42257   5.36493   0. 
 C                     1.12042   2.78002   0. 
 C                    -1.12042   2.78002   0. 
 N                     0.        1.9891    0. 
 N                    -2.39057   2.39057   0. 
 N                     2.39057   2.39057   0. 
 H                     1.23107   7.50255   0. 
 H                    -1.23107   7.50255   0. 
 H                     2.50803   5.35648   0. 
 H                    -2.50803   5.35648   0. 
 C                     6.5542   -0.70166   0. 
 C                     6.5542    0.70166   0. 
 C                     5.36493  -1.42257   0. 
 C                     4.17457  -0.70397   0. 
 C                     4.17457   0.70397   0. 
 C                     5.36493   1.42257   0. 
 C                     2.78002  -1.12042   0. 
 C                     2.78002   1.12042   0. 
 N                     1.9891    0.        0. 
 N                     2.39057  -2.39057   0. 
 H                     7.50255  -1.23107   0. 
 H                     7.50255   1.23107   0. 
 H                     5.35648  -2.50803   0. 
 H                     5.35648   2.50803   0. 
 C                    -6.5542    0.70166   0. 
 C                    -6.5542   -0.70166   0. 
 C                    -5.36493   1.42257   0. 
 C                    -4.17457   0.70397   0. 
 C                    -4.17457  -0.70397   0. 
 C                    -5.36493  -1.42257   0. 
 C                    -2.78002   1.12042   0. 
 C                    -2.78002  -1.12042   0. 
 N                    -1.9891    0.        0. 
 N                    -2.39057  -2.39057   0. 
 H                    -7.50255   1.23107   0. 
 H                    -7.50255  -1.23107   0. 
 H                    -5.35648   2.50803   0. 
 H                    -5.35648  -2.50803   0. 
 C                    -0.70166  -6.5542    0. 
 C                     0.70166  -6.5542    0. 
 C                    -1.42257  -5.36493   0. 
 C                    -0.70397  -4.17457   0. 
 C                     0.70397  -4.17457   0. 
 C                     1.42257  -5.36493   0. 
 C                    -1.12042  -2.78002   0. 
 C                     1.12042  -2.78002   0. 
 N                     0.       -1.9891    0. 
 H                    -1.23107  -7.50255   0. 
 H                     1.23107  -7.50255   0. 
 H                    -2.50803  -5.35648   0. 
 H                     2.50803  -5.35648   0. 
 Zn                    0.        0.        0. 
 C                     2.70166   6.5542    3.4 
 C                     1.29834   6.5542    3.4 
 C                     3.42257   5.36493   3.4 
 C                     2.70397   4.17457   3.4 
 C                     1.29603   4.17457   3.4 
 C                     0.57743   5.36493   3.4 
 C                     3.12042   2.78002   3.4 
 C                     0.87958   2.78002   3.4 
 N                     2.        1.9891    3.4 
 N                    -0.39057   2.39057   3.4 
 N                     4.39057   2.39057   3.4 
 H                     3.23107   7.50255   3.4 
 H                     0.76893   7.50255   3.4 
 H                     4.50803   5.35648   3.4 
 H                    -0.50803   5.35648   3.4 
 C                     8.5542   -0.70166   3.4 
 C                     8.5542    0.70166   3.4 
 C                     7.36493  -1.42257   3.4 
 C                     6.17457  -0.70397   3.4 
 C                     6.17457   0.70397   3.4 
 C                     7.36493   1.42257   3.4 
 C                     4.78002  -1.12042   3.4 
 C                     4.78002   1.12042   3.4 
 N                     3.9891    0.        3.4 
 N                     4.39057  -2.39057   3.4 
 H                     9.50255  -1.23107   3.4 
 H                     9.50255   1.23107   3.4 
 H                     7.35648  -2.50803   3.4 
 H                     7.35648   2.50803   3.4 
 C                    -4.5542    0.70166   3.4 
 C                    -4.5542   -0.70166   3.4 
 C                    -3.36493   1.42257   3.4 
 C                    -2.17456   0.70397   3.4 
 C                    -2.17456  -0.70397   3.4 
 C                    -3.36493  -1.42257   3.4 
 C                    -0.78002   1.12042   3.4 
 C                    -0.78002  -1.12042   3.4 
 N                     0.0109    0.        3.4 
 N                    -0.39057  -2.39057   3.4 
 H                    -5.50255   1.23107   3.4 
 H                    -5.50255  -1.23107   3.4 
 H                    -3.35648   2.50803   3.4 
 H                    -3.35648  -2.50803   3.4 
 C                     1.29834  -6.5542    3.4 
 C                     2.70166  -6.5542    3.4 
 C                     0.57743  -5.36493   3.4 
 C                     1.29603  -4.17457   3.4 
 C                     2.70397  -4.17457   3.4 
 C                     3.42257  -5.36493   3.4 
 C                     0.87958  -2.78002   3.4 
 C                     3.12042  -2.78002   3.4 
 N                     2.       -1.9891    3.4 
 H                     0.76893  -7.50255   3.4 
 H                     3.23107  -7.50255   3.4 
 H                    -0.50803  -5.35648   3.4 
 H                     4.50803  -5.35648   3.4 
 Zn                    2.        0.        3.4 
 C                     4.70166   6.5542    6.8 
 C                     3.29834   6.5542    6.8 
 C                     5.42257   5.36493   6.8 
 C                     4.70397   4.17457   6.8 
 C                     3.29603   4.17457   6.8 
 C                     2.57743   5.36493   6.8 
 C                     5.12042   2.78002   6.8 
 C                     2.87958   2.78002   6.8 
 N                     4.        1.9891    6.8 
 N                     1.60943   2.39057   6.8 
 N                     6.39057   2.39057   6.8 
 H                     5.23107   7.50255   6.8 
 H                     2.76893   7.50255   6.8 
 H                     6.50803   5.35648   6.8 
 H                     1.49197   5.35648   6.8 
 C                     10.5542  -0.70166   6.8 
 C                     10.5542   0.70166   6.8 
 C                     9.36493  -1.42257   6.8 
 C                     8.17456  -0.70397   6.8 
 C                     8.17456   0.70397   6.8 
 C                     9.36493   1.42257   6.8 
 C                     6.78002  -1.12042   6.8 
 C                     6.78002   1.12042   6.8 
 N                     5.9891    0.        6.8 
 N                     6.39057  -2.39057   6.8 
 H                     11.50255  -1.23107   6.8 
 H                     11.50255   1.23107   6.8 
 H                     9.35647  -2.50803   6.8 
 H                     9.35647   2.50803   6.8 
 C                    -2.5542    0.70166   6.8 
 C                    -2.5542   -0.70166   6.8 
 C                    -1.36493   1.42257   6.8 
 C                    -0.17457   0.70397   6.8 
 C                    -0.17457  -0.70397   6.8 
 C                    -1.36493  -1.42257   6.8 
 C                     1.21998   1.12042   6.8 
 C                     1.21998  -1.12042   6.8 
 N                     2.0109    0.        6.8 
 N                     1.60943  -2.39057   6.8 
 H                    -3.50255   1.23107   6.8 
 H                    -3.50255  -1.23107   6.8 
 H                    -1.35648   2.50803   6.8 
 H                    -1.35648  -2.50803   6.8 
 C                     3.29834  -6.5542    6.8 
 C                     4.70166  -6.5542    6.8 
 C                     2.57743  -5.36493   6.8 
 C                     3.29603  -4.17457   6.8 
 C                     4.70397  -4.17457   6.8 
 C                     5.42257  -5.36493   6.8 
 C                     2.87958  -2.78002   6.8 
 C                     5.12042  -2.78002   6.8 
 N                     4.       -1.9891    6.8 
 H                     2.76893  -7.50255   6.8 
 H                     5.23107  -7.50255   6.8 
 H                     1.49197  -5.35648   6.8 
 H                     6.50803  -5.35648   6.8 
 Zn                    4.        0.        6.8 
 
 Stoichiometry    C96H48N24Zn3
 Framework group  C2H[O(Zn),C2(N.N),SGH(N6Zn2),X(C96H48N16)]
 Deg. of freedom   128
 Full point group                 C2H     NOp   4
 Largest Abelian subgroup         C2H     NOp   4
 Largest concise Abelian subgroup C2H     NOp   4
                         Standard orientation:                         
 ---------------------------------------------------------------------
 Center     Atomic      Atomic             Coordinates (Angstroms)
 Number     Number       Type             X           Y           Z
 ---------------------------------------------------------------------
      1          6           0        3.400000    1.298337    6.554204
      2          6           0        3.400000    2.701663    6.554204
      3          6           0        3.400000    0.577429    5.364926
      4          6           0        3.400000    1.296033    4.174565
      5          6           0        3.400000    2.703967    4.174565
      6          6           0        3.400000    3.422571    5.364926
      7          6           0        3.400000    0.879578    2.780020
      8          6           0        3.400000    3.120422    2.780020
      9          7           0        3.400000    2.000000    1.989101
     10          7           0        3.400000    4.390568    2.390568
     11          7           0        3.400000   -0.390568    2.390568
     12          1           0        3.400000    0.768929    7.502550
     13          1           0        3.400000    3.231071    7.502550
     14          1           0        3.400000   -0.508027    5.356475
     15          1           0        3.400000    4.508027    5.356475
     16          6           0        3.400000   -4.554204   -0.701663
     17          6           0        3.400000   -4.554204    0.701663
     18          6           0        3.400000   -3.364926   -1.422571
     19          6           0        3.400000   -2.174565   -0.703967
     20          6           0        3.400000   -2.174565    0.703967
     21          6           0        3.400000   -3.364926    1.422571
     22          6           0        3.400000   -0.780020   -1.120422
     23          6           0        3.400000   -0.780020    1.120422
     24          7           0        3.400000    0.010899   -0.000000
     25          7           0        3.400000   -0.390568   -2.390568
     26          1           0        3.400000   -5.502550   -1.231071
     27          1           0        3.400000   -5.502550    1.231071
     28          1           0        3.400000   -3.356475   -2.508027
     29          1           0        3.400000   -3.356475    2.508027
     30          6           0        3.400000    8.554204    0.701663
     31          6           0        3.400000    8.554204   -0.701663
     32          6           0        3.400000    7.364926    1.422571
     33          6           0        3.400000    6.174565    0.703967
     34          6           0        3.400000    6.174565   -0.703967
     35          6           0        3.400000    7.364926   -1.422571
     36          6           0        3.400000    4.780020    1.120422
     37          6           0        3.400000    4.780020   -1.120422
     38          7           0        3.400000    3.989101    0.000000
     39          7           0        3.400000    4.390568   -2.390568
     40          1           0        3.400000    9.502550    1.231071
     41          1           0        3.400000    9.502550   -1.231071
     42          1           0        3.400000    7.356475    2.508027
     43          1           0        3.400000    7.356475   -2.508027
     44          6           0        3.400000    2.701663   -6.554204
     45          6           0        3.400000    1.298337   -6.554204
     46          6           0        3.400000    3.422571   -5.364926
     47          6           0        3.400000    2.703967   -4.174565
     48          6           0        3.400000    1.296033   -4.174565
     49          6           0        3.400000    0.577429   -5.364926
     50          6           0        3.400000    3.120422   -2.780020
     51          6           0        3.400000    0.879578   -2.780020
     52          7           0        3.400000    2.000000   -1.989101
     53          1           0        3.400000    3.231071   -7.502550
     54          1           0        3.400000    0.768929   -7.502550
     55          1           0        3.400000    4.508027   -5.356475
     56          1           0        3.400000   -0.508027   -5.356475
     57         30           0        3.400000    2.000000    0.000000
     58          6           0       -0.000000   -0.701663    6.554204
     59          6           0        0.000000    0.701663    6.554204
     60          6           0       -0.000000   -1.422571    5.364926
     61          6           0       -0.000000   -0.703967    4.174565
     62          6           0        0.000000    0.703967    4.174565
     63          6           0        0.000000    1.422571    5.364926
     64          6           0       -0.000000   -1.120422    2.780020
     65          6           0        0.000000    1.120422    2.780020
     66          7           0       -0.000000    0.000000    1.989101
     67          7           0       -0.000000    2.390568    2.390568
     68          7           0       -0.000000   -2.390568    2.390568
     69          1           0       -0.000000   -1.231071    7.502550
     70          1           0        0.000000    1.231071    7.502550
     71          1           0       -0.000000   -2.508027    5.356475
     72          1           0        0.000000    2.508027    5.356475
     73          6           0        0.000000   -6.554204   -0.701663
     74          6           0        0.000000   -6.554204    0.701663
     75          6           0        0.000000   -5.364926   -1.422571
     76          6           0        0.000000   -4.174565   -0.703967
     77          6           0        0.000000   -4.174565    0.703967
     78          6           0        0.000000   -5.364926    1.422571
     79          6           0        0.000000   -2.780020   -1.120422
     80          6           0        0.000000   -2.780020    1.120422
     81          7           0        0.000000   -1.989101   -0.000000
     82          7           0       -0.000000   -2.390568   -2.390568
     83          1           0        0.000000   -7.502550   -1.231071
     84          1           0        0.000000   -7.502550    1.231071
     85          1           0        0.000000   -5.356475   -2.508027
     86          1           0        0.000000   -5.356475    2.508027
     87          6           0        0.000000    6.554204    0.701663
     88          6           0        0.000000    6.554204   -0.701663
     89          6           0        0.000000    5.364926    1.422571
     90          6           0        0.000000    4.174565    0.703967
     91          6           0        0.000000    4.174565   -0.703967
     92          6           0        0.000000    5.364926   -1.422571
     93          6           0        0.000000    2.780020    1.120422
     94          6           0        0.000000    2.780020   -1.120422
     95          7           0        0.000000    1.989101   -0.000000
     96          7           0       -0.000000    2.390568   -2.390568
     97          1           0        0.000000    7.502550    1.231071
     98          1           0        0.000000    7.502550   -1.231071
     99          1           0        0.000000    5.356475    2.508027
    100          1           0        0.000000    5.356475   -2.508027
    101          6           0        0.000000    0.701663   -6.554204
    102          6           0       -0.000000   -0.701663   -6.554204
    103          6           0        0.000000    1.422571   -5.364926
    104          6           0        0.000000    0.703967   -4.174565
    105          6           0       -0.000000   -0.703967   -4.174565
    106          6           0        0.000000   -1.422571   -5.364926
    107          6           0        0.000000    1.120422   -2.780020
    108          6           0        0.000000   -1.120422   -2.780020
    109          7           0       -0.000000    0.000000   -1.989101
    110          1           0        0.000000    1.231071   -7.502550
    111          1           0       -0.000000   -1.231071   -7.502550
    112          1           0        0.000000    2.508027   -5.356475
    113          1           0        0.000000   -2.508027   -5.356475
    114         30           0        0.000000    0.000000    0.000000
    115          6           0       -3.400000   -2.701663    6.554204
    116          6           0       -3.400000   -1.298337    6.554204
    117          6           0       -3.400000   -3.422571    5.364926
    118          6           0       -3.400000   -2.703967    4.174565
    119          6           0       -3.400000   -1.296033    4.174565
    120          6           0       -3.400000   -0.577429    5.364926
    121          6           0       -3.400000   -3.120422    2.780020
    122          6           0       -3.400000   -0.879578    2.780020
    123          7           0       -3.400000   -2.000000    1.989101
    124          7           0       -3.400000    0.390568    2.390568
    125          7           0       -3.400000   -4.390568    2.390568
    126          1           0       -3.400000   -3.231071    7.502550
    127          1           0       -3.400000   -0.768929    7.502550
    128          1           0       -3.400000   -4.508027    5.356475
    129          1           0       -3.400000    0.508027    5.356475
    130          6           0       -3.400000   -8.554204   -0.701663
    131          6           0       -3.400000   -8.554204    0.701663
    132          6           0       -3.400000   -7.364926   -1.422571
    133          6           0       -3.400000   -6.174565   -0.703967
    134          6           0       -3.400000   -6.174565    0.703967
    135          6           0       -3.400000   -7.364926    1.422571
    136          6           0       -3.400000   -4.780020   -1.120422
    137          6           0       -3.400000   -4.780020    1.120422
    138          7           0       -3.400000   -3.989101   -0.000000
    139          7           0       -3.400000   -4.390568   -2.390568
    140          1           0       -3.400000   -9.502550   -1.231071
    141          1           0       -3.400000   -9.502550    1.231071
    142          1           0       -3.400000   -7.356475   -2.508027
    143          1           0       -3.400000   -7.356475    2.508027
    144          6           0       -3.400000    4.554204    0.701663
    145          6           0       -3.400000    4.554204   -0.701663
    146          6           0       -3.400000    3.364926    1.422571
    147          6           0       -3.400000    2.174565    0.703967
    148          6           0       -3.400000    2.174565   -0.703967
    149          6           0       -3.400000    3.364926   -1.422571
    150          6           0       -3.400000    0.780020    1.120422
    151          6           0       -3.400000    0.780020   -1.120422
    152          7           0       -3.400000   -0.010899   -0.000000
    153          7           0       -3.400000    0.390568   -2.390568
    154          1           0       -3.400000    5.502550    1.231071
    155          1           0       -3.400000    5.502550   -1.231071
    156          1           0       -3.400000    3.356475    2.508027
    157          1           0       -3.400000    3.356475   -2.508027
    158          6           0       -3.400000   -1.298337   -6.554204
    159          6           0       -3.400000   -2.701663   -6.554204
    160          6           0       -3.400000   -0.577429   -5.364926
    161          6           0       -3.400000   -1.296033   -4.174565
    162          6           0       -3.400000   -2.703967   -4.174565
    163          6           0       -3.400000   -3.422571   -5.364926
    164          6           0       -3.400000   -0.879578   -2.780020
    165          6           0       -3.400000   -3.120422   -2.780020
    166          7           0       -3.400000   -2.000000   -1.989101
    167          1           0       -3.400000   -0.768929   -7.502550
    168          1           0       -3.400000   -3.231071   -7.502550
    169          1           0       -3.400000    0.508027   -5.356475
    170          1           0       -3.400000   -4.508027   -5.356475
    171         30           0       -3.400000   -2.000000   -0.000000
 ---------------------------------------------------------------------
 Rotational constants (GHZ):      0.0197585      0.0144767      0.0116725
 Standard basis: def2SVP (5D, 7F)
 There are   560 symmetry adapted cartesian basis functions of AG  symmetry.
 There are   513 symmetry adapted cartesian basis functions of BG  symmetry.
 There are   519 symmetry adapted cartesian basis functions of AU  symmetry.
 There are   556 symmetry adapted cartesian basis functions of BU  symmetry.
 There are   522 symmetry adapted basis functions of AG  symmetry.
 There are   484 symmetry adapted basis functions of BG  symmetry.
 There are   488 symmetry adapted basis functions of AU  symmetry.
 There are   519 symmetry adapted basis functions of BU  symmetry.
  2013 basis functions,  3579 primitive gaussians,  2148 cartesian basis functions
   441 alpha electrons      441 beta electrons
       nuclear repulsion energy     34637.9705534951 Hartrees.
 NAtoms=  171 NActive=  171 NUniq=   46 SFac= 4.00D+00 NAtFMM=   60 NAOKFM=T Big=F
 Integral buffers will be    131072 words long.
 Raffenetti 2 integral format.
 Two-electron integral symmetry is turned on.
 One-electron integrals computed using PRISM.
   4 Symmetry operations used in ECPInt.
 ECPInt:  NShTT=  402753 NPrTT= 1563852 LenC2=  272166 LenP2D=  603124.
 LDataN:  DoStor=T MaxTD1= 6 Len=  172
 NBasis=  2013 RedAO= T EigKep=  1.02D-04  NBF=   522   484   488   519
 NBsUse=  2013 1.00D-06 EigRej= -1.00D+00 NBFU=   522   484   488   519
 ExpMin= 4.23D-02 ExpMax= 8.20D+04 ExpMxC= 1.23D+04 IAcc=2 IRadAn=         4 AccDes= 0.00D+00
 Harris functional with IExCor=10402 and IRadAn=       4 diagonalized for initial guess.
 HarFok:  IExCor=10402 AccDes= 0.00D+00 IRadAn=         4 IDoV= 1 UseB2=F ITyADJ=14
 ICtDFT=  3500011 ScaDFX=  1.000000  1.000000  1.000000  1.000000
 FoFCou: FMM=F IPFlag=           0 FMFlag=      100000 FMFlg1=        2000
         NFxFlg=           0 DoJE=T BraDBF=F KetDBF=T FulRan=T
         wScrn=  0.000000 ICntrl=     500 IOpCl=  0 I1Cent=   200000004 NGrid=           0
         NMat0=    1 NMatS0=      1 NMatT0=    0 NMatD0=    1 NMtDS0=    0 NMtDT0=    0
 Petite list used in FoFCou.
 Initial guess orbital symmetries:
       Occupied  (AG) (AG) (BU) (AG) (AG) (BU) (AU) (BU) (AG) (BG)
                 (AU) (BU) (BU) (AG) (BU) (BU) (AG) (BU) (AG) (AU)
                 (AG) (BU) (AG) (BG) (AU) (BU) (AG) (AG) (BG) (AU)
                 (BU) (AG) (BU) (BG) (AU) (AG) (AU) (BG) (BU) (BG)
                 (AU) (BU) (BG) (AU) (AG) (BG) (AU) (BG) (AU) (BU)
                 (BG) (AG) (BU) (AU) (AG) (BU) (AG) (BU) (AG) (BG)
                 (BU) (AU) (AG) (AU) (AG) (BU) (AG) (BG) (BU) (BU)
                 (AG) (AU) (BG) (BG) (AU) (AU) (AG) (BG) (BU) (BU)
                 (AG) (BG) (BU) (AU) (AG) (BG) (AU) (BU) (AG) (BG)
                 (AU) (AU) (AG) (AG) (BU) (BG) (BU) (BG) (AU) (BU)
                 (AG) (BG) (AU) (BG) (BU) (AU) (AG) (BG) (BU) (AU)
                 (AG) (AU) (BG) (AG) (BU) (BG) (AU) (AG) (BU) (BG)
                 (AU) (BU) (BG) (AG) (BU) (AU) (BG) (AG) (AU) (BU)
                 (AG) (BG) (AU) (BU) (AG) (AG) (AG) (BU) (BU) (AU)
                 (AG) (BU) (BG) (AU) (BU) (AG) (BU) (AG) (BU) (AG)
                 (BU) (AU) (AG) (BG) (BU) (AU) (AG) (BU) (AG) (BG)
                 (AU) (BG) (AU) (BU) (BG) (AG) (BU) (AU) (AG) (BU)
                 (AG) (AG) (BU) (AG) (BU) (AU) (AG) (BG) (BU) (AU)
                 (AG) (BU) (AG) (BG) (AU) (BG) (AU) (BU) (BG) (AG)
                 (BU) (AU) (AG) (BG) (AU) (AG) (BU) (BG) (BU) (AU)
                 (AG) (BG) (BU) (AU) (AG) (BU) (AG) (BG) (AU) (BG)
                 (BU) (AU) (AU) (BG) (AG) (BU) (AG) (AG) (BU) (BU)
                 (AU) (AG) (BG) (BU) (AU) (AG) (BU) (AG) (BG) (AU)
                 (BG) (AG) (BU) (AG) (AU) (BU) (BG) (AG) (BU) (AU)
                 (BG) (AU) (BG) (BG) (AU) (BG) (AG) (BU) (AG) (AU)
                 (BU) (BG) (AG) (BU) (AU) (AG) (BU) (AG) (AU) (BU)
                 (BG) (AU) (AG) (BU) (AG) (BU) (AG) (BU) (AU) (BG)
                 (BG) (AG) (AU) (BU) (BG) (AU) (BG) (AU) (AG) (BU)
                 (AG) (BG) (BU) (AU) (BG) (AU) (AG) (BU) (AG) (BU)
                 (AG) (BU) (BG) (BG) (AU) (AU) (BU) (BG) (BU) (AG)
                 (BG) (BG) (AU) (AU) (AG) (AG) (BU) (AG) (BG) (BU)
                 (AU) (AG) (BG) (AU) (BU) (BG) (AU) (AG) (BG) (BU)
                 (AU) (BU) (BU) (AG) (AG) (BU) (BG) (AG) (AG) (BU)
                 (BG) (AU) (BG) (BU) (AU) (BG) (AU) (AG) (BG) (BU)
                 (BU) (AG) (AG) (BU) (BG) (AU) (BG) (AG) (AU) (AG)
                 (BU) (AG) (AG) (BU) (AU) (BU) (AG) (BG) (AU) (BU)
                 (AU) (AG) (BU) (BG) (BG) (BU) (AU) (AG) (AG) (BU)
                 (BU) (AG) (AG) (AU) (BU) (BG) (AU) (BU) (BG) (AG)
                 (AG) (AU) (BU) (BG) (AU) (AG) (BG) (BU) (AG) (AG)
                 (BG) (AU) (AU) (BU) (BG) (BG) (AU) (AG) (BG) (BU)
                 (BG) (AG) (AU) (BU) (AU) (BG) (AG) (BU) (AU) (AG)
                 (BG) (AG) (BU) (AU) (BU) (AG) (AU) (BG) (BU) (AG)
                 (AG) (BU) (BU) (AG) (BU) (BU) (BG) (AG) (AU) (BG)
                 (BG) (BU) (AU) (BG) (AG) (AU) (BG) (AU) (AG) (BU)
                 (AG)
       Virtual   (AG) (BG) (BU) (AU) (BG) (AG) (AU) (BU) (BU) (BG)
                 (AG) (AU) (AG) (AG) (BU) (BU) (BG) (BU) (AU) (BG)
                 (AG) (AU) (BG) (AG) (BG) (AU) (BU) (AU) (BG) (AG)
                 (BU) (AG) (AU) (AG) (BU) (AG) (BG) (BU) (AU) (AG)
                 (AU) (BU) (BU) (AG) (BU) (BG) (AG) (BG) (BU) (BU)
                 (AU) (AG) (AU) (BU) (AU) (BU) (AG) (AG) (BG) (AG)
                 (AG) (AG) (BG) (AU) (BU) (BG) (BG) (AG) (BU) (BG)
                 (BU) (AU) (AU) (AU) (BU) (BG) (AG) (BG) (AG) (AU)
                 (BU) (BG) (AU) (AU) (AG) (BG) (BU) (AU) (BU) (AG)
                 (AU) (BG) (AU) (BG) (AG) (AG) (BU) (BG) (AU) (BU)
                 (BG) (BU) (AU) (AG) (BU) (AG) (AU) (BG) (AG) (BU)
                 (BG) (AU) (AG) (BG) (AU) (BG) (BU) (AU) (BG) (AG)
                 (AU) (BG) (BU) (AG) (BU) (AG) (AU) (BG) (BU) (AG)
                 (AU) (AG) (BG) (AU) (BU) (BG) (AU) (AG) (BU) (BG)
                 (BG) (AU) (BU) (AG) (BU) (AU) (BG) (AG) (AU) (BU)
                 (BG) (AG) (BU) (AU) (BG) (AG) (AU) (BG) (AU) (BU)
                 (BG) (BU) (BG) (AG) (AU) (AG) (AU) (BU) (BG) (BU)
                 (AG) (AU) (BU) (AG) (AG) (BU) (BU) (AG) (AU) (AG)
                 (BG) (BG) (BU) (AG) (BU) (AG) (AU) (BU) (AG) (BU)
                 (AG) (AU) (BG) (BU) (AG) (AU) (AG) (BU) (AG) (AU)
                 (BG) (AG) (BU) (BU) (AU) (BG) (AU) (AG) (BG) (BU)
                 (BU) (BG) (AG) (BG) (AU) (AG) (BU) (AG) (AU) (BU)
                 (AG) (BG) (AU) (BU) (BG) (AU) (BG) (AG) (AU) (AG)
                 (BU) (BU) (AU) (BG) (AG) (AU) (BG) (BU) (AG) (AU)
                 (BG) (BU) (BG) (AG) (BU) (BU) (AG) (BG) (AU) (BU)
                 (AU) (BG) (AG) (AG) (AU) (BU) (BG) (AG) (AU) (BG)
                 (BG) (BU) (AG) (AU) (BG) (BU) (AG) (BU) (BG) (AU)
                 (BU) (AU) (AU) (AG) (AG) (BU) (BG) (AG) (BG) (BU)
                 (AU) (BU) (BG) (AU) (AG) (BU) (AU) (AG) (BG) (AU)
                 (BG) (BU) (BG) (BU) (AG) (AU) (BU) (BG) (AU) (AG)
                 (AG) (BG) (BU) (AU) (AU) (AG) (BG) (BU) (BU) (AU)
                 (AG) (BG) (AG) (BG) (AU) (AU) (BU) (BG) (AG) (BU)
                 (BG) (BU) (AG) (AU) (AU) (BG) (AG) (BU) (BG) (AU)
                 (AG) (BG) (BU) (AG) (AU) (BG) (BU) (AU) (BU) (AG)
                 (BG) (BU) (AU) (BG) (BG) (AU) (AG) (BG) (AU) (BU)
                 (AG) (BU) (AU) (BG) (AU) (BU) (AG) (BG) (AG) (AU)
                 (BU) (AG) (BG) (BG) (AU) (BU) (AU) (AG) (BU) (AU)
                 (AG) (BG) (BU) (AG) (BG) (BG) (BU) (AG) (BU) (AU)
                 (BU) (BG) (AU) (BG) (AG) (AU) (BG) (AG) (BU) (AU)
                 (AU) (BG) (BU) (AG) (BU) (AU) (AG) (BU) (AU) (AG)
                 (BG) (AG) (BG) (BU) (BU) (BG) (AG) (BU) (AG) (AU)
                 (AU) (AG) (BG) (BU) (AG) (BG) (AU) (BG) (AU) (BU)
                 (AU) (AG) (BG) (AG) (BU) (AG) (BG) (AU) (BU) (BU)
                 (AG) (AU) (BG) (AU) (AG) (BU) (AU) (BG) (AG) (BU)
                 (BG) (BU) (AU) (BG) (AG) (BU) (AG) (BU) (AU) (AG)
                 (BG) (AU) (AG) (AU) (BG) (BU) (BU) (AU) (BG) (AG)
                 (AU) (AG) (BG) (BU) (BU) (AG) (BG) (AU) (BG) (AG)
                 (BU) (AU) (AU) (BG) (BU) (AU) (BG) (AG) (BG) (AU)
                 (BU) (AG) (BG) (AU) (BG) (BU) (BG) (AG) (AU) (BU)
                 (BU) (AG) (BG) (AU) (BG) (BU) (AG) (AG) (AU) (BU)
                 (BG) (AU) (AU) (BG) (BG) (AG) (AU) (AG) (BG) (BU)
                 (BU) (AG) (BU) (AU) (BG) (BU) (AU) (AG) (AU) (BU)
                 (BG) (BG) (AG) (AU) (BG) (AU) (AG) (BU) (AU) (AG)
                 (BU) (AG) (BG) (BU) (AG) (AG) (AU) (BU) (BG) (AU)
                 (AG) (BG) (AU) (BU) (BG) (AU) (AG) (BU) (BU) (AG)
                 (BU) (BG) (AU) (BG) (AG) (BU) (AG) (BG) (AU) (AG)
                 (BU) (AU) (BG) (AU) (BG) (BU) (AU) (AG) (BG) (AG)
                 (BU) (AU) (AU) (BG) (AG) (BU) (AU) (AG) (BG) (BU)
                 (AU) (AG) (BG) (AU) (BG) (BU) (BG) (BU) (AG) (BG)
                 (AU) (BU) (AG) (AU) (BG) (BU) (AU) (BG) (AG) (BU)
                 (BG) (AG) (AU) (BG) (BU) (BG) (BG) (BU) (AU) (AG)
                 (AG) (AU) (BU) (BU) (AG) (AG) (AU) (BU) (AG) (BG)
                 (AU) (AG) (BU) (BU) (AU) (BG) (AG) (AU) (BU) (AG)
                 (BG) (BU) (AU) (AU) (BG) (AU) (AG) (BG) (BU) (BG)
                 (AG) (BU) (BG) (BU) (AU) (AG) (AG) (BU) (BG) (BG)
                 (AU) (BU) (AG) (BU) (AU) (AG) (AU) (AU) (BU) (BG)
                 (BU) (BG) (AG) (BG) (BU) (AG) (AG) (BU) (AU) (AG)
                 (BG) (BG) (BU) (AG) (AU) (AU) (BG) (BU) (BG) (AG)
                 (AU) (BG) (AG) (BU) (AU) (BU) (BG) (AG) (AG) (BU)
                 (AU) (BG) (BU) (AG) (AU) (BG) (BU) (AU) (BU) (AG)
                 (BG) (BU) (AG) (AU) (BU) (AG) (AG) (AU) (BU) (BG)
                 (AG) (BU) (BG) (AG) (BU) (BG) (BU) (AG) (AU) (AG)
                 (BU) (BU) (AG) (AU) (BG) (AG) (AG) (BU) (BU) (AG)
                 (AU) (BU) (BG) (AU) (BG) (AU) (AG) (BU) (BG) (AG)
                 (AG) (BG) (BU) (BU) (AU) (BG) (AG) (BG) (BU) (AU)
                 (BU) (AU) (BG) (AG) (AU) (BU) (AG) (BU) (BG) (AG)
                 (AU) (AG) (BU) (BG) (AG) (BU) (AU) (BG) (BU) (AG)
                 (BG) (AU) (AG) (BU) (AU) (BG) (AG) (AU) (AU) (AG)
                 (BG) (AU) (BU) (BG) (AG) (BG) (AU) (BU) (AU) (AG)
                 (BG) (BU) (AU) (AG) (AG) (BG) (BU) (AU) (AG) (BU)
                 (AG) (BG) (BU) (BG) (BU) (AU) (BG) (AG) (AG) (BU)
                 (AU) (BG) (AU) (AG) (BU) (AG) (AU) (BG) (AU) (BG)
                 (AU) (BU) (BG) (AG) (BG) (AU) (BG) (BU) (AU) (BG)
                 (AG) (BU) (BU) (BG) (BU) (AU) (BG) (AG) (BU) (AU)
                 (BG) (BU) (AG) (AG) (AU) (BU) (AG) (AU) (BG) (BU)
                 (AU) (BG) (BU) (AG) (BU) (BG) (AU) (BU) (BG) (AG)
                 (AU) (BU) (BG) (AU) (AU) (AG) (BU) (BG) (AG) (AG)
                 (AU) (BG) (BU) (BG) (AG) (AU) (AU) (BG) (BU) (AG)
                 (BG) (AU) (BU) (AG) (AU) (AG) (AG) (BU) (AG) (AU)
                 (AG) (AU) (BU) (AG) (BU) (BG) (BU) (AG) (BU) (AG)
                 (BU) (AG) (BG) (BU) (AU) (AG) (BG) (BU) (BU) (AG)
                 (BG) (AU) (AU) (BG) (AG) (BU) (AU) (BG) (AG) (BG)
                 (AU) (BG) (BG) (AG) (BU) (AU) (AU) (AG) (AU) (BU)
                 (AG) (BG) (AG) (AU) (BG) (BU) (BU) (BG) (AU) (AG)
                 (AU) (BU) (BU) (AG) (AG) (BG) (BU) (AG) (AU) (BG)
                 (AU) (BU) (AG) (BG) (AU) (BU) (AU) (BU) (AG) (BG)
                 (AU) (AG) (BU) (BG) (AU) (AG) (BU) (AG) (BG) (AU)
                 (AG) (BG) (AG) (BU) (AU) (BU) (BG) (AG) (BG) (AU)
                 (BU) (BU) (BG) (AG) (BU) (AU) (BG) (BU) (AG) (BG)
                 (AG) (AU) (AU) (BU) (AG) (BG) (BU) (AG) (AU) (AG)
                 (BG) (AG) (BU) (AU) (AU) (BG) (BU) (BG) (AU) (AG)
                 (AU) (BG) (BU) (AG) (AU) (BU) (AG) (BU) (BG) (AG)
                 (AU) (BU) (BG) (AU) (AG) (BG) (BG) (BU) (AU) (AU)
                 (BU) (BG) (AG) (AU) (BG) (AG) (BG) (AU) (BU) (BU)
                 (AG) (AU) (BU) (BG) (BU) (AG) (AG) (AG) (BU) (AG)
                 (AU) (BG) (AU) (AG) (BG) (BU) (BG) (AG) (BU) (AU)
                 (BU) (AG) (AG) (AU) (BU) (BG) (BU) (BG) (AG) (AU)
                 (BU) (AG) (AU) (BU) (AG) (BU) (AU) (BU) (BG) (AU)
                 (AG) (BG) (AG) (BG) (BU) (AU) (AG) (BG) (AU) (BG)
                 (AG) (BU) (BG) (BU) (AG) (BU) (AU) (AG) (AG) (AU)
                 (BG) (BU) (AU) (BU) (AG) (BG) (AG) (BG) (BU) (AG)
                 (AU) (BU) (BG) (BU) (AU) (BG) (AG) (AU) (BU) (BG)
                 (AG) (AU) (BG) (AU) (BU) (BG) (BU) (AG) (BG) (BU)
                 (AU) (AG) (AG) (BG) (AU) (BG) (BU) (AU) (AG) (BU)
                 (AU) (BG) (BU) (AG) (AU) (BG) (AU) (BU) (BG) (BU)
                 (BG) (AG) (AU) (BG) (AU) (AG) (BG) (BU) (AU) (BU)
                 (BG) (AG) (BU) (AU) (AG) (AU) (BU) (AG) (BG) (AG)
                 (AU) (BG) (BU) (BG) (AU) (BG) (AG) (AU) (BU) (AU)
                 (BG) (AU) (AG) (AU) (BU) (BG) (AU) (BG) (BU) (AG)
                 (BU) (AG) (BG) (AG) (AU) (AG) (BU) (BG) (AU) (BU)
                 (BG) (AU) (AG) (BG) (BU) (BG) (AG) (BU) (AU) (AU)
                 (BG) (BG) (AU) (AG) (BU) (AU) (BU) (AG) (AG) (BG)
                 (AU) (BG) (AG) (BU) (AU) (BU) (BG) (AU) (AG) (AU)
                 (BG) (AG) (BG) (BU) (AU) (BU) (AG) (AG) (BU) (BU)
                 (BG) (BU) (AU) (BG) (AG) (AG) (BU) (AU) (AG) (BG)
                 (BU) (BG) (AU) (AG) (BG) (AU) (BG) (BU) (AG) (BU)
                 (BU) (AU) (BG) (AG) (BG) (BU) (AG) (AU) (AG) (BU)
                 (BG) (AG) (BU) (AG) (AU) (BG) (AU) (AU) (BU) (BG)
                 (AG) (AU) (BU) (BG) (AG) (BU) (AU) (AG) (AG) (AU)
                 (BG) (BU) (BG) (AG) (AU) (BG) (BU) (AU) (BG) (AU)
                 (AU) (BU) (BG) (BU) (AG) (AG) (BG) (AU) (BG) (AG)
                 (AU) (AG) (BG) (BU) (BU) (AG) (AU) (BG) (AU) (AU)
                 (BG) (AG) (BG) (AU) (AG) (BU) (AG) (BU) (AU) (BU)
                 (AG) (AU) (BU) (AG) (BG) (BG) (AU) (AU) (BU) (AG)
                 (AU) (BG) (BG) (AG) (AU) (BU) (BG) (AU) (BU) (AG)
                 (BG) (AU) (AU) (BG) (BG) (AG) (AU) (BG) (BU) (BU)
                 (AU) (BG) (AG) (BU) (AG) (BU) (AU) (AG) (AU) (BU)
                 (BG) (BG) (AG) (AU) (BU) (AG) (BG) (BG) (AU) (AG)
                 (BU) (BU) (BG) (AU) (AG) (BU) (BG) (AG) (AU) (AU)
                 (BG) (AG) (AU) (AG) (BU) (AG) (BU) (AU) (BU) (AG)
                 (BG) (BU) (AG) (AG) (BU) (AG) (BU) (AU) (BG) (AU)
                 (BG) (AG) (AU) (BG) (BU) (BU) (AU) (BG) (AG) (AU)
                 (AU) (BU) (BG) (AG) (BG) (AU) (BU) (AU) (BG) (AU)
                 (BU) (AG) (BG) (BG) (AG) (AU) (AG) (BU) (BG) (AU)
                 (AG) (BU) (BG) (AU) (AG) (BG) (BU) (AG) (BU) (BG)
                 (AU) (AG) (BU) (BG) (AU) (BU) (BG) (AU) (AG) (BG)
                 (AU) (BG) (BU) (AU) (AG) (AU) (BG) (BU) (AG) (BG)
                 (BU) (AU) (AG) (BG) (AU) (BU) (BG) (AU) (BG) (BU)
                 (AG) (BU) (AG) (BG) (AU) (AG) (BU) (AU) (AG) (BU)
                 (AG) (AU) (BG) (BG) (BU) (AG) (BG) (AU) (BU) (BU)
                 (AG) (AU) (AG) (BG) (AU) (BU) (AG) (AU) (BU) (BG)
                 (AU) (BG) (BG) (AU) (BG) (BU) (BG) (AU) (AG) (AU)
                 (BU) (AG) (BU) (AG) (BG) (AU) (BU) (AG) (BG) (AG)
                 (BG) (AU) (BG) (BU) (AU) (AG) (BG) (BU) (AU) (BG)
                 (AU) (BG) (BU) (AG) (AU) (BG) (BU) (AU) (AU) (BG)
                 (BG) (AU) (BG) (AU) (BU) (BU) (BU) (AG) (AG) (BU)
                 (BU) (AU) (AG) (BG) (BU) (AU) (BU) (AG) (AU) (BG)
                 (BU) (AU)
 The electronic state of the initial guess is 1-AG.
 Requested convergence on RMS density matrix=1.00D-08 within 128 cycles.
 Requested convergence on MAX density matrix=1.00D-06.
 Requested convergence on             energy=1.00D-06.
 No special actions if energy rises.
 SCF Done:  E(RLC-B+HF-LYP) =  -10321.8013960     A.U. after   19 cycles
            NFock= 19  Conv=0.16D-08     -V/T= 2.0056
 Hyperfine terms turned off by default for NAtoms > 100.

 **********************************************************************

            Population analysis using the SCF density.

 **********************************************************************

 Orbital symmetries:
       Occupied  (AG) (AG) (BU) (AG) (BU) (AG) (AG) (BU) (BU) (AG)
                 (BU) (BG) (AU) (BU) (AU) (AG) (BU) (BU) (AG) (BG)
                 (AU) (AG) (BU) (AG) (BU) (AU) (AG) (AG) (BU) (BG)
                 (AU) (BU) (AG) (AU) (BG) (AG) (BG) (AU) (BU) (BG)
                 (AU) (BU) (AG) (AU) (BG) (AG) (BU) (BG) (AU) (AG)
                 (BU) (AU) (BG) (AG) (BU) (AU) (BG) (AG) (BU) (BG)
                 (BU) (AG) (AU) (AU) (BG) (BU) (AG) (BU) (AG) (BG)
                 (AU) (BG) (AU) (BU) (AG) (BU) (AG) (BG) (AU) (BG)
                 (AU) (AU) (AG) (BG) (BU) (BU) (AG) (AU) (BG) (AG)
                 (BU) (AU) (AG) (BG) (BU) (BG) (BU) (AG) (BU) (AU)
                 (AG) (AU) (BG) (AU) (BG) (BU) (AG) (BG) (AU) (BU)
                 (AG) (AU) (AG) (BG) (BU) (AU) (AG) (BG) (BU) (BU)
                 (AG) (AG) (BU) (BG) (AU) (BG) (AU) (BU) (AG) (BG)
                 (AU) (AU) (AG) (BG) (BU) (AG) (BU) (AG) (BU) (AG)
                 (BU) (BU) (AG) (AU) (BG) (BU) (AU) (AG) (BU) (AG)
                 (BU) (AU) (AG) (BG) (BU) (AU) (AG) (BU) (AG) (BG)
                 (AU) (BG) (BU) (AG) (AU) (BG) (BU) (AU) (AG) (BU)
                 (AG) (BU) (AG) (AU) (AG) (BG) (BU) (AG) (BU) (BU)
                 (AG) (AU) (AG) (BG) (AU) (BG) (AG) (BU) (AG) (AU)
                 (BU) (BG) (AG) (BU) (AU) (AU) (BU) (BG) (AG) (BU)
                 (AU) (AG) (BU) (BG) (AG) (AU) (BG) (BG) (AU) (BG)
                 (BU) (AU) (BG) (AG) (AU) (BU) (AG) (BU) (AG) (BU)
                 (AG) (AG) (BU) (AU) (AG) (BG) (BU) (AU) (BG) (AU)
                 (AG) (BU) (BG) (AG) (AU) (BG) (BG) (AU) (BU) (AG)
                 (BG) (AU) (BU) (BG) (AU) (BG) (AG) (BU) (AG) (BU)
                 (AU) (BG) (AG) (BU) (AU) (BU) (AG) (BG) (AG) (AU)
                 (BU) (AG) (AU) (BU) (BU) (BG) (AU) (BG) (BG) (AU)
                 (AG) (BG) (BU) (AG) (AG) (BU) (AG) (AG) (BG) (AG)
                 (BU) (AU) (AU) (BU) (BG) (AG) (AU) (BU) (AG) (BG)
                 (BU) (AG) (AU) (BG) (BU) (AU) (BU) (AG) (BU) (BG)
                 (AG) (AU) (BG) (BG) (AG) (BU) (AG) (AG) (BU) (AU)
                 (BG) (AU) (BG) (BU) (AG) (BU) (AG) (AG) (BG) (AU)
                 (BG) (AG) (BU) (AU) (BU) (AU) (BG) (BG) (AG) (BG)
                 (AU) (BG) (BU) (AG) (BG) (AU) (BU) (AU) (BU) (AG)
                 (BU) (AG) (AG) (BU) (AU) (AG) (BG) (BG) (BU) (AU)
                 (AG) (AU) (BU) (AG) (AG) (BG) (AU) (BG) (BU) (BU)
                 (AG) (BG) (AU) (BU) (AU) (BU) (BG) (AG) (BG) (AU)
                 (BU) (AG) (BG) (AU) (BG) (BU) (AU) (BU) (AG) (AG)
                 (BU) (AG) (BU) (AU) (BG) (BU) (AG) (AU) (BU) (AG)
                 (BG) (AG) (AU) (BU) (AG) (BG) (BU) (AG) (AG) (AU)
                 (BU) (BG) (AU) (AG) (BU) (AU) (BG) (AU) (AU) (BG)
                 (BU) (BG) (BG) (BU) (AG) (AG) (AU) (BG) (AG) (AU)
                 (BU) (BG) (AU) (AG) (BU) (BU) (AU) (AG) (BG) (AG)
                 (BU) (AG) (BU) (AG) (BG) (AG) (BU) (BU) (AU) (BG)
                 (AU)
       Virtual   (AG) (BG) (AU) (BU) (BG) (AG) (AU) (BG) (AU) (BU)
                 (BU) (AG) (AG) (BU) (AG) (BU) (BG) (AU) (BU) (BG)
                 (AG) (AU) (AG) (BG) (BU) (AG) (BG) (AU) (BU) (AU)
                 (AG) (BG) (AG) (AG) (AU) (BU) (BU) (AG) (BU) (AG)
                 (BU) (AU) (BU) (BG) (AG) (BG) (BU) (BG) (AU) (AU)
                 (BU) (AG) (AU) (BU) (AG) (BU) (AU) (BG) (AG) (AG)
                 (AG) (BG) (BU) (AU) (BG) (BU) (AU) (BG) (AG) (BU)
                 (AU) (BG) (AG) (BG) (AU) (BU) (AG) (AU) (BG) (AG)
                 (BU) (BG) (AU) (AG) (BU) (BG) (AU) (AG) (BU) (AG)
                 (BU) (AG) (AU) (BG) (BU) (BU) (AU) (AG) (BG) (BG)
                 (AG) (BG) (AU) (BU) (AU) (BU) (AU) (BG) (AG) (BG)
                 (AU) (AU) (BG) (BU) (AU) (AG) (BG) (AG) (AU) (BG)
                 (BU) (AU) (BG) (AG) (BU) (AG) (AU) (BG) (AG) (AU)
                 (BU) (AU) (BG) (AG) (AG) (BU) (BU) (BG) (AG) (AU)
                 (BG) (BU) (BU) (BG) (AU) (AG) (BG) (AU) (BG) (BU)
                 (AU) (BU) (AG) (AU) (AG) (BG) (BU) (AU) (BU) (BG)
                 (AG) (AU) (BG) (BU) (AU) (AG) (BG) (BU) (BG) (AG)
                 (BU) (AU) (AG) (AU) (AU) (BU) (AG) (BG) (BU) (AG)
                 (AU) (BU) (BG) (AG) (BU) (AG) (BU) (AG) (BG) (AG)
                 (AU) (BU) (BU) (AU) (AG) (AG) (BG) (AG) (AG) (BU)
                 (AU) (BU) (AG) (AU) (BG) (AG) (AU) (BU) (BU) (BG)
                 (BG) (BU) (AG) (BG) (BU) (AG) (AU) (AU) (AG) (AU)
                 (AG) (BU) (BG) (BU) (AG) (BG) (BU) (AG) (AU) (AU)
                 (BU) (BG) (BG) (AU) (AU) (BU) (AG) (BG) (AU) (AG)
                 (BG) (BU) (AG) (BG) (AG) (AU) (BU) (BU) (AU) (BU)
                 (BG) (BG) (AG) (AG) (AU) (BG) (AG) (BU) (BU) (AG)
                 (BU) (AU) (BG) (AG) (BU) (BG) (BG) (BU) (AU) (AU)
                 (AG) (AU) (BG) (AG) (BU) (AU) (AG) (BG) (BU) (BG)
                 (AU) (AG) (BU) (BG) (AG) (AU) (BU) (BG) (AG) (AU)
                 (BU) (BG) (BU) (AU) (AG) (BG) (BU) (AU) (AU) (BG)
                 (AG) (AG) (BU) (AU) (BG) (AU) (BU) (BG) (BU) (AG)
                 (AG) (AU) (BU) (BG) (AU) (BU) (BG) (AG) (AG) (BG)
                 (BU) (AU) (AG) (AU) (BG) (BU) (AG) (BG) (AU) (BU)
                 (BG) (BG) (AU) (AG) (BU) (AU) (BG) (AU) (BU) (BG)
                 (AG) (BU) (AG) (AU) (BG) (AG) (BU) (AU) (BG) (AU)
                 (BU) (AU) (BG) (BU) (AU) (BU) (BG) (AG) (AG) (AG)
                 (BG) (AU) (BG) (AU) (BU) (BG) (AG) (AU) (BU) (AG)
                 (BU) (AG) (BG) (AU) (BG) (BU) (BG) (BU) (AG) (BU)
                 (AU) (AG) (AU) (BG) (BG) (AG) (AU) (AU) (BU) (BU)
                 (BG) (AU) (AG) (BU) (AG) (AG) (BG) (BU) (BG) (AU)
                 (AG) (BU) (AU) (AG) (BG) (BG) (AG) (AU) (BU) (BU)
                 (AU) (AG) (BG) (BU) (AG) (BG) (BU) (AU) (AG) (AU)
                 (BG) (AU) (BU) (BG) (BU) (AU) (BG) (AG) (AG) (BU)
                 (AU) (BG) (BU) (AG) (AU) (AG) (BG) (AG) (AU) (BU)
                 (BU) (AU) (BG) (BU) (AG) (AG) (BG) (AU) (BU) (AG)
                 (BG) (AU) (BG) (BU) (AG) (AU) (BG) (AG) (BU) (BG)
                 (AU) (AU) (BG) (AG) (AU) (BU) (AU) (BG) (AG) (BU)
                 (BU) (BG) (AG) (BU) (AU) (AG) (BG) (AU) (BG) (AU)
                 (AG) (BU) (AG) (BG) (BU) (AU) (BU) (AG) (AG) (BG)
                 (AU) (BU) (AG) (AU) (BU) (BG) (BU) (AU) (BG) (AG)
                 (BG) (BU) (AU) (AG) (BG) (AU) (BG) (AU) (BU) (BG)
                 (AG) (AU) (BU) (AG) (BG) (BU) (BG) (AU) (BU) (BG)
                 (AU) (BG) (AG) (AU) (AG) (AU) (AG) (BG) (BG) (BU)
                 (AU) (AG) (BU) (AG) (BU) (AU) (BG) (AU) (AG) (BU)
                 (BU) (AG) (AU) (BG) (AU) (AG) (BG) (BU) (AG) (BU)
                 (BG) (BU) (AU) (AG) (BG) (AG) (BU) (BG) (AU) (AG)
                 (BU) (AU) (BG) (AU) (AU) (BG) (BU) (AG) (BG) (BU)
                 (AG) (AU) (BG) (AU) (AG) (BU) (AU) (BG) (BG) (AG)
                 (BG) (AU) (BU) (AG) (AU) (BU) (BG) (BU) (AG) (AU)
                 (BU) (BG) (AG) (AU) (BU) (BG) (BG) (AU) (AG) (BU)
                 (AG) (BG) (AU) (BG) (BU) (BG) (BG) (BU) (AU) (AG)
                 (AG) (AU) (BU) (BU) (AU) (AG) (AG) (AG) (AU) (BU)
                 (BG) (AG) (BU) (AU) (BU) (BG) (AG) (AU) (BU) (AG)
                 (BG) (BU) (AU) (BG) (AU) (BU) (AU) (AG) (BG) (AG)
                 (BG) (AU) (BU) (BG) (BU) (AG) (AG) (BU) (BG) (BG)
                 (BU) (AU) (AG) (BU) (AU) (AG) (AU) (BU) (BG) (AU)
                 (BG) (BU) (AG) (BU) (AG) (BG) (BU) (AU) (AG) (AG)
                 (BG) (BG) (BU) (AG) (AU) (BG) (AU) (AU) (BG) (BG)
                 (BU) (AG) (AU) (BU) (BG) (AG) (BU) (AG) (AG) (AU)
                 (BG) (AU) (BU) (AU) (BU) (AG) (BG) (AG) (BU) (BG)
                 (BU) (BU) (AU) (AG) (AG) (BU) (BG) (AU) (AG) (BG)
                 (BU) (AG) (AG) (BU) (BU) (AU) (AG) (BG) (AG) (BU)
                 (AG) (AU) (AG) (BU) (AU) (AG) (BU) (BU) (AG) (BG)
                 (BU) (BG) (AG) (AU) (BU) (BG) (AG) (BU) (AU) (BU)
                 (BG) (BG) (BU) (AG) (AG) (BG) (AU) (BG) (AU) (BU)
                 (AG) (BU) (BU) (AU) (BU) (AG) (BG) (AU) (BG) (AU)
                 (BU) (AG) (AG) (AU) (BG) (AG) (BG) (BU) (AG) (BG)
                 (BU) (AG) (AU) (BU) (AG) (BG) (AU) (AG) (AU) (AG)
                 (BG) (BU) (AU) (AU) (BG) (BG) (BU) (AU) (BG) (AG)
                 (AU) (AU) (AG) (BU) (BG) (AG) (BU) (BG) (AU) (AG)
                 (AG) (BG) (BU) (BU) (AU) (BU) (AG) (BG) (AG) (BU)
                 (AU) (BG) (AU) (AU) (AG) (BG) (AG) (BU) (AU) (AU)
                 (BG) (BU) (BG) (AG) (BG) (AU) (BU) (BG) (AU) (BG)
                 (AG) (BU) (BG) (BU) (AU) (BU) (BG) (AG) (BU) (AU)
                 (BG) (AG) (BU) (AU) (AG) (BU) (AG) (AU) (BG) (BU)
                 (BG) (AU) (BU) (AG) (BU) (BG) (AU) (BU) (AG) (BG)
                 (BU) (BG) (AU) (AU) (AG) (AG) (AU) (BG) (BU) (AG)
                 (BG) (AU) (BG) (AU) (BU) (AG) (AU) (BG) (BG) (AU)
                 (BU) (AG) (AU) (AG) (BU) (AG) (AG) (AU) (BU) (BU)
                 (AG) (BU) (AG) (AG) (AU) (BU) (AG) (AU) (BG) (BG)
                 (BU) (AG) (BG) (BU) (BG) (AG) (BU) (AG) (AU) (BU)
                 (AG) (AU) (BU) (BG) (BU) (BG) (AU) (AG) (AG) (BG)
                 (AU) (AG) (AG) (AU) (BG) (AU) (AU) (BG) (BG) (BU)
                 (AG) (AU) (BG) (BU) (AG) (BU) (AG) (AU) (BG) (BU)
                 (BU) (BG) (AU) (AG) (BU) (AG) (BG) (AU) (BU) (AU)
                 (AG) (BG) (BU) (BG) (AG) (AU) (AU) (BU) (BG) (AG)
                 (AU) (BU) (BU) (BG) (AG) (AG) (AU) (BU) (BG) (AU)
                 (AG) (BG) (AG) (BU) (AU) (AG) (BG) (BU) (AG) (AU)
                 (BU) (BG) (BU) (AG) (BG) (AU) (BU) (AG) (BG) (BU)
                 (AU) (AU) (BU) (AG) (BG) (AG) (BU) (AG) (AU) (BG)
                 (AG) (AU) (AG) (BU) (AU) (BG) (BU) (AU) (BG) (BG)
                 (AU) (AG) (BG) (AU) (BG) (BU) (AG) (AU) (BU) (BU)
                 (AG) (BG) (AG) (BU) (AG) (AU) (BG) (BU) (AU) (BG)
                 (AG) (AU) (BU) (BG) (AU) (AG) (BG) (AU) (BU) (BU)
                 (AG) (AG) (AU) (BU) (BG) (BU) (AG) (AU) (BU) (AG)
                 (BG) (AG) (BG) (BU) (AU) (BG) (AG) (BU) (AG) (AU)
                 (BU) (AG) (BG) (AG) (BU) (AU) (BU) (BG) (AU) (AG)
                 (BU) (AG) (BU) (AU) (AG) (BU) (AU) (BG) (AG) (BG)
                 (BU) (AU) (BG) (BU) (AG) (AG) (AU) (BG) (AU) (BG)
                 (BG) (BU) (AG) (BU) (AG) (BU) (AG) (AU) (AG) (AU)
                 (BU) (BG) (AG) (BU) (AU) (BG) (AG) (BG) (BU) (AG)
                 (AU) (BU) (BG) (AU) (BU) (BG) (AG) (AG) (BU) (AU)
                 (BG) (AU) (BG) (AU) (BU) (BG) (BG) (AU) (BU) (AG)
                 (AU) (BG) (AG) (BU) (BG) (AG) (AU) (BU) (AU) (BG)
                 (BU) (AU) (AG) (BU) (AG) (BG) (AU) (BG) (AU) (BU)
                 (BU) (BG) (BG) (AG) (AG) (AU) (BU) (BG) (BG) (BU)
                 (AU) (AG) (BU) (AU) (AG) (AU) (BU) (AG) (BG) (BG)
                 (BU) (AU) (AG) (BG) (AU) (BG) (AU) (BG) (AG) (AU)
                 (BU) (AU) (BU) (BG) (AU) (AG) (BG) (AU) (BU) (AG)
                 (BU) (AU) (BG) (BG) (AG) (BU) (AG) (AU) (BG) (AG)
                 (BG) (BU) (AG) (AU) (BU) (AG) (AU) (BG) (BU) (AU)
                 (BG) (AG) (BU) (AU) (BG) (AG) (AU) (AG) (BU) (AG)
                 (AU) (AG) (BG) (BG) (BU) (BU) (AU) (BG) (AG) (AU)
                 (BU) (AU) (AG) (BG) (BU) (BG) (AU) (BU) (AG) (BG)
                 (BU) (AG) (BU) (AG) (AU) (BG) (BU) (AG) (AU) (BG)
                 (BU) (AG) (AU) (BG) (BG) (AU) (BU) (AG) (BU) (BG)
                 (BU) (AU) (AG) (BG) (AG) (BU) (BG) (BU) (AU) (AG)
                 (BG) (AG) (BU) (AG) (BU) (AG) (AU) (BU) (BG) (AU)
                 (AU) (AG) (BG) (BU) (AU) (BG) (AG) (AU) (AG) (AU)
                 (BG) (BU) (BG) (AG) (AU) (BU) (BG) (AU) (BG) (AU)
                 (AU) (BG) (BU) (BU) (AG) (AU) (AG) (BG) (BG) (AG)
                 (BG) (AU) (AG) (AU) (BG) (BU) (AU) (BU) (AG) (BG)
                 (AU) (BG) (AG) (BU) (AG) (AU) (AU) (BU) (AG) (BU)
                 (AG) (AU) (AG) (BU) (BG) (BU) (AG) (AU) (BG) (AG)
                 (BG) (AU) (AU) (BU) (BG) (BU) (AG) (AU) (AG) (AU)
                 (BG) (BG) (BU) (AU) (AU) (BG) (AU) (BG) (BG) (BU)
                 (BG) (AU) (AG) (BU) (BG) (AG) (AU) (BU) (BU) (AU)
                 (BG) (AG) (AG) (AU) (BG) (AG) (BG) (BU) (AU) (BG)
                 (AU) (AG) (BU) (BU) (AU) (BG) (AG) (BU) (AG) (AU)
                 (AG) (BG) (AU) (AG) (BU) (AG) (BU) (AU) (BU) (AG)
                 (BG) (BU) (AG) (AG) (AU) (BU) (BU) (AG) (AU) (BG)
                 (BG) (AG) (BU) (AU) (BG) (BU) (AG) (AU) (BG) (AG)
                 (AU) (AU) (BU) (BG) (BU) (AU) (AU) (BG) (BG) (AU)
                 (BU) (AG) (BU) (AU) (BG) (AG) (BG) (AG) (AG) (BU)
                 (AG) (BU) (BG) (AU) (BU) (BG) (AG) (AU) (BG) (AG)
                 (AU) (BG) (BU) (AU) (BG) (BU) (AG) (BG) (BU) (AG)
                 (AU) (BG) (AU) (AG) (BG) (AU) (AU) (BG) (BU) (BG)
                 (AU) (BU) (BG) (AG) (AU) (BU) (BG) (AU) (BG) (BU)
                 (AG) (AG) (BU) (AG) (BG) (AU) (BU) (AU) (BU) (AG)
                 (AU) (BG) (AG) (BG) (BU) (AG) (BG) (AU) (BU) (AU)
                 (BU) (AG) (AG) (BG) (AU) (BU) (AG) (BG) (AU) (BU)
                 (AU) (BG) (AU) (BG) (BG) (BU) (BG) (AU) (AG) (AU)
                 (BU) (AG) (BU) (AG) (BU) (AG) (AG) (BG) (AU) (BG)
                 (BG) (AU) (BG) (BU) (AU) (AG) (BG) (BU) (AU) (BG)
                 (AU) (BG) (BU) (AG) (AU) (BG) (BU) (AU) (AU) (BG)
                 (BG) (BU) (AG) (BU) (AU) (BG) (AU) (BU) (AG) (BU)
                 (BU) (AG) (AU) (BG) (BU) (AU) (BU) (AG) (AU) (BG)
                 (BU) (AU)
 The electronic state is 1-AG.
 Alpha  occ. eigenvalues -- -345.98076-345.98034-345.98034 -41.85893 -41.85892
 Alpha  occ. eigenvalues --  -41.85859 -36.95606 -36.95605 -36.95567 -36.94828
 Alpha  occ. eigenvalues --  -36.94827 -36.94827 -36.94827 -36.94800 -36.94800
 Alpha  occ. eigenvalues --  -14.21047 -14.21047 -14.20896 -14.20893 -14.20825
 Alpha  occ. eigenvalues --  -14.20825 -14.20821 -14.20821 -14.20803 -14.20803
 Alpha  occ. eigenvalues --  -14.20692 -14.20689 -14.20008 -14.20008 -14.20007
 Alpha  occ. eigenvalues --  -14.20007 -14.19954 -14.19954 -14.19954 -14.19954
 Alpha  occ. eigenvalues --  -14.19886 -14.19885 -14.19885 -14.19885 -10.17417
 Alpha  occ. eigenvalues --  -10.17417 -10.17407 -10.17407 -10.17382 -10.17382
 Alpha  occ. eigenvalues --  -10.17381 -10.17381 -10.17366 -10.17366 -10.17358
 Alpha  occ. eigenvalues --  -10.17356 -10.17333 -10.17333 -10.17333 -10.17332
 Alpha  occ. eigenvalues --  -10.17298 -10.17297 -10.17289 -10.17288 -10.17243
 Alpha  occ. eigenvalues --  -10.17243 -10.17233 -10.17233 -10.10799 -10.10799
 Alpha  occ. eigenvalues --  -10.10785 -10.10785 -10.10705 -10.10705 -10.10692
 Alpha  occ. eigenvalues --  -10.10692 -10.10568 -10.10568 -10.10568 -10.10568
 Alpha  occ. eigenvalues --  -10.10427 -10.10427 -10.10421 -10.10420 -10.10413
 Alpha  occ. eigenvalues --  -10.10413 -10.10408 -10.10408 -10.10408 -10.10408
 Alpha  occ. eigenvalues --  -10.10406 -10.10406 -10.10387 -10.10387 -10.10387
 Alpha  occ. eigenvalues --  -10.10387 -10.10339 -10.10339 -10.10339 -10.10339
 Alpha  occ. eigenvalues --  -10.10298 -10.10298 -10.10298 -10.10298 -10.10289
 Alpha  occ. eigenvalues --  -10.10289 -10.10287 -10.10287 -10.10283 -10.10283
 Alpha  occ. eigenvalues --  -10.10273 -10.10273 -10.10246 -10.10246 -10.10246
 Alpha  occ. eigenvalues --  -10.10246 -10.10242 -10.10242 -10.10229 -10.10229
 Alpha  occ. eigenvalues --  -10.10227 -10.10226 -10.10226 -10.10226 -10.10175
 Alpha  occ. eigenvalues --  -10.10175 -10.10172 -10.10171 -10.10161 -10.10161
 Alpha  occ. eigenvalues --  -10.10159 -10.10159 -10.10098 -10.10098 -10.10085
 Alpha  occ. eigenvalues --  -10.10085 -10.10068 -10.10068 -10.10055 -10.10055
 Alpha  occ. eigenvalues --   -4.77628  -4.77628  -4.77511  -3.22307  -3.22307
 Alpha  occ. eigenvalues --   -3.22189  -3.21022  -3.21022  -3.21015  -3.21015
 Alpha  occ. eigenvalues --   -3.20904  -3.20893  -1.11686  -1.11505  -1.11207
 Alpha  occ. eigenvalues --   -1.10182  -1.10164  -1.10084  -1.10014  -1.09910
 Alpha  occ. eigenvalues --   -1.09710  -1.07389  -1.07325  -1.07147  -1.04938
 Alpha  occ. eigenvalues --   -1.04906  -1.04756  -1.00890  -1.00867  -1.00851
 Alpha  occ. eigenvalues --   -1.00846  -1.00729  -1.00712  -0.97870  -0.97830
 Alpha  occ. eigenvalues --   -0.97662  -0.96782  -0.96772  -0.96686  -0.96552
 Alpha  occ. eigenvalues --   -0.96537  -0.96526  -0.96449  -0.96407  -0.96310
 Alpha  occ. eigenvalues --   -0.96256  -0.96199  -0.96144  -0.88496  -0.88465
 Alpha  occ. eigenvalues --   -0.88291  -0.87223  -0.87198  -0.87062  -0.87029
 Alpha  occ. eigenvalues --   -0.86926  -0.86907  -0.86855  -0.86694  -0.86668
 Alpha  occ. eigenvalues --   -0.86621  -0.86571  -0.86559  -0.86538  -0.86341
 Alpha  occ. eigenvalues --   -0.86280  -0.86272  -0.86268  -0.86163  -0.86144
 Alpha  occ. eigenvalues --   -0.86131  -0.86001  -0.82774  -0.82750  -0.82595
 Alpha  occ. eigenvalues --   -0.80209  -0.80184  -0.80180  -0.80155  -0.80061
 Alpha  occ. eigenvalues --   -0.79956  -0.74881  -0.74843  -0.74799  -0.74673
 Alpha  occ. eigenvalues --   -0.74585  -0.74470  -0.73887  -0.73843  -0.73824
 Alpha  occ. eigenvalues --   -0.73804  -0.73647  -0.73593  -0.73143  -0.73106
 Alpha  occ. eigenvalues --   -0.72959  -0.72957  -0.72927  -0.72819  -0.70519
 Alpha  occ. eigenvalues --   -0.70486  -0.70451  -0.70440  -0.70431  -0.70415
 Alpha  occ. eigenvalues --   -0.70317  -0.70262  -0.70247  -0.69283  -0.69233
 Alpha  occ. eigenvalues --   -0.69055  -0.66914  -0.66906  -0.66729  -0.65979
 Alpha  occ. eigenvalues --   -0.65976  -0.65974  -0.65973  -0.65827  -0.65821
 Alpha  occ. eigenvalues --   -0.64587  -0.64580  -0.64430  -0.64430  -0.64428
 Alpha  occ. eigenvalues --   -0.64392  -0.64371  -0.64303  -0.64279  -0.61203
 Alpha  occ. eigenvalues --   -0.60990  -0.60990  -0.60872  -0.60631  -0.60588
 Alpha  occ. eigenvalues --   -0.60440  -0.60397  -0.60361  -0.60324  -0.60029
 Alpha  occ. eigenvalues --   -0.60027  -0.59904  -0.59822  -0.59740  -0.59178
 Alpha  occ. eigenvalues --   -0.58790  -0.58647  -0.58594  -0.58574  -0.58569
 Alpha  occ. eigenvalues --   -0.58553  -0.58397  -0.58382  -0.58091  -0.57768
 Alpha  occ. eigenvalues --   -0.57424  -0.57411  -0.57394  -0.57349  -0.57269
 Alpha  occ. eigenvalues --   -0.57146  -0.57125  -0.56447  -0.56356  -0.56289
 Alpha  occ. eigenvalues --   -0.56279  -0.56278  -0.56119  -0.56092  -0.56027
 Alpha  occ. eigenvalues --   -0.55982  -0.55948  -0.55832  -0.55794  -0.55590
 Alpha  occ. eigenvalues --   -0.55440  -0.55440  -0.55310  -0.55247  -0.55113
 Alpha  occ. eigenvalues --   -0.54946  -0.54928  -0.54834  -0.54583  -0.54580
 Alpha  occ. eigenvalues --   -0.54517  -0.54384  -0.54370  -0.54287  -0.54211
 Alpha  occ. eigenvalues --   -0.54194  -0.54135  -0.54047  -0.53894  -0.53432
 Alpha  occ. eigenvalues --   -0.53429  -0.53259  -0.53207  -0.53182  -0.53140
 Alpha  occ. eigenvalues --   -0.53135  -0.53033  -0.53017  -0.52688  -0.51894
 Alpha  occ. eigenvalues --   -0.51894  -0.51763  -0.50919  -0.50759  -0.50749
 Alpha  occ. eigenvalues --   -0.50349  -0.50022  -0.49712  -0.49487  -0.49419
 Alpha  occ. eigenvalues --   -0.48798  -0.48204  -0.48116  -0.48033  -0.47264
 Alpha  occ. eigenvalues --   -0.47121  -0.47116  -0.46873  -0.46808  -0.46779
 Alpha  occ. eigenvalues --   -0.46747  -0.46691  -0.46688  -0.46653  -0.46614
 Alpha  occ. eigenvalues --   -0.46577  -0.46309  -0.45978  -0.45973  -0.45971
 Alpha  occ. eigenvalues --   -0.45888  -0.45873  -0.45859  -0.45825  -0.45787
 Alpha  occ. eigenvalues --   -0.45699  -0.45612  -0.45297  -0.45252  -0.45071
 Alpha  occ. eigenvalues --   -0.44994  -0.44136  -0.44136  -0.44036  -0.44017
 Alpha  occ. eigenvalues --   -0.43932  -0.43846  -0.43842  -0.43836  -0.43760
 Alpha  occ. eigenvalues --   -0.42859  -0.42485  -0.42369  -0.42294  -0.42241
 Alpha  occ. eigenvalues --   -0.42079  -0.40572  -0.40525  -0.40391  -0.38242
 Alpha  occ. eigenvalues --   -0.37867  -0.37847  -0.37836  -0.37822  -0.37701
 Alpha  occ. eigenvalues --   -0.37631  -0.37487  -0.37056  -0.36086  -0.36086
 Alpha  occ. eigenvalues --   -0.36001  -0.35967  -0.35678  -0.35593  -0.35447
 Alpha  occ. eigenvalues --   -0.35428  -0.35277  -0.35190  -0.34917  -0.34885
 Alpha  occ. eigenvalues --   -0.34753  -0.34595  -0.34385  -0.34378  -0.34263
 Alpha  occ. eigenvalues --   -0.34193  -0.34166  -0.34165  -0.34121  -0.34102
 Alpha  occ. eigenvalues --   -0.34069  -0.33958  -0.33816  -0.33175  -0.32976
 Alpha  occ. eigenvalues --   -0.32949  -0.32564  -0.32467  -0.23934  -0.23286
 Alpha  occ. eigenvalues --   -0.22694
 Alpha virt. eigenvalues --   -0.06408  -0.05683  -0.05319  -0.05299  -0.05021
 Alpha virt. eigenvalues --   -0.04089   0.02746   0.03399   0.04085   0.04174
 Alpha virt. eigenvalues --    0.04306   0.04397   0.05116   0.05364   0.05371
 Alpha virt. eigenvalues --    0.05482   0.05624   0.05764   0.05790   0.06025
 Alpha virt. eigenvalues --    0.06083   0.09936   0.10261   0.10319   0.10482
 Alpha virt. eigenvalues --    0.10674   0.10859   0.11157   0.11273   0.11716
 Alpha virt. eigenvalues --    0.11825   0.11871   0.12438   0.13096   0.13152
 Alpha virt. eigenvalues --    0.13358   0.13642   0.13938   0.13989   0.14069
 Alpha virt. eigenvalues --    0.14260   0.14448   0.14469   0.14536   0.14857
 Alpha virt. eigenvalues --    0.14936   0.15230   0.15340   0.15572   0.15730
 Alpha virt. eigenvalues --    0.15847   0.16102   0.16310   0.16367   0.16701
 Alpha virt. eigenvalues --    0.16900   0.16912   0.17266   0.17330   0.17937
 Alpha virt. eigenvalues --    0.18229   0.18561   0.18570   0.18951   0.19160
 Alpha virt. eigenvalues --    0.19252   0.19824   0.20147   0.20355   0.20373
 Alpha virt. eigenvalues --    0.20747   0.20764   0.20805   0.21033   0.21117
 Alpha virt. eigenvalues --    0.21150   0.21227   0.21469   0.21479   0.21749
 Alpha virt. eigenvalues --    0.22004   0.22064   0.22194   0.22453   0.22535
 Alpha virt. eigenvalues --    0.22720   0.22755   0.23699   0.23995   0.24009
 Alpha virt. eigenvalues --    0.24226   0.24466   0.24554   0.24611   0.24705
 Alpha virt. eigenvalues --    0.24983   0.25081   0.25099   0.25185   0.25345
 Alpha virt. eigenvalues --    0.25367   0.25707   0.25715   0.26049   0.27281
 Alpha virt. eigenvalues --    0.27348   0.27498   0.27531   0.27604   0.27676
 Alpha virt. eigenvalues --    0.27928   0.28170   0.28219   0.28309   0.28403
 Alpha virt. eigenvalues --    0.28743   0.28830   0.28949   0.29099   0.29366
 Alpha virt. eigenvalues --    0.30065   0.30109   0.30116   0.30318   0.30475
 Alpha virt. eigenvalues --    0.30864   0.30977   0.31097   0.31300   0.31413
 Alpha virt. eigenvalues --    0.31545   0.32058   0.32105   0.32123   0.32788
 Alpha virt. eigenvalues --    0.32788   0.32938   0.33214   0.33852   0.33878
 Alpha virt. eigenvalues --    0.33921   0.33946   0.34107   0.34120   0.34131
 Alpha virt. eigenvalues --    0.34299   0.34401   0.34522   0.34902   0.34926
 Alpha virt. eigenvalues --    0.35051   0.35238   0.35430   0.35451   0.35533
 Alpha virt. eigenvalues --    0.35553   0.35771   0.35934   0.35960   0.36036
 Alpha virt. eigenvalues --    0.36215   0.36236   0.36326   0.36428   0.36675
 Alpha virt. eigenvalues --    0.36722   0.36836   0.36871   0.36902   0.37149
 Alpha virt. eigenvalues --    0.37272   0.37359   0.37462   0.37551   0.37720
 Alpha virt. eigenvalues --    0.37844   0.37997   0.38047   0.38392   0.38396
 Alpha virt. eigenvalues --    0.38542   0.38583   0.38759   0.38920   0.38922
 Alpha virt. eigenvalues --    0.38991   0.39569   0.39709   0.39828   0.40095
 Alpha virt. eigenvalues --    0.40269   0.40524   0.40773   0.40815   0.40855
 Alpha virt. eigenvalues --    0.41153   0.41166   0.41464   0.41605   0.41660
 Alpha virt. eigenvalues --    0.41871   0.41997   0.42079   0.42167   0.42172
 Alpha virt. eigenvalues --    0.42325   0.42438   0.42562   0.42713   0.43118
 Alpha virt. eigenvalues --    0.43260   0.43338   0.43402   0.43751   0.44113
 Alpha virt. eigenvalues --    0.44126   0.44220   0.44514   0.44750   0.44995
 Alpha virt. eigenvalues --    0.45065   0.45173   0.45282   0.45477   0.45503
 Alpha virt. eigenvalues --    0.45751   0.45802   0.46108   0.46110   0.46347
 Alpha virt. eigenvalues --    0.46494   0.46540   0.46655   0.46764   0.47045
 Alpha virt. eigenvalues --    0.47064   0.47064   0.47212   0.47325   0.47385
 Alpha virt. eigenvalues --    0.47764   0.48132   0.48135   0.48532   0.48569
 Alpha virt. eigenvalues --    0.48629   0.48662   0.48883   0.49035   0.49051
 Alpha virt. eigenvalues --    0.49153   0.49429   0.49559   0.50125   0.50262
 Alpha virt. eigenvalues --    0.50427   0.50691   0.50707   0.51372   0.51464
 Alpha virt. eigenvalues --    0.51587   0.51617   0.51770   0.51845   0.52153
 Alpha virt. eigenvalues --    0.52325   0.52480   0.52841   0.52844   0.52930
 Alpha virt. eigenvalues --    0.53059   0.53120   0.53157   0.53489   0.53604
 Alpha virt. eigenvalues --    0.53686   0.53752   0.53822   0.54171   0.54209
 Alpha virt. eigenvalues --    0.54210   0.54546   0.54631   0.54748   0.54777
 Alpha virt. eigenvalues --    0.54828   0.55029   0.55114   0.55138   0.55355
 Alpha virt. eigenvalues --    0.55602   0.55780   0.55813   0.55838   0.55984
 Alpha virt. eigenvalues --    0.56219   0.56285   0.56510   0.56850   0.56957
 Alpha virt. eigenvalues --    0.57080   0.57384   0.57434   0.57545   0.57599
 Alpha virt. eigenvalues --    0.57921   0.58077   0.58341   0.58468   0.58524
 Alpha virt. eigenvalues --    0.58817   0.58819   0.58899   0.59297   0.59338
 Alpha virt. eigenvalues --    0.59350   0.59545   0.59584   0.59660   0.59724
 Alpha virt. eigenvalues --    0.59834   0.60004   0.60071   0.60298   0.60499
 Alpha virt. eigenvalues --    0.60622   0.60657   0.60767   0.60799   0.60944
 Alpha virt. eigenvalues --    0.61053   0.61234   0.61356   0.61373   0.61377
 Alpha virt. eigenvalues --    0.61976   0.61992   0.62029   0.62165   0.62193
 Alpha virt. eigenvalues --    0.62318   0.62530   0.62961   0.63146   0.63631
 Alpha virt. eigenvalues --    0.64035   0.64093   0.64302   0.64338   0.64478
 Alpha virt. eigenvalues --    0.64841   0.64983   0.65022   0.65025   0.65536
 Alpha virt. eigenvalues --    0.65555   0.65597   0.65659   0.65724   0.66010
 Alpha virt. eigenvalues --    0.66178   0.66591   0.66894   0.67674   0.67751
 Alpha virt. eigenvalues --    0.67815   0.68202   0.68430   0.68546   0.68595
 Alpha virt. eigenvalues --    0.69120   0.69408   0.69409   0.69653   0.70007
 Alpha virt. eigenvalues --    0.70060   0.70256   0.70749   0.70764   0.70898
 Alpha virt. eigenvalues --    0.71105   0.71416   0.71541   0.71633   0.71878
 Alpha virt. eigenvalues --    0.71984   0.72009   0.72337   0.72377   0.72482
 Alpha virt. eigenvalues --    0.72483   0.72602   0.72656   0.72774   0.72874
 Alpha virt. eigenvalues --    0.73359   0.73473   0.73530   0.73605   0.73633
 Alpha virt. eigenvalues --    0.73681   0.73975   0.73986   0.74206   0.74420
 Alpha virt. eigenvalues --    0.74449   0.74693   0.74711   0.74814   0.74911
 Alpha virt. eigenvalues --    0.74995   0.75131   0.75371   0.75437   0.75620
 Alpha virt. eigenvalues --    0.75734   0.75820   0.75861   0.75877   0.75975
 Alpha virt. eigenvalues --    0.76057   0.76147   0.76320   0.76439   0.76487
 Alpha virt. eigenvalues --    0.76495   0.76626   0.76730   0.76929   0.77014
 Alpha virt. eigenvalues --    0.77059   0.77139   0.77179   0.77303   0.77366
 Alpha virt. eigenvalues --    0.77488   0.77602   0.77685   0.77698   0.77806
 Alpha virt. eigenvalues --    0.77986   0.78181   0.78280   0.78320   0.78334
 Alpha virt. eigenvalues --    0.78583   0.78863   0.78906   0.78943   0.79025
 Alpha virt. eigenvalues --    0.79154   0.79179   0.79340   0.79540   0.79760
 Alpha virt. eigenvalues --    0.79769   0.79806   0.80151   0.80190   0.80223
 Alpha virt. eigenvalues --    0.80641   0.80735   0.80896   0.80904   0.80975
 Alpha virt. eigenvalues --    0.81105   0.81167   0.81210   0.81239   0.81399
 Alpha virt. eigenvalues --    0.81603   0.81763   0.82034   0.82076   0.82142
 Alpha virt. eigenvalues --    0.82228   0.82308   0.82627   0.82667   0.82790
 Alpha virt. eigenvalues --    0.82926   0.83038   0.83240   0.83537   0.83606
 Alpha virt. eigenvalues --    0.83645   0.83910   0.83944   0.84221   0.84405
 Alpha virt. eigenvalues --    0.84515   0.84708   0.84843   0.85058   0.85093
 Alpha virt. eigenvalues --    0.85240   0.85361   0.85402   0.85462   0.85485
 Alpha virt. eigenvalues --    0.85729   0.85774   0.86056   0.86075   0.86283
 Alpha virt. eigenvalues --    0.86286   0.86512   0.86531   0.86565   0.86619
 Alpha virt. eigenvalues --    0.86710   0.86783   0.86993   0.87068   0.87143
 Alpha virt. eigenvalues --    0.87318   0.87472   0.87549   0.87681   0.87819
 Alpha virt. eigenvalues --    0.88250   0.88414   0.88548   0.88553   0.89162
 Alpha virt. eigenvalues --    0.89178   0.89567   0.89572   0.89802   0.89815
 Alpha virt. eigenvalues --    0.89921   0.90180   0.90266   0.90578   0.91021
 Alpha virt. eigenvalues --    0.91191   0.91705   0.91820   0.91844   0.91847
 Alpha virt. eigenvalues --    0.92011   0.92108   0.92180   0.92185   0.92507
 Alpha virt. eigenvalues --    0.92728   0.92891   0.93020   0.93271   0.93278
 Alpha virt. eigenvalues --    0.93595   0.93860   0.94177   0.94958   0.95037
 Alpha virt. eigenvalues --    0.95198   0.95413   0.95685   0.96078   0.96336
 Alpha virt. eigenvalues --    0.96835   0.96933   0.96961   0.97450   0.97602
 Alpha virt. eigenvalues --    0.97772   0.97802   0.97913   0.98535   0.98552
 Alpha virt. eigenvalues --    0.98557   0.98764   0.99249   0.99254   0.99786
 Alpha virt. eigenvalues --    0.99958   1.00273   1.00361   1.00749   1.00780
 Alpha virt. eigenvalues --    1.01007   1.01016   1.01227   1.01367   1.01720
 Alpha virt. eigenvalues --    1.01773   1.01890   1.02174   1.02271   1.02596
 Alpha virt. eigenvalues --    1.02737   1.02739   1.03224   1.03408   1.03534
 Alpha virt. eigenvalues --    1.03557   1.03895   1.03937   1.03943   1.04365
 Alpha virt. eigenvalues --    1.04764   1.04787   1.05036   1.05334   1.05407
 Alpha virt. eigenvalues --    1.05507   1.06201   1.06451   1.06712   1.06798
 Alpha virt. eigenvalues --    1.07170   1.07473   1.07545   1.07993   1.08108
 Alpha virt. eigenvalues --    1.08283   1.08433   1.08731   1.08991   1.09077
 Alpha virt. eigenvalues --    1.09097   1.09129   1.09327   1.09570   1.09589
 Alpha virt. eigenvalues --    1.10381   1.10535   1.10915   1.11769   1.11986
 Alpha virt. eigenvalues --    1.12169   1.12179   1.12288   1.12742   1.12942
 Alpha virt. eigenvalues --    1.13297   1.13365   1.13516   1.13914   1.14342
 Alpha virt. eigenvalues --    1.14344   1.14547   1.14651   1.14701   1.15191
 Alpha virt. eigenvalues --    1.15553   1.16056   1.16508   1.16611   1.16659
 Alpha virt. eigenvalues --    1.16709   1.16983   1.17142   1.18052   1.18354
 Alpha virt. eigenvalues --    1.18710   1.19303   1.19751   1.19769   1.19788
 Alpha virt. eigenvalues --    1.19900   1.20428   1.20513   1.21152   1.21404
 Alpha virt. eigenvalues --    1.21647   1.21919   1.22192   1.22514   1.22784
 Alpha virt. eigenvalues --    1.22998   1.23133   1.23330   1.23801   1.23875
 Alpha virt. eigenvalues --    1.24287   1.24709   1.25140   1.25282   1.25903
 Alpha virt. eigenvalues --    1.26075   1.26498   1.27330   1.27408   1.27435
 Alpha virt. eigenvalues --    1.27577   1.28380   1.28893   1.29395   1.29401
 Alpha virt. eigenvalues --    1.29484   1.29813   1.30078   1.30717   1.30775
 Alpha virt. eigenvalues --    1.30980   1.31006   1.31541   1.31547   1.31592
 Alpha virt. eigenvalues --    1.31900   1.31931   1.32023   1.32119   1.32217
 Alpha virt. eigenvalues --    1.32605   1.33064   1.33241   1.33353   1.33470
 Alpha virt. eigenvalues --    1.33533   1.33659   1.33925   1.33941   1.34342
 Alpha virt. eigenvalues --    1.34390   1.34421   1.34608   1.34804   1.34879
 Alpha virt. eigenvalues --    1.34887   1.35056   1.35161   1.35538   1.35598
 Alpha virt. eigenvalues --    1.35627   1.35805   1.35863   1.35886   1.35980
 Alpha virt. eigenvalues --    1.36147   1.36394   1.36620   1.36736   1.36805
 Alpha virt. eigenvalues --    1.37001   1.37139   1.37165   1.37395   1.37418
 Alpha virt. eigenvalues --    1.37585   1.37786   1.37803   1.37834   1.38249
 Alpha virt. eigenvalues --    1.38344   1.38669   1.38779   1.38825   1.38827
 Alpha virt. eigenvalues --    1.38984   1.39345   1.39527   1.39632   1.39749
 Alpha virt. eigenvalues --    1.39793   1.39819   1.39886   1.40105   1.40106
 Alpha virt. eigenvalues --    1.40198   1.40224   1.40418   1.40573   1.40764
 Alpha virt. eigenvalues --    1.40769   1.41185   1.41387   1.41418   1.41568
 Alpha virt. eigenvalues --    1.41775   1.42013   1.42128   1.42596   1.42931
 Alpha virt. eigenvalues --    1.42982   1.42983   1.43196   1.43236   1.43612
 Alpha virt. eigenvalues --    1.43651   1.43796   1.43848   1.44015   1.44089
 Alpha virt. eigenvalues --    1.44173   1.44325   1.44433   1.44619   1.44677
 Alpha virt. eigenvalues --    1.44799   1.45086   1.45129   1.45361   1.45766
 Alpha virt. eigenvalues --    1.45954   1.46222   1.46565   1.47322   1.47341
 Alpha virt. eigenvalues --    1.47549   1.47791   1.47803   1.47947   1.48260
 Alpha virt. eigenvalues --    1.48373   1.48491   1.48587   1.48964   1.49184
 Alpha virt. eigenvalues --    1.49220   1.49437   1.49871   1.50201   1.50248
 Alpha virt. eigenvalues --    1.50403   1.50498   1.50820   1.50864   1.52021
 Alpha virt. eigenvalues --    1.52510   1.52807   1.52984   1.53678   1.54433
 Alpha virt. eigenvalues --    1.54579   1.54650   1.55069   1.56059   1.56280
 Alpha virt. eigenvalues --    1.56435   1.56801   1.56813   1.57152   1.57338
 Alpha virt. eigenvalues --    1.57461   1.57793   1.58021   1.58429   1.58952
 Alpha virt. eigenvalues --    1.59253   1.59470   1.59878   1.60758   1.61242
 Alpha virt. eigenvalues --    1.61279   1.61690   1.62301   1.62333   1.62610
 Alpha virt. eigenvalues --    1.62692   1.62760   1.63337   1.63405   1.64663
 Alpha virt. eigenvalues --    1.64885   1.65235   1.65531   1.65677   1.66051
 Alpha virt. eigenvalues --    1.66204   1.66252   1.66544   1.66901   1.67485
 Alpha virt. eigenvalues --    1.68082   1.68188   1.68529   1.68891   1.69522
 Alpha virt. eigenvalues --    1.70016   1.70719   1.71039   1.71343   1.71709
 Alpha virt. eigenvalues --    1.71972   1.72169   1.72247   1.73074   1.73490
 Alpha virt. eigenvalues --    1.73541   1.73994   1.74729   1.75512   1.75750
 Alpha virt. eigenvalues --    1.76289   1.76637   1.76882   1.76930   1.77049
 Alpha virt. eigenvalues --    1.77396   1.77489   1.77606   1.77985   1.78025
 Alpha virt. eigenvalues --    1.78108   1.78183   1.78739   1.78742   1.79067
 Alpha virt. eigenvalues --    1.79250   1.79596   1.79643   1.79940   1.79964
 Alpha virt. eigenvalues --    1.80112   1.80216   1.80614   1.80664   1.80858
 Alpha virt. eigenvalues --    1.81661   1.82183   1.82321   1.82498   1.82508
 Alpha virt. eigenvalues --    1.82735   1.82900   1.82929   1.83084   1.83332
 Alpha virt. eigenvalues --    1.83369   1.83752   1.83904   1.83954   1.84105
 Alpha virt. eigenvalues --    1.84290   1.84514   1.84621   1.84780   1.85027
 Alpha virt. eigenvalues --    1.85295   1.85597   1.85639   1.85689   1.85740
 Alpha virt. eigenvalues --    1.85742   1.86047   1.86174   1.86244   1.86458
 Alpha virt. eigenvalues --    1.86566   1.86598   1.86800   1.86917   1.87021
 Alpha virt. eigenvalues --    1.87219   1.87655   1.87670   1.87671   1.88018
 Alpha virt. eigenvalues --    1.88163   1.88164   1.88315   1.88391   1.88436
 Alpha virt. eigenvalues --    1.88553   1.88592   1.88805   1.89181   1.89208
 Alpha virt. eigenvalues --    1.89291   1.89580   1.89667   1.89772   1.89784
 Alpha virt. eigenvalues --    1.90005   1.90025   1.90198   1.90376   1.90427
 Alpha virt. eigenvalues --    1.90570   1.90889   1.90967   1.90970   1.91021
 Alpha virt. eigenvalues --    1.91068   1.91583   1.91627   1.91665   1.91984
 Alpha virt. eigenvalues --    1.92132   1.92314   1.92445   1.92748   1.93045
 Alpha virt. eigenvalues --    1.93092   1.93287   1.93306   1.93644   1.93720
 Alpha virt. eigenvalues --    1.93834   1.94033   1.94534   1.94583   1.94651
 Alpha virt. eigenvalues --    1.94703   1.94986   1.95133   1.95808   1.95878
 Alpha virt. eigenvalues --    1.96547   1.97412   1.97638   1.97688   1.98094
 Alpha virt. eigenvalues --    1.98242   1.98442   1.98645   1.98654   1.98664
 Alpha virt. eigenvalues --    1.99052   1.99130   1.99672   1.99991   2.00362
 Alpha virt. eigenvalues --    2.00735   2.01047   2.01132   2.01171   2.01551
 Alpha virt. eigenvalues --    2.01779   2.01986   2.02038   2.02149   2.02443
 Alpha virt. eigenvalues --    2.02551   2.03255   2.03466   2.03472   2.03922
 Alpha virt. eigenvalues --    2.04010   2.04066   2.04291   2.04454   2.04520
 Alpha virt. eigenvalues --    2.04986   2.05307   2.05577   2.05638   2.05852
 Alpha virt. eigenvalues --    2.05940   2.06095   2.06199   2.06241   2.06400
 Alpha virt. eigenvalues --    2.06427   2.06472   2.06806   2.06913   2.07098
 Alpha virt. eigenvalues --    2.07247   2.07317   2.07535   2.07565   2.07575
 Alpha virt. eigenvalues --    2.07805   2.07808   2.07943   2.08021   2.08290
 Alpha virt. eigenvalues --    2.08456   2.08479   2.08569   2.08760   2.08851
 Alpha virt. eigenvalues --    2.08930   2.09510   2.09631   2.09641   2.09782
 Alpha virt. eigenvalues --    2.09819   2.09967   2.10111   2.10284   2.10504
 Alpha virt. eigenvalues --    2.10753   2.10858   2.11037   2.11348   2.11358
 Alpha virt. eigenvalues --    2.11445   2.11580   2.11822   2.11903   2.11986
 Alpha virt. eigenvalues --    2.12031   2.12176   2.12245   2.12441   2.12535
 Alpha virt. eigenvalues --    2.12663   2.12805   2.12850   2.13075   2.13269
 Alpha virt. eigenvalues --    2.13537   2.13997   2.14490   2.14861   2.15104
 Alpha virt. eigenvalues --    2.15298   2.15872   2.16049   2.16175   2.16643
 Alpha virt. eigenvalues --    2.16983   2.17024   2.17114   2.17291   2.17365
 Alpha virt. eigenvalues --    2.17603   2.18068   2.18962   2.20573   2.20576
 Alpha virt. eigenvalues --    2.20842   2.20943   2.21090   2.21219   2.21310
 Alpha virt. eigenvalues --    2.21956   2.21993   2.22487   2.22583   2.23114
 Alpha virt. eigenvalues --    2.23581   2.24378   2.24483   2.24499   2.24952
 Alpha virt. eigenvalues --    2.25206   2.25231   2.25279   2.25360   2.25591
 Alpha virt. eigenvalues --    2.25973   2.26118   2.26445   2.26528   2.26649
 Alpha virt. eigenvalues --    2.26652   2.26759   2.26807   2.26934   2.27096
 Alpha virt. eigenvalues --    2.27180   2.27456   2.27478   2.27636   2.27695
 Alpha virt. eigenvalues --    2.28136   2.28173   2.28701   2.28733   2.29167
 Alpha virt. eigenvalues --    2.29288   2.29483   2.29922   2.30038   2.30121
 Alpha virt. eigenvalues --    2.30340   2.30517   2.30679   2.30874   2.31458
 Alpha virt. eigenvalues --    2.31470   2.31615   2.31804   2.31974   2.32182
 Alpha virt. eigenvalues --    2.32197   2.32225   2.32673   2.32801   2.33063
 Alpha virt. eigenvalues --    2.33390   2.33807   2.34019   2.34054   2.34274
 Alpha virt. eigenvalues --    2.34476   2.34843   2.35027   2.35033   2.35345
 Alpha virt. eigenvalues --    2.35458   2.35643   2.36177   2.36353   2.36463
 Alpha virt. eigenvalues --    2.36554   2.36595   2.36685   2.36950   2.36980
 Alpha virt. eigenvalues --    2.37252   2.37259   2.37293   2.37367   2.37467
 Alpha virt. eigenvalues --    2.37606   2.37898   2.38061   2.38207   2.38873
 Alpha virt. eigenvalues --    2.38962   2.39129   2.39409   2.39493   2.39638
 Alpha virt. eigenvalues --    2.39735   2.39841   2.40235   2.40385   2.40714
 Alpha virt. eigenvalues --    2.40817   2.41024   2.41080   2.41430   2.41445
 Alpha virt. eigenvalues --    2.41463   2.41632   2.41642   2.41866   2.41991
 Alpha virt. eigenvalues --    2.42199   2.42263   2.42373   2.42553   2.42568
 Alpha virt. eigenvalues --    2.42805   2.43166   2.43175   2.43303   2.43477
 Alpha virt. eigenvalues --    2.43702   2.44060   2.44151   2.44197   2.44729
 Alpha virt. eigenvalues --    2.44729   2.44821   2.45079   2.45221   2.45340
 Alpha virt. eigenvalues --    2.45800   2.46005   2.46077   2.46687   2.46982
 Alpha virt. eigenvalues --    2.47047   2.47222   2.47360   2.47503   2.48298
 Alpha virt. eigenvalues --    2.48714   2.49031   2.49247   2.49261   2.49347
 Alpha virt. eigenvalues --    2.49620   2.50043   2.50078   2.50288   2.50367
 Alpha virt. eigenvalues --    2.50390   2.50588   2.50723   2.50868   2.51190
 Alpha virt. eigenvalues --    2.52280   2.52302   2.53996   2.55319   2.57035
 Alpha virt. eigenvalues --    2.57368   2.57551   2.57986   2.58015   2.58085
 Alpha virt. eigenvalues --    2.58355   2.58423   2.58598   2.58823   2.58823
 Alpha virt. eigenvalues --    2.58834   2.59523   2.59636   2.60146   2.60363
 Alpha virt. eigenvalues --    2.60568   2.60602   2.61227   2.61902   2.62132
 Alpha virt. eigenvalues --    2.62634   2.63053   2.64625   2.64708   2.64913
 Alpha virt. eigenvalues --    2.66115   2.67121   2.67204   2.67364   2.67483
 Alpha virt. eigenvalues --    2.67520   2.67711   2.67783   2.68186   2.69118
 Alpha virt. eigenvalues --    2.69263   2.69320   2.69906   2.70207   2.70231
 Alpha virt. eigenvalues --    2.70327   2.70385   2.70502   2.70555   2.70759
 Alpha virt. eigenvalues --    2.70986   2.71083   2.71486   2.71500   2.72345
 Alpha virt. eigenvalues --    2.72402   2.72406   2.72575   2.72633   2.73447
 Alpha virt. eigenvalues --    2.74359   2.74417   2.74480   2.74816   2.75186
 Alpha virt. eigenvalues --    2.75469   2.75593   2.75823   2.75837   2.75997
 Alpha virt. eigenvalues --    2.76002   2.76039   2.76248   2.76265   2.76780
 Alpha virt. eigenvalues --    2.76837   2.76969   2.77334   2.77973   2.78041
 Alpha virt. eigenvalues --    2.78041   2.78230   2.78395   2.78660   2.78730
 Alpha virt. eigenvalues --    2.78815   2.79117   2.79275   2.79433   2.79681
 Alpha virt. eigenvalues --    2.79711   2.79817   2.80948   2.80967   2.81068
 Alpha virt. eigenvalues --    2.81329   2.81366   2.81504   2.81535   2.81573
 Alpha virt. eigenvalues --    2.81708   2.81713   2.81869   2.82269   2.82274
 Alpha virt. eigenvalues --    2.82358   2.82746   2.82823   2.83447   2.83653
 Alpha virt. eigenvalues --    2.84100   2.84145   2.84162   2.84682   2.84685
 Alpha virt. eigenvalues --    2.84924   2.84970   2.85241   2.85543   2.85699
 Alpha virt. eigenvalues --    2.85995   2.85997   2.86207   2.86271   2.86465
 Alpha virt. eigenvalues --    2.88751   2.89321   2.90027   2.90619   2.90787
 Alpha virt. eigenvalues --    2.90997   2.92478   2.92493   2.94050   2.94270
 Alpha virt. eigenvalues --    2.94317   2.95143   2.95181   2.95498   2.95620
 Alpha virt. eigenvalues --    2.95848   2.96041   2.96164   2.96305   2.96472
 Alpha virt. eigenvalues --    2.96587   2.96777   2.96926   2.96930   2.96950
 Alpha virt. eigenvalues --    2.97170   2.97896   2.98062   2.98547   2.98562
 Alpha virt. eigenvalues --    2.98568   2.98727   2.98774   2.99049   2.99570
 Alpha virt. eigenvalues --    3.00271   3.00312   3.00602   3.00660   3.00689
 Alpha virt. eigenvalues --    3.00740   3.00923   3.01127   3.01640   3.01810
 Alpha virt. eigenvalues --    3.02052   3.02295   3.03489   3.03656   3.03668
 Alpha virt. eigenvalues --    3.03868   3.04054   3.04224   3.05102   3.05527
 Alpha virt. eigenvalues --    3.06240   3.06304   3.06581   3.07473   3.08017
 Alpha virt. eigenvalues --    3.09086   3.09143   3.10117   3.10166   3.10180
 Alpha virt. eigenvalues --    3.10241   3.10407   3.10443   3.10948   3.11327
 Alpha virt. eigenvalues --    3.11335   3.11704   3.11835   3.12077   3.13045
 Alpha virt. eigenvalues --    3.13694   3.13710   3.13889   3.13904   3.14478
 Alpha virt. eigenvalues --    3.15212   3.15265   3.16297   3.17407   3.18317
 Alpha virt. eigenvalues --    3.18459   3.20648   3.21430   3.21638   3.21669
 Alpha virt. eigenvalues --    3.21853   3.22560   3.22910   3.24102   3.24108
 Alpha virt. eigenvalues --    3.24373   3.24418   3.24547   3.25410   3.25942
 Alpha virt. eigenvalues --    3.26100   3.26317   3.26344   3.27640   3.27928
 Alpha virt. eigenvalues --    3.28506   3.28576   3.29022   3.34813   3.34945
 Alpha virt. eigenvalues --    3.34972   3.35071   3.35369   3.35377   3.35638
 Alpha virt. eigenvalues --    3.35796   3.36237   3.36460   3.37242   3.38439
 Alpha virt. eigenvalues --    3.48292   3.48579   3.48652   3.48747   3.49882
 Alpha virt. eigenvalues --    3.50651   3.55577   3.55587   3.56423   3.57732
 Alpha virt. eigenvalues --    3.57969   3.59041   3.59496   3.59582   3.60586
 Alpha virt. eigenvalues --    3.63434   3.63634   3.64497   3.65435   3.65541
 Alpha virt. eigenvalues --    3.65556   3.65680   3.66108   3.66581   3.72660
 Alpha virt. eigenvalues --    3.72670   3.72942   3.76938   3.76966   3.76967
 Alpha virt. eigenvalues --    3.77061   3.77421   3.77469   3.79361   3.79406
 Alpha virt. eigenvalues --    3.79734   6.60474   6.60482   6.60644   6.60685
 Alpha virt. eigenvalues --    6.60686   6.60833   6.61143   6.61150   6.61310
 Alpha virt. eigenvalues --    6.61395   6.61400   6.61400   6.61407   6.61595
 Alpha virt. eigenvalues --    6.61619   6.65380   6.65383   6.65397   6.65404
 Alpha virt. eigenvalues --    6.65662   6.65701
          Condensed to atoms (all electrons):
 Mulliken charges:
               1
     1  C    0.038826
     2  C    0.015993
     3  C   -0.066930
     4  C    0.120419
     5  C    0.106302
     6  C   -0.075961
     7  C   -0.083896
     8  C   -0.066350
     9  N   -0.204405
    10  N    0.108626
    11  N    0.112213
    12  H   -0.013259
    13  H   -0.012326
    14  H   -0.013582
    15  H   -0.017242
    16  C    0.037655
    17  C    0.037655
    18  C   -0.068923
    19  C    0.109558
    20  C    0.109558
    21  C   -0.068923
    22  C   -0.097053
    23  C   -0.097053
    24  N   -0.202337
    25  N    0.112213
    26  H   -0.011307
    27  H   -0.011307
    28  H   -0.014705
    29  H   -0.014705
    30  C    0.021427
    31  C    0.021427
    32  C   -0.075090
    33  C    0.117481
    34  C    0.117481
    35  C   -0.075090
    36  C   -0.065358
    37  C   -0.065358
    38  N   -0.206033
    39  N    0.108626
    40  H   -0.009764
    41  H   -0.009764
    42  H   -0.016251
    43  H   -0.016251
    44  C    0.015993
    45  C    0.038826
    46  C   -0.075961
    47  C    0.106302
    48  C    0.120419
    49  C   -0.066930
    50  C   -0.066350
    51  C   -0.083896
    52  N   -0.204405
    53  H   -0.012326
    54  H   -0.013259
    55  H   -0.017242
    56  H   -0.013582
    57  Zn   0.664557
    58  C    0.030739
    59  C    0.030739
    60  C   -0.076094
    61  C    0.127235
    62  C    0.127235
    63  C   -0.076094
    64  C   -0.090447
    65  C   -0.090447
    66  N   -0.198629
    67  N    0.118761
    68  N    0.118761
    69  H   -0.016790
    70  H   -0.016790
    71  H   -0.017637
    72  H   -0.017637
    73  C    0.034782
    74  C    0.034782
    75  C   -0.075669
    76  C    0.129493
    77  C    0.129493
    78  C   -0.075669
    79  C   -0.105965
    80  C   -0.105965
    81  N   -0.197341
    82  N    0.118761
    83  H   -0.013062
    84  H   -0.013062
    85  H   -0.018039
    86  H   -0.018039
    87  C    0.034782
    88  C    0.034782
    89  C   -0.075669
    90  C    0.129493
    91  C    0.129493
    92  C   -0.075669
    93  C   -0.105965
    94  C   -0.105965
    95  N   -0.197341
    96  N    0.118761
    97  H   -0.013062
    98  H   -0.013062
    99  H   -0.018039
   100  H   -0.018039
   101  C    0.030739
   102  C    0.030739
   103  C   -0.076094
   104  C    0.127235
   105  C    0.127235
   106  C   -0.076094
   107  C   -0.090447
   108  C   -0.090447
   109  N   -0.198629
   110  H   -0.016790
   111  H   -0.016790
   112  H   -0.017637
   113  H   -0.017637
   114  Zn   0.665954
   115  C    0.015993
   116  C    0.038826
   117  C   -0.075961
   118  C    0.106302
   119  C    0.120419
   120  C   -0.066930
   121  C   -0.066350
   122  C   -0.083896
   123  N   -0.204405
   124  N    0.112213
   125  N    0.108626
   126  H   -0.012326
   127  H   -0.013259
   128  H   -0.017242
   129  H   -0.013582
   130  C    0.021427
   131  C    0.021427
   132  C   -0.075090
   133  C    0.117481
   134  C    0.117481
   135  C   -0.075090
   136  C   -0.065358
   137  C   -0.065358
   138  N   -0.206033
   139  N    0.108626
   140  H   -0.009764
   141  H   -0.009764
   142  H   -0.016251
   143  H   -0.016251
   144  C    0.037655
   145  C    0.037655
   146  C   -0.068923
   147  C    0.109558
   148  C    0.109558
   149  C   -0.068923
   150  C   -0.097053
   151  C   -0.097053
   152  N   -0.202337
   153  N    0.112213
   154  H   -0.011307
   155  H   -0.011307
   156  H   -0.014705
   157  H   -0.014705
   158  C    0.038826
   159  C    0.015993
   160  C   -0.066930
   161  C    0.120419
   162  C    0.106302
   163  C   -0.075961
   164  C   -0.083896
   165  C   -0.066350
   166  N   -0.204405
   167  H   -0.013259
   168  H   -0.012326
   169  H   -0.013582
   170  H   -0.017242
   171  Zn   0.664557
 Sum of Mulliken charges =  -0.00000
 Mulliken charges with hydrogens summed into heavy atoms:
               1
     1  C    0.025568
     2  C    0.003667
     3  C   -0.080513
     4  C    0.120419
     5  C    0.106302
     6  C   -0.093203
     7  C   -0.083896
     8  C   -0.066350
     9  N   -0.204405
    10  N    0.108626
    11  N    0.112213
    16  C    0.026348
    17  C    0.026348
    18  C   -0.083628
    19  C    0.109558
    20  C    0.109558
    21  C   -0.083628
    22  C   -0.097053
    23  C   -0.097053
    24  N   -0.202337
    25  N    0.112213
    30  C    0.011663
    31  C    0.011663
    32  C   -0.091342
    33  C    0.117481
    34  C    0.117481
    35  C   -0.091342
    36  C   -0.065358
    37  C   -0.065358
    38  N   -0.206033
    39  N    0.108626
    44  C    0.003667
    45  C    0.025568
    46  C   -0.093203
    47  C    0.106302
    48  C    0.120419
    49  C   -0.080513
    50  C   -0.066350
    51  C   -0.083896
    52  N   -0.204405
    57  Zn   0.664557
    58  C    0.013949
    59  C    0.013949
    60  C   -0.093731
    61  C    0.127235
    62  C    0.127235
    63  C   -0.093731
    64  C   -0.090447
    65  C   -0.090447
    66  N   -0.198629
    67  N    0.118761
    68  N    0.118761
    73  C    0.021720
    74  C    0.021720
    75  C   -0.093708
    76  C    0.129493
    77  C    0.129493
    78  C   -0.093708
    79  C   -0.105965
    80  C   -0.105965
    81  N   -0.197341
    82  N    0.118761
    87  C    0.021720
    88  C    0.021720
    89  C   -0.093708
    90  C    0.129493
    91  C    0.129493
    92  C   -0.093708
    93  C   -0.105965
    94  C   -0.105965
    95  N   -0.197341
    96  N    0.118761
   101  C    0.013949
   102  C    0.013949
   103  C   -0.093731
   104  C    0.127235
   105  C    0.127235
   106  C   -0.093731
   107  C   -0.090447
   108  C   -0.090447
   109  N   -0.198629
   114  Zn   0.665954
   115  C    0.003667
   116  C    0.025568
   117  C   -0.093203
   118  C    0.106302
   119  C    0.120419
   120  C   -0.080513
   121  C   -0.066350
   122  C   -0.083896
   123  N   -0.204405
   124  N    0.112213
   125  N    0.108626
   130  C    0.011663
   131  C    0.011663
   132  C   -0.091342
   133  C    0.117481
   134  C    0.117481
   135  C   -0.091342
   136  C   -0.065358
   137  C   -0.065358
   138  N   -0.206033
   139  N    0.108626
   144  C    0.026348
   145  C    0.026348
   146  C   -0.083628
   147  C    0.109558
   148  C    0.109558
   149  C   -0.083628
   150  C   -0.097053
   151  C   -0.097053
   152  N   -0.202337
   153  N    0.112213
   158  C    0.025568
   159  C    0.003667
   160  C   -0.080513
   161  C    0.120419
   162  C    0.106302
   163  C   -0.093203
   164  C   -0.083896
   165  C   -0.066350
   166  N   -0.204405
   171  Zn   0.664557
 Electronic spatial extent (au):  <R**2>=          98762.2975
 Charge=             -0.0000 electrons
 Dipole moment (field-independent basis, Debye):
    X=             -0.0000    Y=              0.0000    Z=             -0.0000  Tot=              0.0000
 Quadrupole moment (field-independent basis, Debye-Ang):
   XX=           -738.2165   YY=           -639.9180   ZZ=           -640.5863
   XY=             -2.1694   XZ=              0.0000   YZ=             -0.0000
 Traceless Quadrupole moment (field-independent basis, Debye-Ang):
   XX=            -65.3095   YY=             32.9889   ZZ=             32.3206
   XY=             -2.1694   XZ=              0.0000   YZ=             -0.0000
 Octapole moment (field-independent basis, Debye-Ang**2):
  XXX=              0.0000  YYY=             -0.0000  ZZZ=             -0.0000  XYY=              0.0000
  XXY=             -0.0000  XXZ=              0.0000  XZZ=             -0.0000  YZZ=             -0.0000
  YYZ=             -0.0000  XYZ=             -0.0000
 Hexadecapole moment (field-independent basis, Debye-Ang**3):
 XXXX=         -34828.3692 YYYY=         -51152.5346 ZZZZ=         -40956.2236 XXXY=         -10036.8393
 XXXZ=              0.0000 YYYX=          -8794.9280 YYYZ=             -0.0000 ZZZX=             -0.0000
 ZZZY=             -0.0000 XXYY=         -15423.5803 XXZZ=         -13470.6059 YYZZ=         -16325.2963
 XXYZ=             -0.0000 YYXZ=             -0.0000 ZZXY=          -2956.6411
 N-N= 3.463797055350D+04 E-N=-9.363099136351D+04  KE= 1.026408003383D+04
 Symmetry AG   KE= 4.018692374663D+03
 Symmetry BG   KE= 1.409263769798D+03
 Symmetry AU   KE= 1.612920166219D+03
 Symmetry BU   KE= 3.223203723155D+03

 Test job not archived.
 1\1\ WCSS.PL-BEM-KETKOV-PC1\SP\RLC-BLYP\def2SVP\C96H48N24Zn3\SERGEY\14
 -Apr-2026\0\\# lc-blyp/def2svp iop(3/107=0350000000,3/108=0350000000)\
 \monomer geom r2scan-3c\\0,1\C,0,0.701663,6.554204,0.\C,0,-0.701663,6.
 554204,0.\C,0,1.422571,5.364926,0.\C,0,0.703967,4.174565,0.\C,0,-0.703
 967,4.174565,0.\C,0,-1.422571,5.364926,0.\C,0,1.120422,2.78002,0.\C,0,
 -1.120422,2.78002,0.\N,0,0.,1.989101,0.\N,0,-2.390568,2.390568,0.\N,0,
 2.390568,2.390568,0.\H,0,1.231071,7.50255,0.\H,0,-1.231071,7.50255,0.\
 H,0,2.508027,5.356475,0.\H,0,-2.508027,5.356475,0.\C,0,6.554204,-0.701
 663,0.\C,0,6.554204,0.701663,0.\C,0,5.364926,-1.422571,0.\C,0,4.174565
 ,-0.703967,0.\C,0,4.174565,0.703967,0.\C,0,5.364926,1.422571,0.\C,0,2.
 78002,-1.120422,0.\C,0,2.78002,1.120422,0.\N,0,1.989101,0.,0.\N,0,2.39
 0568,-2.390568,0.\H,0,7.50255,-1.231071,0.\H,0,7.50255,1.231071,0.\H,0
 ,5.356475,-2.508027,0.\H,0,5.356475,2.508027,0.\C,0,-6.554204,0.701663
 ,0.\C,0,-6.554204,-0.701663,0.\C,0,-5.364926,1.422571,0.\C,0,-4.174565
 ,0.703967,0.\C,0,-4.174565,-0.703967,0.\C,0,-5.364926,-1.422571,0.\C,0
 ,-2.78002,1.120422,0.\C,0,-2.78002,-1.120422,0.\N,0,-1.989101,0.,0.\N,
 0,-2.390568,-2.390568,0.\H,0,-7.50255,1.231071,0.\H,0,-7.50255,-1.2310
 71,0.\H,0,-5.356475,2.508027,0.\H,0,-5.356475,-2.508027,0.\C,0,-0.7016
 63,-6.554204,0.\C,0,0.701663,-6.554204,0.\C,0,-1.422571,-5.364926,0.\C
 ,0,-0.703967,-4.174565,0.\C,0,0.703967,-4.174565,0.\C,0,1.422571,-5.36
 4926,0.\C,0,-1.120422,-2.78002,0.\C,0,1.120422,-2.78002,0.\N,0,0.,-1.9
 89101,0.\H,0,-1.231071,-7.50255,0.\H,0,1.231071,-7.50255,0.\H,0,-2.508
 027,-5.356475,0.\H,0,2.508027,-5.356475,0.\Zn,0,0.,0.,0.\C,0,2.701663,
 6.554204,3.4\C,0,1.298337,6.554204,3.4\C,0,3.422571,5.364926,3.4\C,0,2
 .703967,4.174565,3.4\C,0,1.296033,4.174565,3.4\C,0,0.577429,5.364926,3
 .4\C,0,3.120422,2.78002,3.4\C,0,0.879578,2.78002,3.4\N,0,2.,1.989101,3
 .4\N,0,-0.390568,2.390568,3.4\N,0,4.390568,2.390568,3.4\H,0,3.231071,7
 .50255,3.4\H,0,0.768929,7.50255,3.4\H,0,4.508027,5.356475,3.4\H,0,-0.5
 08027,5.356475,3.4\C,0,8.554204,-0.701663,3.4\C,0,8.554204,0.701663,3.
 4\C,0,7.364926,-1.422571,3.4\C,0,6.174565,-0.703967,3.4\C,0,6.174565,0
 .703967,3.4\C,0,7.364926,1.422571,3.4\C,0,4.78002,-1.120422,3.4\C,0,4.
 78002,1.120422,3.4\N,0,3.989101,0.,3.4\N,0,4.390568,-2.390568,3.4\H,0,
 9.50255,-1.231071,3.4\H,0,9.50255,1.231071,3.4\H,0,7.356475,-2.508027,
 3.4\H,0,7.356475,2.508027,3.4\C,0,-4.554204,0.701663,3.4\C,0,-4.554204
 ,-0.701663,3.4\C,0,-3.364926,1.422571,3.4\C,0,-2.174565,0.703967,3.4\C
 ,0,-2.174565,-0.703967,3.4\C,0,-3.364926,-1.422571,3.4\C,0,-0.78002,1.
 120422,3.4\C,0,-0.78002,-1.120422,3.4\N,0,0.010899,0.,3.4\N,0,-0.39056
 8,-2.390568,3.4\H,0,-5.50255,1.231071,3.4\H,0,-5.50255,-1.231071,3.4\H
 ,0,-3.356475,2.508027,3.4\H,0,-3.356475,-2.508027,3.4\C,0,1.298337,-6.
 554204,3.4\C,0,2.701663,-6.554204,3.4\C,0,0.577429,-5.364926,3.4\C,0,1
 .296033,-4.174565,3.4\C,0,2.703967,-4.174565,3.4\C,0,3.422571,-5.36492
 6,3.4\C,0,0.879578,-2.78002,3.4\C,0,3.120422,-2.78002,3.4\N,0,2.,-1.98
 9101,3.4\H,0,0.768929,-7.50255,3.4\H,0,3.231071,-7.50255,3.4\H,0,-0.50
 8027,-5.356475,3.4\H,0,4.508027,-5.356475,3.4\Zn,0,2.,0.,3.4\C,0,4.701
 663,6.554204,6.8\C,0,3.298337,6.554204,6.8\C,0,5.422571,5.364926,6.8\C
 ,0,4.703967,4.174565,6.8\C,0,3.296033,4.174565,6.8\C,0,2.577429,5.3649
 26,6.8\C,0,5.120422,2.78002,6.8\C,0,2.879578,2.78002,6.8\N,0,4.,1.9891
 01,6.8\N,0,1.609432,2.390568,6.8\N,0,6.390568,2.390568,6.8\H,0,5.23107
 1,7.50255,6.8\H,0,2.768929,7.50255,6.8\H,0,6.508027,5.356475,6.8\H,0,1
 .491973,5.356475,6.8\C,0,10.554204,-0.701663,6.8\C,0,10.554204,0.70166
 3,6.8\C,0,9.364926,-1.422571,6.8\C,0,8.174565,-0.703967,6.8\C,0,8.1745
 65,0.703967,6.8\C,0,9.364926,1.422571,6.8\C,0,6.78002,-1.120422,6.8\C,
 0,6.78002,1.120422,6.8\N,0,5.989101,0.,6.8\N,0,6.390568,-2.390568,6.8\
 H,0,11.50255,-1.231071,6.8\H,0,11.50255,1.231071,6.8\H,0,9.356475,-2.5
 08027,6.8\H,0,9.356475,2.508027,6.8\C,0,-2.554204,0.701663,6.8\C,0,-2.
 554204,-0.701663,6.8\C,0,-1.364926,1.422571,6.8\C,0,-0.174565,0.703967
 ,6.8\C,0,-0.174565,-0.703967,6.8\C,0,-1.364926,-1.422571,6.8\C,0,1.219
 98,1.120422,6.8\C,0,1.21998,-1.120422,6.8\N,0,2.010899,0.,6.8\N,0,1.60
 9432,-2.390568,6.8\H,0,-3.50255,1.231071,6.8\H,0,-3.50255,-1.231071,6.
 8\H,0,-1.356475,2.508027,6.8\H,0,-1.356475,-2.508027,6.8\C,0,3.298337,
 -6.554204,6.8\C,0,4.701663,-6.554204,6.8\C,0,2.577429,-5.364926,6.8\C,
 0,3.296033,-4.174565,6.8\C,0,4.703967,-4.174565,6.8\C,0,5.422571,-5.36
 4926,6.8\C,0,2.879578,-2.78002,6.8\C,0,5.120422,-2.78002,6.8\N,0,4.,-1
 .989101,6.8\H,0,2.768929,-7.50255,6.8\H,0,5.231071,-7.50255,6.8\H,0,1.
 491973,-5.356475,6.8\H,0,6.508027,-5.356475,6.8\Zn,0,4.,0.,6.8\\Versio
 n=ES64L-G09RevE.01\State=1-AG\HF=-10321.801396\RMSD=1.611e-09\Dipole=0
 .,0.,0.\Quadrupole=24.5264648,24.0295838,-48.5560486,0.,-1.6129265,0.\
 PG=C02H [O(Zn1),C2(N1.N1),SGH(N6Zn2),X(C96H48N16)]\\@


 BETTER TO HUNT IN FIELDS, FOR HEALTH UNBOUGHT
 THAN FEE THE DOCTOR FOR A NAUSEOUS DRAUGHT.
 THE WISE, FOR CURE, ON EXERCISE DEPEND;
 GOD NEVER MADE HIS WORK FOR MAN TO MEND.
     -- JOHN DRYDEN (1631-1700)
 Job cpu time:       0 days  3 hours 39 minutes 40.5 seconds.
 File lengths (MBytes):  RWF=   2109 Int=      0 D2E=      0 Chk=    203 Scr=      1
 Normal termination of Gaussian 09 at Tue Apr 14 14:10:07 2026.
 Initial command:
 /home/sergey/g09/l1.exe "/home/sergey/SCRATCH/Gau-11489.inp" -scrdir="/home/sergey/SCRATCH/"
 Entering Link 1 = /home/sergey/g09/l1.exe PID=     12694.
  
 Copyright (c) 1988,1990,1992,1993,1995,1998,2003,2009,2015,
            Gaussian, Inc.  All Rights Reserved.
  
 This is part of the Gaussian(R) 09 program.  It is based on
 the Gaussian(R) 03 system (copyright 2003, Gaussian, Inc.),
 the Gaussian(R) 98 system (copyright 1998, Gaussian, Inc.),
 the Gaussian(R) 94 system (copyright 1995, Gaussian, Inc.),
 the Gaussian 92(TM) system (copyright 1992, Gaussian, Inc.),
 the Gaussian 90(TM) system (copyright 1990, Gaussian, Inc.),
 the Gaussian 88(TM) system (copyright 1988, Gaussian, Inc.),
 the Gaussian 86(TM) system (copyright 1986, Carnegie Mellon
 University), and the Gaussian 82(TM) system (copyright 1983,
 Carnegie Mellon University). Gaussian is a federally registered
 trademark of Gaussian, Inc.
  
 This software contains proprietary and confidential information,
 including trade secrets, belonging to Gaussian, Inc.
  
 This software is provided under written license and may be
 used, copied, transmitted, or stored only in accord with that
 written license.
  
 The following legend is applicable only to US Government
 contracts under FAR:
  
                    RESTRICTED RIGHTS LEGEND
  
 Use, reproduction and disclosure by the US Government is
 subject to restrictions as set forth in subparagraphs (a)
 and (c) of the Commercial Computer Software - Restricted
 Rights clause in FAR 52.227-19.
  
 Gaussian, Inc.
 340 Quinnipiac St., Bldg. 40, Wallingford CT 06492
  
  
 ---------------------------------------------------------------
 Warning -- This program may not be used in any manner that
 competes with the business of Gaussian, Inc. or will provide
 assistance to any competitor of Gaussian, Inc.  The licensee
 of this program is prohibited from giving any competitor of
 Gaussian, Inc. access to this program.  By using this program,
 the user acknowledges that Gaussian, Inc. is engaged in the
 business of creating and licensing software in the field of
 computational chemistry and represents and warrants to the
 licensee that it is not a competitor of Gaussian, Inc. and that
 it will not use this program in any manner prohibited above.
 ---------------------------------------------------------------
  

 Cite this work as:
 Gaussian 09, Revision E.01,
 M. J. Frisch, G. W. Trucks, H. B. Schlegel, G. E. Scuseria, 
 M. A. Robb, J. R. Cheeseman, G. Scalmani, V. Barone, B. Mennucci, 
 G. A. Petersson, H. Nakatsuji, M. Caricato, X. Li, H. P. Hratchian, 
 A. F. Izmaylov, J. Bloino, G. Zheng, J. L. Sonnenberg, M. Hada, 
 M. Ehara, K. Toyota, R. Fukuda, J. Hasegawa, M. Ishida, T. Nakajima, 
 Y. Honda, O. Kitao, H. Nakai, T. Vreven, J. A. Montgomery, Jr., 
 J. E. Peralta, F. Ogliaro, M. Bearpark, J. J. Heyd, E. Brothers, 
 K. N. Kudin, V. N. Staroverov, T. Keith, R. Kobayashi, J. Normand, 
 K. Raghavachari, A. Rendell, J. C. Burant, S. S. Iyengar, J. Tomasi, 
 M. Cossi, N. Rega, J. M. Millam, M. Klene, J. E. Knox, J. B. Cross, 
 V. Bakken, C. Adamo, J. Jaramillo, R. Gomperts, R. E. Stratmann, 
 O. Yazyev, A. J. Austin, R. Cammi, C. Pomelli, J. W. Ochterski, 
 R. L. Martin, K. Morokuma, V. G. Zakrzewski, G. A. Voth, 
 P. Salvador, J. J. Dannenberg, S. Dapprich, A. D. Daniels, 
 O. Farkas, J. B. Foresman, J. V. Ortiz, J. Cioslowski, 
 and D. J. Fox, Gaussian, Inc., Wallingford CT, 2013.
 
 ******************************************
 Gaussian 09:  ES64L-G09RevE.01 30-Nov-2015
                14-Apr-2026 
 ******************************************
 %chk=ZnPc3_34_20.chk
 %mem=60GB
 %nproc=6
 Will use up to    6 processors via shared memory.
 Default route:  MaxDisk=477GB
 ----------------------------------------------------------------------
 # td(nstates=8) lc-blyp/gen iop(3/107=0350000000,3/108=0350000000) geo
 m=check guess=read
 ----------------------------------------------------------------------
 1/29=2,38=1/1;
 2/12=2,40=1/2;
 3/5=7,11=9,14=-4,16=1,25=1,30=1,74=1000402,107=350000000,108=350000000,116=-2/1,2,8,3;
 4/5=1/1;
 5/5=2,38=6/2;
 8/6=1,10=1,108=8/1;
 9/41=8,42=1,70=2/14;
 6/7=2,8=2,9=2,10=2/1;
 99/5=1,9=1/99;
 ----------------------------------
 def2tzvp-f, monomer geom r2scan-3c
 ----------------------------------
 Structure from the checkpoint file:  "ZnPc3_34_20.chk"
 Charge =  0 Multiplicity = 1
 Z-Matrix found in file.
 C,0,0.701663,6.554204,0.
 C,0,-0.701663,6.554204,0.
 C,0,1.422571,5.364926,0.
 C,0,0.703967,4.174565,0.
 C,0,-0.703967,4.174565,0.
 C,0,-1.422571,5.364926,0.
 C,0,1.120422,2.78002,0.
 C,0,-1.120422,2.78002,0.
 N,0,0.,1.989101,0.
 N,0,-2.390568,2.390568,0.
 N,0,2.390568,2.390568,0.
 H,0,1.231071,7.50255,0.
 H,0,-1.231071,7.50255,0.
 H,0,2.508027,5.356475,0.
 H,0,-2.508027,5.356475,0.
 C,0,6.554204,-0.701663,0.
 C,0,6.554204,0.701663,0.
 C,0,5.364926,-1.422571,0.
 C,0,4.174565,-0.703967,0.
 C,0,4.174565,0.703967,0.
 C,0,5.364926,1.422571,0.
 C,0,2.78002,-1.120422,0.
 C,0,2.78002,1.120422,0.
 N,0,1.989101,0.,0.
 N,0,2.390568,-2.390568,0.
 H,0,7.50255,-1.231071,0.
 H,0,7.50255,1.231071,0.
 H,0,5.356475,-2.508027,0.
 H,0,5.356475,2.508027,0.
 C,0,-6.554204,0.701663,0.
 C,0,-6.554204,-0.701663,0.
 C,0,-5.364926,1.422571,0.
 C,0,-4.174565,0.703967,0.
 C,0,-4.174565,-0.703967,0.
 C,0,-5.364926,-1.422571,0.
 C,0,-2.78002,1.120422,0.
 C,0,-2.78002,-1.120422,0.
 N,0,-1.989101,0.,0.
 N,0,-2.390568,-2.390568,0.
 H,0,-7.50255,1.231071,0.
 H,0,-7.50255,-1.231071,0.
 H,0,-5.356475,2.508027,0.
 H,0,-5.356475,-2.508027,0.
 C,0,-0.701663,-6.554204,0.
 C,0,0.701663,-6.554204,0.
 C,0,-1.422571,-5.364926,0.
 C,0,-0.703967,-4.174565,0.
 C,0,0.703967,-4.174565,0.
 C,0,1.422571,-5.364926,0.
 C,0,-1.120422,-2.78002,0.
 C,0,1.120422,-2.78002,0.
 N,0,0.,-1.989101,0.
 H,0,-1.231071,-7.50255,0.
 H,0,1.231071,-7.50255,0.
 H,0,-2.508027,-5.356475,0.
 H,0,2.508027,-5.356475,0.
 Zn,0,0.,0.,0.
 C,0,2.701663,6.554204,3.4
 C,0,1.298337,6.554204,3.4
 C,0,3.422571,5.364926,3.4
 C,0,2.703967,4.174565,3.4
 C,0,1.296033,4.174565,3.4
 C,0,0.577429,5.364926,3.4
 C,0,3.120422,2.78002,3.4
 C,0,0.879578,2.78002,3.4
 N,0,2.,1.989101,3.4
 N,0,-0.390568,2.390568,3.4
 N,0,4.390568,2.390568,3.4
 H,0,3.231071,7.50255,3.4
 H,0,0.768929,7.50255,3.4
 H,0,4.508027,5.356475,3.4
 H,0,-0.508027,5.356475,3.4
 C,0,8.554204,-0.701663,3.4
 C,0,8.554204,0.701663,3.4
 C,0,7.364926,-1.422571,3.4
 C,0,6.174565,-0.703967,3.4
 C,0,6.174565,0.703967,3.4
 C,0,7.364926,1.422571,3.4
 C,0,4.78002,-1.120422,3.4
 C,0,4.78002,1.120422,3.4
 N,0,3.989101,0.,3.4
 N,0,4.390568,-2.390568,3.4
 H,0,9.50255,-1.231071,3.4
 H,0,9.50255,1.231071,3.4
 H,0,7.356475,-2.508027,3.4
 H,0,7.356475,2.508027,3.4
 C,0,-4.554204,0.701663,3.4
 C,0,-4.554204,-0.701663,3.4
 C,0,-3.364926,1.422571,3.4
 C,0,-2.174565,0.703967,3.4
 C,0,-2.174565,-0.703967,3.4
 C,0,-3.364926,-1.422571,3.4
 C,0,-0.78002,1.120422,3.4
 C,0,-0.78002,-1.120422,3.4
 N,0,0.010899,0.,3.4
 N,0,-0.390568,-2.390568,3.4
 H,0,-5.50255,1.231071,3.4
 H,0,-5.50255,-1.231071,3.4
 H,0,-3.356475,2.508027,3.4
 H,0,-3.356475,-2.508027,3.4
 C,0,1.298337,-6.554204,3.4
 C,0,2.701663,-6.554204,3.4
 C,0,0.577429,-5.364926,3.4
 C,0,1.296033,-4.174565,3.4
 C,0,2.703967,-4.174565,3.4
 C,0,3.422571,-5.364926,3.4
 C,0,0.879578,-2.78002,3.4
 C,0,3.120422,-2.78002,3.4
 N,0,2.,-1.989101,3.4
 H,0,0.768929,-7.50255,3.4
 H,0,3.231071,-7.50255,3.4
 H,0,-0.508027,-5.356475,3.4
 H,0,4.508027,-5.356475,3.4
 Zn,0,2.,0.,3.4
 C,0,4.701663,6.554204,6.8
 C,0,3.298337,6.554204,6.8
 C,0,5.422571,5.364926,6.8
 C,0,4.703967,4.174565,6.8
 C,0,3.296033,4.174565,6.8
 C,0,2.577429,5.364926,6.8
 C,0,5.120422,2.78002,6.8
 C,0,2.879578,2.78002,6.8
 N,0,4.,1.989101,6.8
 N,0,1.609432,2.390568,6.8
 N,0,6.390568,2.390568,6.8
 H,0,5.231071,7.50255,6.8
 H,0,2.768929,7.50255,6.8
 H,0,6.508027,5.356475,6.8
 H,0,1.491973,5.356475,6.8
 C,0,10.554204,-0.701663,6.8
 C,0,10.554204,0.701663,6.8
 C,0,9.364926,-1.422571,6.8
 C,0,8.174565,-0.703967,6.8
 C,0,8.174565,0.703967,6.8
 C,0,9.364926,1.422571,6.8
 C,0,6.78002,-1.120422,6.8
 C,0,6.78002,1.120422,6.8
 N,0,5.989101,0.,6.8
 N,0,6.390568,-2.390568,6.8
 H,0,11.50255,-1.231071,6.8
 H,0,11.50255,1.231071,6.8
 H,0,9.356475,-2.508027,6.8
 H,0,9.356475,2.508027,6.8
 C,0,-2.554204,0.701663,6.8
 C,0,-2.554204,-0.701663,6.8
 C,0,-1.364926,1.422571,6.8
 C,0,-0.174565,0.703967,6.8
 C,0,-0.174565,-0.703967,6.8
 C,0,-1.364926,-1.422571,6.8
 C,0,1.21998,1.120422,6.8
 C,0,1.21998,-1.120422,6.8
 N,0,2.010899,0.,6.8
 N,0,1.609432,-2.390568,6.8
 H,0,-3.50255,1.231071,6.8
 H,0,-3.50255,-1.231071,6.8
 H,0,-1.356475,2.508027,6.8
 H,0,-1.356475,-2.508027,6.8
 C,0,3.298337,-6.554204,6.8
 C,0,4.701663,-6.554204,6.8
 C,0,2.577429,-5.364926,6.8
 C,0,3.296033,-4.174565,6.8
 C,0,4.703967,-4.174565,6.8
 C,0,5.422571,-5.364926,6.8
 C,0,2.879578,-2.78002,6.8
 C,0,5.120422,-2.78002,6.8
 N,0,4.,-1.989101,6.8
 H,0,2.768929,-7.50255,6.8
 H,0,5.231071,-7.50255,6.8
 H,0,1.491973,-5.356475,6.8
 H,0,6.508027,-5.356475,6.8
 Zn,0,4.,0.,6.8
 Recover connectivity data from disk.
 Stoichiometry    C96H48N24Zn3
 Framework group  C2H[O(Zn),C2(N.N),SGH(N6Zn2),X(C96H48N16)]
 Deg. of freedom   128
 Full point group                 C2H     NOp   4
 Largest Abelian subgroup         C2H     NOp   4
 Largest concise Abelian subgroup C2H     NOp   4
                         Standard orientation:                         
 ---------------------------------------------------------------------
 Center     Atomic      Atomic             Coordinates (Angstroms)
 Number     Number       Type             X           Y           Z
 ---------------------------------------------------------------------
      1          6           0        3.400000    1.298337    6.554204
      2          6           0        3.400000    2.701663    6.554204
      3          6           0        3.400000    0.577429    5.364926
      4          6           0        3.400000    1.296033    4.174565
      5          6           0        3.400000    2.703967    4.174565
      6          6           0        3.400000    3.422571    5.364926
      7          6           0        3.400000    0.879578    2.780020
      8          6           0        3.400000    3.120422    2.780020
      9          7           0        3.400000    2.000000    1.989101
     10          7           0        3.400000    4.390568    2.390568
     11          7           0        3.400000   -0.390568    2.390568
     12          1           0        3.400000    0.768929    7.502550
     13          1           0        3.400000    3.231071    7.502550
     14          1           0        3.400000   -0.508027    5.356475
     15          1           0        3.400000    4.508027    5.356475
     16          6           0        3.400000   -4.554204   -0.701663
     17          6           0        3.400000   -4.554204    0.701663
     18          6           0        3.400000   -3.364926   -1.422571
     19          6           0        3.400000   -2.174565   -0.703967
     20          6           0        3.400000   -2.174565    0.703967
     21          6           0        3.400000   -3.364926    1.422571
     22          6           0        3.400000   -0.780020   -1.120422
     23          6           0        3.400000   -0.780020    1.120422
     24          7           0        3.400000    0.010899   -0.000000
     25          7           0        3.400000   -0.390568   -2.390568
     26          1           0        3.400000   -5.502550   -1.231071
     27          1           0        3.400000   -5.502550    1.231071
     28          1           0        3.400000   -3.356475   -2.508027
     29          1           0        3.400000   -3.356475    2.508027
     30          6           0        3.400000    8.554204    0.701663
     31          6           0        3.400000    8.554204   -0.701663
     32          6           0        3.400000    7.364926    1.422571
     33          6           0        3.400000    6.174565    0.703967
     34          6           0        3.400000    6.174565   -0.703967
     35          6           0        3.400000    7.364926   -1.422571
     36          6           0        3.400000    4.780020    1.120422
     37          6           0        3.400000    4.780020   -1.120422
     38          7           0        3.400000    3.989101   -0.000000
     39          7           0        3.400000    4.390568   -2.390568
     40          1           0        3.400000    9.502550    1.231071
     41          1           0        3.400000    9.502550   -1.231071
     42          1           0        3.400000    7.356475    2.508027
     43          1           0        3.400000    7.356475   -2.508027
     44          6           0        3.400000    2.701663   -6.554204
     45          6           0        3.400000    1.298337   -6.554204
     46          6           0        3.400000    3.422571   -5.364926
     47          6           0        3.400000    2.703967   -4.174565
     48          6           0        3.400000    1.296033   -4.174565
     49          6           0        3.400000    0.577429   -5.364926
     50          6           0        3.400000    3.120422   -2.780020
     51          6           0        3.400000    0.879578   -2.780020
     52          7           0        3.400000    2.000000   -1.989101
     53          1           0        3.400000    3.231071   -7.502550
     54          1           0        3.400000    0.768929   -7.502550
     55          1           0        3.400000    4.508027   -5.356475
     56          1           0        3.400000   -0.508027   -5.356475
     57         30           0        3.400000    2.000000   -0.000000
     58          6           0       -0.000000   -0.701663    6.554204
     59          6           0        0.000000    0.701663    6.554204
     60          6           0       -0.000000   -1.422571    5.364926
     61          6           0       -0.000000   -0.703967    4.174565
     62          6           0        0.000000    0.703967    4.174565
     63          6           0        0.000000    1.422571    5.364926
     64          6           0       -0.000000   -1.120422    2.780020
     65          6           0        0.000000    1.120422    2.780020
     66          7           0        0.000000   -0.000000    1.989101
     67          7           0        0.000000    2.390568    2.390568
     68          7           0       -0.000000   -2.390568    2.390568
     69          1           0       -0.000000   -1.231071    7.502550
     70          1           0        0.000000    1.231071    7.502550
     71          1           0       -0.000000   -2.508027    5.356475
     72          1           0        0.000000    2.508027    5.356475
     73          6           0       -0.000000   -6.554204   -0.701663
     74          6           0       -0.000000   -6.554204    0.701663
     75          6           0       -0.000000   -5.364926   -1.422571
     76          6           0       -0.000000   -4.174565   -0.703967
     77          6           0       -0.000000   -4.174565    0.703967
     78          6           0       -0.000000   -5.364926    1.422571
     79          6           0       -0.000000   -2.780020   -1.120422
     80          6           0       -0.000000   -2.780020    1.120422
     81          7           0       -0.000000   -1.989101    0.000000
     82          7           0       -0.000000   -2.390568   -2.390568
     83          1           0       -0.000000   -7.502550   -1.231071
     84          1           0       -0.000000   -7.502550    1.231071
     85          1           0       -0.000000   -5.356475   -2.508027
     86          1           0       -0.000000   -5.356475    2.508027
     87          6           0        0.000000    6.554204    0.701663
     88          6           0        0.000000    6.554204   -0.701663
     89          6           0        0.000000    5.364926    1.422571
     90          6           0        0.000000    4.174565    0.703967
     91          6           0        0.000000    4.174565   -0.703967
     92          6           0        0.000000    5.364926   -1.422571
     93          6           0        0.000000    2.780020    1.120422
     94          6           0        0.000000    2.780020   -1.120422
     95          7           0        0.000000    1.989101    0.000000
     96          7           0        0.000000    2.390568   -2.390568
     97          1           0        0.000000    7.502550    1.231071
     98          1           0        0.000000    7.502550   -1.231071
     99          1           0        0.000000    5.356475    2.508027
    100          1           0        0.000000    5.356475   -2.508027
    101          6           0        0.000000    0.701663   -6.554204
    102          6           0       -0.000000   -0.701663   -6.554204
    103          6           0        0.000000    1.422571   -5.364926
    104          6           0        0.000000    0.703967   -4.174565
    105          6           0       -0.000000   -0.703967   -4.174565
    106          6           0       -0.000000   -1.422571   -5.364926
    107          6           0        0.000000    1.120422   -2.780020
    108          6           0       -0.000000   -1.120422   -2.780020
    109          7           0       -0.000000   -0.000000   -1.989101
    110          1           0        0.000000    1.231071   -7.502550
    111          1           0       -0.000000   -1.231071   -7.502550
    112          1           0        0.000000    2.508027   -5.356475
    113          1           0       -0.000000   -2.508027   -5.356475
    114         30           0        0.000000    0.000000    0.000000
    115          6           0       -3.400000   -2.701663    6.554204
    116          6           0       -3.400000   -1.298337    6.554204
    117          6           0       -3.400000   -3.422571    5.364926
    118          6           0       -3.400000   -2.703967    4.174565
    119          6           0       -3.400000   -1.296033    4.174565
    120          6           0       -3.400000   -0.577429    5.364926
    121          6           0       -3.400000   -3.120422    2.780020
    122          6           0       -3.400000   -0.879578    2.780020
    123          7           0       -3.400000   -2.000000    1.989101
    124          7           0       -3.400000    0.390568    2.390568
    125          7           0       -3.400000   -4.390568    2.390568
    126          1           0       -3.400000   -3.231071    7.502550
    127          1           0       -3.400000   -0.768929    7.502550
    128          1           0       -3.400000   -4.508027    5.356475
    129          1           0       -3.400000    0.508027    5.356475
    130          6           0       -3.400000   -8.554204   -0.701663
    131          6           0       -3.400000   -8.554204    0.701663
    132          6           0       -3.400000   -7.364926   -1.422571
    133          6           0       -3.400000   -6.174565   -0.703967
    134          6           0       -3.400000   -6.174565    0.703967
    135          6           0       -3.400000   -7.364926    1.422571
    136          6           0       -3.400000   -4.780020   -1.120422
    137          6           0       -3.400000   -4.780020    1.120422
    138          7           0       -3.400000   -3.989101   -0.000000
    139          7           0       -3.400000   -4.390568   -2.390568
    140          1           0       -3.400000   -9.502550   -1.231071
    141          1           0       -3.400000   -9.502550    1.231071
    142          1           0       -3.400000   -7.356475   -2.508027
    143          1           0       -3.400000   -7.356475    2.508027
    144          6           0       -3.400000    4.554204    0.701663
    145          6           0       -3.400000    4.554204   -0.701663
    146          6           0       -3.400000    3.364926    1.422571
    147          6           0       -3.400000    2.174565    0.703967
    148          6           0       -3.400000    2.174565   -0.703967
    149          6           0       -3.400000    3.364926   -1.422571
    150          6           0       -3.400000    0.780020    1.120422
    151          6           0       -3.400000    0.780020   -1.120422
    152          7           0       -3.400000   -0.010899   -0.000000
    153          7           0       -3.400000    0.390568   -2.390568
    154          1           0       -3.400000    5.502550    1.231071
    155          1           0       -3.400000    5.502550   -1.231071
    156          1           0       -3.400000    3.356475    2.508027
    157          1           0       -3.400000    3.356475   -2.508027
    158          6           0       -3.400000   -1.298337   -6.554204
    159          6           0       -3.400000   -2.701663   -6.554204
    160          6           0       -3.400000   -0.577429   -5.364926
    161          6           0       -3.400000   -1.296033   -4.174565
    162          6           0       -3.400000   -2.703967   -4.174565
    163          6           0       -3.400000   -3.422571   -5.364926
    164          6           0       -3.400000   -0.879578   -2.780020
    165          6           0       -3.400000   -3.120422   -2.780020
    166          7           0       -3.400000   -2.000000   -1.989101
    167          1           0       -3.400000   -0.768929   -7.502550
    168          1           0       -3.400000   -3.231071   -7.502550
    169          1           0       -3.400000    0.508027   -5.356475
    170          1           0       -3.400000   -4.508027   -5.356475
    171         30           0       -3.400000   -2.000000   -0.000000
 ---------------------------------------------------------------------
 Rotational constants (GHZ):      0.0197585      0.0144767      0.0116725
 General basis read from cards:  (5D, 7F)
 There are   933 symmetry adapted cartesian basis functions of AG  symmetry.
 There are   856 symmetry adapted cartesian basis functions of BG  symmetry.
 There are   863 symmetry adapted cartesian basis functions of AU  symmetry.
 There are   921 symmetry adapted cartesian basis functions of BU  symmetry.
 There are   859 symmetry adapted basis functions of AG  symmetry.
 There are   799 symmetry adapted basis functions of BG  symmetry.
 There are   803 symmetry adapted basis functions of AU  symmetry.
 There are   851 symmetry adapted basis functions of BU  symmetry.
  3312 basis functions,  5619 primitive gaussians,  3573 cartesian basis functions
   441 alpha electrons      441 beta electrons
       nuclear repulsion energy     34637.9705534951 Hartrees.
 NAtoms=  171 NActive=  171 NUniq=   46 SFac= 4.00D+00 NAtFMM=   60 NAOKFM=T Big=F
 Integral buffers will be    131072 words long.
 Raffenetti 1 integral format.
 Two-electron integral symmetry is turned on.
 One-electron integrals computed using PRISM.
 NBasis=  3312 RedAO= T EigKep=  1.19D-06  NBF=   859   799   803   851
 NBsUse=  3308 1.00D-06 EigRej=  9.07D-07 NBFU=   859   797   801   851
 Initial guess from the checkpoint file:  "ZnPc3_34_20.chk"
 B after Tr=     0.000000    0.000000   -0.000000
         Rot=    1.000000    0.000000    0.000000    0.000000 Ang=   0.00 deg.
 Initial guess orbital symmetries:
       Occupied  (AG) (AG) (BU) (AG) (BU) (AG) (AG) (BU) (BU) (AG)
                 (BU) (BG) (AU) (BU) (AU) (AG) (BU) (BU) (AG) (BG)
                 (AU) (AG) (BU) (AG) (BU) (AU) (AG) (AG) (BU) (BG)
                 (AU) (BU) (AG) (AU) (BG) (AG) (BG) (AU) (BU) (BG)
                 (AU) (BU) (AG) (AU) (BG) (AG) (BU) (BG) (AU) (AG)
                 (BU) (AU) (BG) (AG) (BU) (AU) (BG) (AG) (BU) (BG)
                 (BU) (AG) (AU) (AU) (BG) (BU) (AG) (BU) (AG) (BG)
                 (AU) (BG) (AU) (BU) (AG) (BU) (AG) (BG) (AU) (BG)
                 (AU) (AU) (AG) (BG) (BU) (BU) (AG) (AU) (BG) (AG)
                 (BU) (AU) (AG) (BG) (BU) (BG) (BU) (AG) (BU) (AU)
                 (AG) (AU) (BG) (AU) (BG) (BU) (AG) (BG) (AU) (BU)
                 (AG) (AU) (AG) (BG) (BU) (AU) (AG) (BG) (BU) (BU)
                 (AG) (AG) (BU) (BG) (AU) (BG) (AU) (BU) (AG) (BG)
                 (AU) (AU) (AG) (BG) (BU) (AG) (BU) (AG) (BU) (AG)
                 (BU) (BU) (AG) (AU) (BG) (BU) (AU) (AG) (BU) (AG)
                 (BU) (AU) (AG) (BG) (BU) (AU) (AG) (BU) (AG) (BG)
                 (AU) (BG) (BU) (AG) (AU) (BG) (BU) (AU) (AG) (BU)
                 (AG) (BU) (AG) (AU) (AG) (BG) (BU) (AG) (BU) (BU)
                 (AG) (AU) (AG) (BG) (AU) (BG) (AG) (BU) (AG) (AU)
                 (BU) (BG) (AG) (BU) (AU) (AU) (BU) (BG) (AG) (BU)
                 (AU) (AG) (BU) (BG) (AG) (AU) (BG) (BG) (AU) (BG)
                 (BU) (AU) (BG) (AG) (AU) (BU) (AG) (BU) (AG) (BU)
                 (AG) (AG) (BU) (AU) (AG) (BG) (BU) (AU) (BG) (AU)
                 (AG) (BU) (BG) (AG) (AU) (BG) (BG) (AU) (BU) (AG)
                 (BG) (AU) (BU) (BG) (AU) (BG) (AG) (BU) (AG) (BU)
                 (AU) (BG) (AG) (BU) (AU) (BU) (AG) (BG) (AG) (AU)
                 (BU) (AG) (AU) (BU) (BU) (BG) (AU) (BG) (BG) (AU)
                 (AG) (BG) (BU) (AG) (AG) (BU) (AG) (AG) (BG) (AG)
                 (BU) (AU) (AU) (BU) (BG) (AG) (AU) (BU) (AG) (BG)
                 (BU) (AG) (AU) (BG) (BU) (AU) (BU) (AG) (BU) (BG)
                 (AG) (AU) (BG) (BG) (AG) (BU) (AG) (AG) (BU) (AU)
                 (BG) (AU) (BG) (BU) (AG) (BU) (AG) (AG) (BG) (AU)
                 (BG) (AG) (BU) (AU) (BU) (AU) (BG) (BG) (AG) (BG)
                 (AU) (BG) (BU) (AG) (BG) (AU) (BU) (AU) (BU) (AG)
                 (BU) (AG) (AG) (BU) (AU) (AG) (BG) (BG) (BU) (AU)
                 (AG) (AU) (BU) (AG) (AG) (BG) (AU) (BG) (BU) (BU)
                 (AG) (BG) (AU) (BU) (AU) (BU) (BG) (AG) (BG) (AU)
                 (BU) (AG) (BG) (AU) (BG) (BU) (AU) (BU) (AG) (AG)
                 (BU) (AG) (BU) (AU) (BG) (BU) (AG) (AU) (BU) (AG)
                 (BG) (AG) (AU) (BU) (AG) (BG) (BU) (AG) (AG) (AU)
                 (BU) (BG) (AU) (AG) (BU) (AU) (BG) (AU) (AU) (BG)
                 (BU) (BG) (BG) (BU) (AG) (AG) (AU) (BG) (AG) (AU)
                 (BU) (BG) (AU) (AG) (BU) (BU) (AU) (AG) (BG) (AG)
                 (BU) (AG) (BU) (AG) (BG) (AG) (BU) (BU) (AU) (BG)
                 (AU)
       Virtual   (AG) (BG) (AU) (BU) (BG) (AG) (AU) (BG) (AU) (BU)
                 (BU) (AG) (AG) (BU) (AG) (BU) (BG) (AU) (BU) (BG)
                 (AG) (AU) (AG) (BG) (BU) (AG) (BG) (AU) (BU) (AU)
                 (AG) (BG) (AG) (AG) (AU) (BU) (BU) (AG) (BU) (AG)
                 (BU) (AU) (BU) (BG) (AG) (BG) (BU) (BG) (AU) (AU)
                 (BU) (AG) (AU) (BU) (AG) (BU) (AU) (BG) (AG) (AG)
                 (AG) (BG) (BU) (AU) (BG) (BU) (AU) (BG) (AG) (BU)
                 (AU) (BG) (AG) (BG) (AU) (BU) (AG) (AU) (BG) (AG)
                 (BU) (BG) (AU) (AG) (BU) (BG) (AU) (AG) (BU) (AG)
                 (BU) (AG) (AU) (BG) (BU) (BU) (AU) (AG) (BG) (BG)
                 (AG) (BG) (AU) (BU) (AU) (BU) (AU) (BG) (AG) (BG)
                 (AU) (AU) (BG) (BU) (AU) (AG) (BG) (AG) (AU) (BG)
                 (BU) (AU) (BG) (AG) (BU) (AG) (AU) (BG) (AG) (AU)
                 (BU) (AU) (BG) (AG) (AG) (BU) (BU) (BG) (AG) (AU)
                 (BG) (BU) (BU) (BG) (AU) (AG) (BG) (AU) (BG) (BU)
                 (AU) (BU) (AG) (AU) (AG) (BG) (BU) (AU) (BU) (BG)
                 (AG) (AU) (BG) (BU) (AU) (AG) (BG) (BU) (BG) (AG)
                 (BU) (AU) (AG) (AU) (AU) (BU) (AG) (BG) (BU) (AG)
                 (AU) (BU) (BG) (AG) (BU) (AG) (BU) (AG) (BG) (AG)
                 (AU) (BU) (BU) (AU) (AG) (AG) (BG) (AG) (AG) (BU)
                 (AU) (BU) (AG) (AU) (BG) (AG) (AU) (BU) (BU) (BG)
                 (BG) (BU) (AG) (BG) (BU) (AG) (AU) (AU) (AG) (AU)
                 (AG) (BU) (BG) (BU) (AG) (BG) (BU) (AG) (AU) (AU)
                 (BU) (BG) (BG) (AU) (AU) (BU) (AG) (BG) (AU) (AG)
                 (BG) (BU) (AG) (BG) (AG) (AU) (BU) (BU) (AU) (BU)
                 (BG) (BG) (AG) (AG) (AU) (BG) (AG) (BU) (BU) (AG)
                 (BU) (AU) (BG) (AG) (BU) (BG) (BG) (BU) (AU) (AU)
                 (AG) (AU) (BG) (AG) (BU) (AU) (AG) (BG) (BU) (BG)
                 (AU) (AG) (BU) (BG) (AG) (AU) (BU) (BG) (AG) (AU)
                 (BU) (BG) (BU) (AU) (AG) (BG) (BU) (AU) (AU) (BG)
                 (AG) (AG) (BU) (AU) (BG) (AU) (BU) (BG) (BU) (AG)
                 (AG) (AU) (BU) (BG) (AU) (BU) (BG) (AG) (AG) (BG)
                 (BU) (AU) (AG) (AU) (BG) (BU) (AG) (BG) (AU) (BU)
                 (BG) (BG) (AU) (AG) (BU) (AU) (BG) (AU) (BU) (BG)
                 (AG) (BU) (AG) (AU) (BG) (AG) (BU) (AU) (BG) (AU)
                 (BU) (AU) (BG) (BU) (AU) (BU) (BG) (AG) (AG) (AG)
                 (BG) (AU) (BG) (AU) (BU) (BG) (AG) (AU) (BU) (AG)
                 (BU) (AG) (BG) (AU) (BG) (BU) (BG) (BU) (AG) (BU)
                 (AU) (AG) (AU) (BG) (BG) (AG) (AU) (AU) (BU) (BU)
                 (BG) (AU) (AG) (BU) (AG) (AG) (BG) (BU) (BG) (AU)
                 (AG) (BU) (AU) (AG) (BG) (BG) (AG) (AU) (BU) (BU)
                 (AU) (AG) (BG) (BU) (AG) (BG) (BU) (AU) (AG) (AU)
                 (BG) (AU) (BU) (BG) (BU) (AU) (BG) (AG) (AG) (BU)
                 (AU) (BG) (BU) (AG) (AU) (AG) (BG) (AG) (AU) (BU)
                 (BU) (AU) (BG) (BU) (AG) (AG) (BG) (AU) (BU) (AG)
                 (BG) (AU) (BG) (BU) (AG) (AU) (BG) (AG) (BU) (BG)
                 (AU) (AU) (BG) (AG) (AU) (BU) (AU) (BG) (AG) (BU)
                 (BU) (BG) (AG) (BU) (AU) (AG) (BG) (AU) (BG) (AU)
                 (AG) (BU) (AG) (BG) (BU) (AU) (BU) (AG) (AG) (BG)
                 (AU) (BU) (AG) (AU) (BU) (BG) (BU) (AU) (BG) (AG)
                 (BG) (BU) (AU) (AG) (BG) (AU) (BG) (AU) (BU) (BG)
                 (AG) (AU) (BU) (AG) (BG) (BU) (BG) (AU) (BU) (BG)
                 (AU) (BG) (AG) (AU) (AG) (AU) (AG) (BG) (BG) (BU)
                 (AU) (AG) (BU) (AG) (BU) (AU) (BG) (AU) (AG) (BU)
                 (BU) (AG) (AU) (BG) (AU) (AG) (BG) (BU) (AG) (BU)
                 (BG) (BU) (AU) (AG) (BG) (AG) (BU) (BG) (AU) (AG)
                 (BU) (AU) (BG) (AU) (AU) (BG) (BU) (AG) (BG) (BU)
                 (AG) (AU) (BG) (AU) (AG) (BU) (AU) (BG) (BG) (AG)
                 (BG) (AU) (BU) (AG) (AU) (BU) (BG) (BU) (AG) (AU)
                 (BU) (BG) (AG) (AU) (BU) (BG) (BG) (AU) (AG) (BU)
                 (AG) (BG) (AU) (BG) (BU) (BG) (BG) (BU) (AU) (AG)
                 (AG) (AU) (BU) (BU) (AU) (AG) (AG) (AG) (AU) (BU)
                 (BG) (AG) (BU) (AU) (BU) (BG) (AG) (AU) (BU) (AG)
                 (BG) (BU) (AU) (BG) (AU) (BU) (AU) (AG) (BG) (AG)
                 (BG) (AU) (BU) (BG) (BU) (AG) (AG) (BU) (BG) (BG)
                 (BU) (AU) (AG) (BU) (AU) (AG) (AU) (BU) (BG) (AU)
                 (BG) (BU) (AG) (BU) (AG) (BG) (BU) (AU) (AG) (AG)
                 (BG) (BG) (BU) (AG) (AU) (BG) (AU) (AU) (BG) (BG)
                 (BU) (AG) (AU) (BU) (BG) (AG) (BU) (AG) (AG) (AU)
                 (BG) (AU) (BU) (AU) (BU) (AG) (BG) (AG) (BU) (BG)
                 (BU) (BU) (AU) (AG) (AG) (BU) (BG) (AU) (AG) (BG)
                 (BU) (AG) (AG) (BU) (BU) (AU) (AG) (BG) (AG) (BU)
                 (AG) (AU) (AG) (BU) (AU) (AG) (BU) (BU) (AG) (BG)
                 (BU) (BG) (AG) (AU) (BU) (BG) (AG) (BU) (AU) (BU)
                 (BG) (BG) (BU) (AG) (AG) (BG) (AU) (BG) (AU) (BU)
                 (AG) (BU) (BU) (AU) (BU) (AG) (BG) (AU) (BG) (AU)
                 (BU) (AG) (AG) (AU) (BG) (AG) (BG) (BU) (AG) (BG)
                 (BU) (AG) (AU) (BU) (AG) (BG) (AU) (AG) (AU) (AG)
                 (BG) (BU) (AU) (AU) (BG) (BG) (BU) (AU) (BG) (AG)
                 (AU) (AU) (AG) (BU) (BG) (AG) (BU) (BG) (AU) (AG)
                 (AG) (BG) (BU) (BU) (AU) (BU) (AG) (BG) (AG) (BU)
                 (AU) (BG) (AU) (AU) (AG) (BG) (AG) (BU) (AU) (AU)
                 (BG) (BU) (BG) (AG) (BG) (AU) (BU) (BG) (AU) (BG)
                 (AG) (BU) (BG) (BU) (AU) (BU) (BG) (AG) (BU) (AU)
                 (BG) (AG) (BU) (AU) (AG) (BU) (AG) (AU) (BG) (BU)
                 (BG) (AU) (BU) (AG) (BU) (BG) (AU) (BU) (AG) (BG)
                 (BU) (BG) (AU) (AU) (AG) (AG) (AU) (BG) (BU) (AG)
                 (BG) (AU) (BG) (AU) (BU) (AG) (AU) (BG) (BG) (AU)
                 (BU) (AG) (AU) (AG) (BU) (AG) (AG) (AU) (BU) (BU)
                 (AG) (BU) (AG) (AG) (AU) (BU) (AG) (AU) (BG) (BG)
                 (BU) (AG) (BG) (BU) (BG) (AG) (BU) (AG) (AU) (BU)
                 (AG) (AU) (BU) (BG) (BU) (BG) (AU) (AG) (AG) (BG)
                 (AU) (AG) (AG) (AU) (BG) (AU) (AU) (BG) (BG) (BU)
                 (AG) (AU) (BG) (BU) (AG) (BU) (AG) (AU) (BG) (BU)
                 (BU) (BG) (AU) (AG) (BU) (AG) (BG) (AU) (BU) (AU)
                 (AG) (BG) (BU) (BG) (AG) (AU) (AU) (BU) (BG) (AG)
                 (AU) (BU) (BU) (BG) (AG) (AG) (AU) (BU) (BG) (AU)
                 (AG) (BG) (AG) (BU) (AU) (AG) (BG) (BU) (AG) (AU)
                 (BU) (BG) (BU) (AG) (BG) (AU) (BU) (AG) (BG) (BU)
                 (AU) (AU) (BU) (AG) (BG) (AG) (BU) (AG) (AU) (BG)
                 (AG) (AU) (AG) (BU) (AU) (BG) (BU) (AU) (BG) (BG)
                 (AU) (AG) (BG) (AU) (BG) (BU) (AG) (AU) (BU) (BU)
                 (AG) (BG) (AG) (BU) (AG) (AU) (BG) (BU) (AU) (BG)
                 (AG) (AU) (BU) (BG) (AU) (AG) (BG) (AU) (BU) (BU)
                 (AG) (AG) (AU) (BU) (BG) (BU) (AG) (AU) (BU) (AG)
                 (BG) (AG) (BG) (BU) (AU) (BG) (AG) (BU) (AG) (AU)
                 (BU) (AG) (BG) (AG) (BU) (AU) (BU) (BG) (AU) (AG)
                 (BU) (AG) (BU) (AU) (AG) (BU) (AU) (BG) (AG) (BG)
                 (BU) (AU) (BG) (BU) (AG) (AG) (AU) (BG) (AU) (BG)
                 (BG) (BU) (AG) (BU) (AG) (BU) (AG) (AU) (AG) (AU)
                 (BU) (BG) (AG) (BU) (AU) (BG) (AG) (BG) (BU) (AG)
                 (AU) (BU) (BG) (AU) (BU) (BG) (AG) (AG) (BU) (AU)
                 (BG) (AU) (BG) (AU) (BU) (BG) (BG) (AU) (BU) (AG)
                 (AU) (BG) (AG) (BU) (BG) (AG) (AU) (BU) (AU) (BG)
                 (BU) (AU) (AG) (BU) (AG) (BG) (AU) (BG) (AU) (BU)
                 (BU) (BG) (BG) (AG) (AG) (AU) (BU) (BG) (BG) (BU)
                 (AU) (AG) (BU) (AU) (AG) (AU) (BU) (AG) (BG) (BG)
                 (BU) (AU) (AG) (BG) (AU) (BG) (AU) (BG) (AG) (AU)
                 (BU) (AU) (BU) (BG) (AU) (AG) (BG) (AU) (BU) (AG)
                 (BU) (AU) (BG) (BG) (AG) (BU) (AG) (AU) (BG) (AG)
                 (BG) (BU) (AG) (AU) (BU) (AG) (AU) (BG) (BU) (AU)
                 (BG) (AG) (BU) (AU) (BG) (AG) (AU) (AG) (BU) (AG)
                 (AU) (AG) (BG) (BG) (BU) (BU) (AU) (BG) (AG) (AU)
                 (BU) (AU) (AG) (BG) (BU) (BG) (AU) (BU) (AG) (BG)
                 (BU) (AG) (BU) (AG) (AU) (BG) (BU) (AG) (AU) (BG)
                 (BU) (AG) (AU) (BG) (BG) (AU) (BU) (AG) (BU) (BG)
                 (BU) (AU) (AG) (BG) (AG) (BU) (BG) (BU) (AU) (AG)
                 (BG) (AG) (BU) (AG) (BU) (AG) (AU) (BU) (BG) (AU)
                 (AU) (AG) (BG) (BU) (AU) (BG) (AG) (AU) (AG) (AU)
                 (BG) (BU) (BG) (AG) (AU) (BU) (BG) (AU) (BG) (AU)
                 (AU) (BG) (BU) (BU) (AG) (AU) (AG) (BG) (BG) (AG)
                 (BG) (AU) (AG) (AU) (BG) (BU) (AU) (BU) (AG) (BG)
                 (AU) (BG) (AG) (BU) (AG) (AU) (AU) (BU) (AG) (BU)
                 (AG) (AU) (AG) (BU) (BG) (BU) (AG) (AU) (BG) (AG)
                 (BG) (AU) (AU) (BU) (BG) (BU) (AG) (AU) (AG) (AU)
                 (BG) (BG) (BU) (AU) (AU) (BG) (AU) (BG) (BG) (BU)
                 (BG) (AU) (AG) (BU) (BG) (AG) (AU) (BU) (BU) (AU)
                 (BG) (AG) (AG) (AU) (BG) (AG) (BG) (BU) (AU) (BG)
                 (AU) (AG) (BU) (BU) (AU) (BG) (AG) (BU) (AG) (AU)
                 (AG) (BG) (AU) (AG) (BU) (AG) (BU) (AU) (BU) (AG)
                 (BG) (BU) (AG) (AG) (AU) (BU) (BU) (AG) (AU) (BG)
                 (BG) (AG) (BU) (AU) (BG) (BU) (AG) (AU) (BG) (AG)
                 (AU) (AU) (BU) (BG) (BU) (AU) (AU) (BG) (BG) (AU)
                 (BU) (AG) (BU) (AU) (BG) (AG) (BG) (AG) (AG) (BU)
                 (AG) (BU) (BG) (AU) (BU) (BG) (AG) (AU) (BG) (AG)
                 (AU) (BG) (BU) (AU) (BG) (BU) (AG) (BG) (BU) (AG)
                 (AU) (BG) (AU) (AG) (BG) (AU) (AU) (BG) (BU) (BG)
                 (AU) (BU) (BG) (AG) (AU) (BU) (BG) (AU) (BG) (BU)
                 (AG) (AG) (BU) (AG) (BG) (AU) (BU) (AU) (BU) (AG)
                 (AU) (BG) (AG) (BG) (BU) (AG) (BG) (AU) (BU) (AU)
                 (BU) (AG) (AG) (BG) (AU) (BU) (AG) (BG) (AU) (BU)
                 (AU) (BG) (AU) (BG) (BG) (BU) (BG) (AU) (AG) (AU)
                 (BU) (AG) (BU) (AG) (BU) (AG) (AG) (BG) (AU) (BG)
                 (BG) (AU) (BG) (BU) (AU) (AG) (BG) (BU) (AU) (BG)
                 (AU) (BG) (BU) (AG) (AU) (BG) (BU) (AU) (AU) (BG)
                 (BG) (BU) (AG) (BU) (AU) (BG) (AU) (BU) (AG) (BU)
                 (BU) (AG) (AU) (BG) (BU) (AU) (BU) (AG) (AU) (BG)
                 (BU) (AU) (AG) (AG) (AG) (AG) (AG) (AG) (AG) (AG)
                 (AG) (AG) (AG) (AG) (AG) (AG) (AG) (AG) (AG) (AG)
                 (AG) (AG) (AG) (AG) (AG) (AG) (AG) (AG) (AG) (AG)
                 (AG) (AG) (AG) (AG) (AG) (AG) (AG) (AG) (AG) (AG)
                 (AG) (AG) (AG) (AG) (AG) (AG) (AG) (AG) (AG) (AG)
                 (AG) (AG) (AG) (AG) (AG) (AG) (AG) (AG) (AG) (AG)
                 (AG) (AG) (AG) (AG) (AG) (AG) (AG) (AG) (AG) (AG)
                 (AG) (AG) (AG) (AG) (AG) (AG) (AG) (AG) (AG) (AG)
                 (AG) (AG) (AG) (AG) (AG) (AG) (AG) (AG) (AG) (AG)
                 (AG) (AG) (AG) (AG) (AG) (AG) (AG) (AG) (AG) (AG)
                 (AG) (AG) (AG) (AG) (AG) (AG) (AG) (AG) (AG) (AG)
                 (AG) (AG) (AG) (AG) (AG) (AG) (AG) (AG) (AG) (AG)
                 (AG) (AG) (AG) (AG) (AG) (AG) (AG) (AG) (AG) (AG)
                 (AG) (AG) (AG) (AG) (AG) (AG) (AG) (AG) (AG) (AG)
                 (AG) (AG) (AG) (AG) (AG) (AG) (AG) (AG) (AG) (AG)
                 (AG) (AG) (AG) (AG) (AG) (AG) (AG) (AG) (AG) (AG)
                 (AG) (AG) (AG) (AG) (AG) (AG) (AG) (AG) (AG) (AG)
                 (AG) (AG) (AG) (AG) (AG) (AG) (AG) (AG) (AG) (AG)
                 (AG) (AG) (AG) (AG) (AG) (AG) (AG) (AG) (AG) (AG)
                 (AG) (AG) (AG) (AG) (AG) (AG) (AG) (AG) (AG) (AG)
                 (AG) (AG) (AG) (AG) (AG) (AG) (AG) (AG) (AG) (AG)
                 (AG) (AG) (AG) (AG) (AG) (AG) (AG) (AG) (AG) (AG)
                 (AG) (AG) (AG) (AG) (AG) (AG) (AG) (AG) (AG) (AG)
                 (AG) (AG) (AG) (AG) (AG) (AG) (AG) (AG) (AG) (AG)
                 (AG) (AG) (AG) (AG) (AG) (AG) (AG) (AG) (AG) (AG)
                 (AG) (AG) (AG) (AG) (AG) (AG) (AG) (AG) (AG) (AG)
                 (AG) (AG) (AG) (AG) (AG) (AG) (AG) (AG) (AG) (AG)
                 (AG) (AG) (AG) (AG) (AG) (AG) (AG) (AG) (AG) (AG)
                 (AG) (AG) (AG) (AG) (AG) (AG) (AG) (AG) (AG) (AG)
                 (AG) (AG) (AG) (AG) (AG) (AG) (AG) (AG) (AG) (AG)
                 (AG) (AG) (AG) (AG) (AG) (AG) (AG) (AG) (AG) (AG)
                 (AG) (AG) (AG) (AG) (AG) (AG) (AG) (AG) (AG) (AG)
                 (AG) (AG) (AG) (AG) (AG) (AG) (AG) (AG) (AG) (AG)
                 (AG) (AG) (AG) (AG) (AG) (AG) (AG) (AG) (AG) (BG)
                 (BG) (BG) (BG) (BG) (BG) (BG) (BG) (BG) (BG) (BG)
                 (BG) (BG) (BG) (BG) (BG) (BG) (BG) (BG) (BG) (BG)
                 (BG) (BG) (BG) (BG) (BG) (BG) (BG) (BG) (BG) (BG)
                 (BG) (BG) (BG) (BG) (BG) (BG) (BG) (BG) (BG) (BG)
                 (BG) (BG) (BG) (BG) (BG) (BG) (BG) (BG) (BG) (BG)
                 (BG) (BG) (BG) (BG) (BG) (BG) (BG) (BG) (BG) (BG)
                 (BG) (BG) (BG) (BG) (BG) (BG) (BG) (BG) (BG) (BG)
                 (BG) (BG) (BG) (BG) (BG) (BG) (BG) (BG) (BG) (BG)
                 (BG) (BG) (BG) (BG) (BG) (BG) (BG) (BG) (BG) (BG)
                 (BG) (BG) (BG) (BG) (BG) (BG) (BG) (BG) (BG) (BG)
                 (BG) (BG) (BG) (BG) (BG) (BG) (BG) (BG) (BG) (BG)
                 (BG) (BG) (BG) (BG) (BG) (BG) (BG) (BG) (BG) (BG)
                 (BG) (BG) (BG) (BG) (BG) (BG) (BG) (BG) (BG) (BG)
                 (BG) (BG) (BG) (BG) (BG) (BG) (BG) (BG) (BG) (BG)
                 (BG) (BG) (BG) (BG) (BG) (BG) (BG) (BG) (BG) (BG)
                 (BG) (BG) (BG) (BG) (BG) (BG) (BG) (BG) (BG) (BG)
                 (BG) (BG) (BG) (BG) (BG) (BG) (BG) (BG) (BG) (BG)
                 (BG) (BG) (BG) (BG) (BG) (BG) (BG) (BG) (BG) (BG)
                 (BG) (BG) (BG) (BG) (BG) (BG) (BG) (BG) (BG) (BG)
                 (BG) (BG) (BG) (BG) (BG) (BG) (BG) (BG) (BG) (BG)
                 (BG) (BG) (BG) (BG) (BG) (BG) (BG) (BG) (BG) (BG)
                 (BG) (BG) (BG) (BG) (BG) (BG) (BG) (BG) (BG) (BG)
                 (BG) (BG) (BG) (BG) (BG) (BG) (BG) (BG) (BG) (BG)
                 (BG) (BG) (BG) (BG) (BG) (BG) (BG) (BG) (BG) (BG)
                 (BG) (BG) (BG) (BG) (BG) (BG) (BG) (BG) (BG) (BG)
                 (BG) (BG) (BG) (BG) (BG) (BG) (BG) (BG) (BG) (BG)
                 (BG) (BG) (BG) (BG) (BG) (BG) (BG) (BG) (BG) (BG)
                 (BG) (BG) (BG) (BG) (BG) (BG) (BG) (BG) (BG) (BG)
                 (BG) (BG) (BG) (BG) (BG) (BG) (BG) (BG) (BG) (BG)
                 (BG) (BG) (BG) (BG) (BG) (BG) (BG) (BG) (BG) (BG)
                 (BG) (BG) (BG) (BG) (BG) (BG) (BG) (BG) (BG) (BG)
                 (BG) (BG) (AU) (AU) (AU) (AU) (AU) (AU) (AU) (AU)
                 (AU) (AU) (AU) (AU) (AU) (AU) (AU) (AU) (AU) (AU)
                 (AU) (AU) (AU) (AU) (AU) (AU) (AU) (AU) (AU) (AU)
                 (AU) (AU) (AU) (AU) (AU) (AU) (AU) (AU) (AU) (AU)
                 (AU) (AU) (AU) (AU) (AU) (AU) (AU) (AU) (AU) (AU)
                 (AU) (AU) (AU) (AU) (AU) (AU) (AU) (AU) (AU) (AU)
                 (AU) (AU) (AU) (AU) (AU) (AU) (AU) (AU) (AU) (AU)
                 (AU) (AU) (AU) (AU) (AU) (AU) (AU) (AU) (AU) (AU)
                 (AU) (AU) (AU) (AU) (AU) (AU) (AU) (AU) (AU) (AU)
                 (AU) (AU) (AU) (AU) (AU) (AU) (AU) (AU) (AU) (AU)
                 (AU) (AU) (AU) (AU) (AU) (AU) (AU) (AU) (AU) (AU)
                 (AU) (AU) (AU) (AU) (AU) (AU) (AU) (AU) (AU) (AU)
                 (AU) (AU) (AU) (AU) (AU) (AU) (AU) (AU) (AU) (AU)
                 (AU) (AU) (AU) (AU) (AU) (AU) (AU) (AU) (AU) (AU)
                 (AU) (AU) (AU) (AU) (AU) (AU) (AU) (AU) (AU) (AU)
                 (AU) (AU) (AU) (AU) (AU) (AU) (AU) (AU) (AU) (AU)
                 (AU) (AU) (AU) (AU) (AU) (AU) (AU) (AU) (AU) (AU)
                 (AU) (AU) (AU) (AU) (AU) (AU) (AU) (AU) (AU) (AU)
                 (AU) (AU) (AU) (AU) (AU) (AU) (AU) (AU) (AU) (AU)
                 (AU) (AU) (AU) (AU) (AU) (AU) (AU) (AU) (AU) (AU)
                 (AU) (AU) (AU) (AU) (AU) (AU) (AU) (AU) (AU) (AU)
                 (AU) (AU) (AU) (AU) (AU) (AU) (AU) (AU) (AU) (AU)
                 (AU) (AU) (AU) (AU) (AU) (AU) (AU) (AU) (AU) (AU)
                 (AU) (AU) (AU) (AU) (AU) (AU) (AU) (AU) (AU) (AU)
                 (AU) (AU) (AU) (AU) (AU) (AU) (AU) (AU) (AU) (AU)
                 (AU) (AU) (AU) (AU) (AU) (AU) (AU) (AU) (AU) (AU)
                 (AU) (AU) (AU) (AU) (AU) (AU) (AU) (AU) (AU) (AU)
                 (AU) (AU) (AU) (AU) (AU) (AU) (AU) (AU) (AU) (AU)
                 (AU) (AU) (AU) (AU) (AU) (AU) (AU) (AU) (AU) (AU)
                 (AU) (AU) (AU) (AU) (AU) (AU) (AU) (AU) (AU) (AU)
                 (AU) (AU) (AU) (AU) (AU) (AU) (AU) (AU) (AU) (AU)
                 (AU) (AU) (AU) (AU) (AU) (BU) (BU) (BU) (BU) (BU)
                 (BU) (BU) (BU) (BU) (BU) (BU) (BU) (BU) (BU) (BU)
                 (BU) (BU) (BU) (BU) (BU) (BU) (BU) (BU) (BU) (BU)
                 (BU) (BU) (BU) (BU) (BU) (BU) (BU) (BU) (BU) (BU)
                 (BU) (BU) (BU) (BU) (BU) (BU) (BU) (BU) (BU) (BU)
                 (BU) (BU) (BU) (BU) (BU) (BU) (BU) (BU) (BU) (BU)
                 (BU) (BU) (BU) (BU) (BU) (BU) (BU) (BU) (BU) (BU)
                 (BU) (BU) (BU) (BU) (BU) (BU) (BU) (BU) (BU) (BU)
                 (BU) (BU) (BU) (BU) (BU) (BU) (BU) (BU) (BU) (BU)
                 (BU) (BU) (BU) (BU) (BU) (BU) (BU) (BU) (BU) (BU)
                 (BU) (BU) (BU) (BU) (BU) (BU) (BU) (BU) (BU) (BU)
                 (BU) (BU) (BU) (BU) (BU) (BU) (BU) (BU) (BU) (BU)
                 (BU) (BU) (BU) (BU) (BU) (BU) (BU) (BU) (BU) (BU)
                 (BU) (BU) (BU) (BU) (BU) (BU) (BU) (BU) (BU) (BU)
                 (BU) (BU) (BU) (BU) (BU) (BU) (BU) (BU) (BU) (BU)
                 (BU) (BU) (BU) (BU) (BU) (BU) (BU) (BU) (BU) (BU)
                 (BU) (BU) (BU) (BU) (BU) (BU) (BU) (BU) (BU) (BU)
                 (BU) (BU) (BU) (BU) (BU) (BU) (BU) (BU) (BU) (BU)
                 (BU) (BU) (BU) (BU) (BU) (BU) (BU) (BU) (BU) (BU)
                 (BU) (BU) (BU) (BU) (BU) (BU) (BU) (BU) (BU) (BU)
                 (BU) (BU) (BU) (BU) (BU) (BU) (BU) (BU) (BU) (BU)
                 (BU) (BU) (BU) (BU) (BU) (BU) (BU) (BU) (BU) (BU)
                 (BU) (BU) (BU) (BU) (BU) (BU) (BU) (BU) (BU) (BU)
                 (BU) (BU) (BU) (BU) (BU) (BU) (BU) (BU) (BU) (BU)
                 (BU) (BU) (BU) (BU) (BU) (BU) (BU) (BU) (BU) (BU)
                 (BU) (BU) (BU) (BU) (BU) (BU) (BU) (BU) (BU) (BU)
                 (BU) (BU) (BU) (BU) (BU) (BU) (BU) (BU) (BU) (BU)
                 (BU) (BU) (BU) (BU) (BU) (BU) (BU) (BU) (BU) (BU)
                 (BU) (BU) (BU) (BU) (BU) (BU) (BU) (BU) (BU) (BU)
                 (BU) (BU) (BU) (BU) (BU) (BU) (BU) (BU) (BU) (BU)
                 (BU) (BU) (BU) (BU) (BU) (BU) (BU) (BU) (BU) (BU)
                 (BU) (BU) (BU) (BU) (BU) (BU) (BU) (BU) (BU) (BU)
                 (BU) (BU) (BU) (BU) (BU) (BU) (BU) (BU) (BU) (BU)
                 (BU) (BU) (BU) (BU) (BU) (BU) (BU)
 Requested convergence on RMS density matrix=1.00D-08 within 128 cycles.
 Requested convergence on MAX density matrix=1.00D-06.
 Requested convergence on             energy=1.00D-06.
 No special actions if energy rises.
 SCF Done:  E(RLC-B+HF-LYP) =  -10327.7868166     A.U. after   17 cycles
            NFock= 17  Conv=0.51D-08     -V/T= 2.0025
 ExpMin= 4.78D-02 ExpMax= 4.06D+05 ExpMxC= 3.92D+03 IAcc=3 IRadAn=         5 AccDes= 0.00D+00
 HarFok:  IExCor=  205 AccDes= 0.00D+00 IRadAn=         5 IDoV=-2 UseB2=F ITyADJ=14
 ICtDFT= 12500011 ScaDFX=  1.000000  1.000000  1.000000  1.000000
 Range of M.O.s used for correlation:   148  3308
 NBasis=  3312 NAE=   441 NBE=   441 NFC=   147 NFV=     0
 NROrb=   3161 NOA=   294 NOB=   294 NVA=  2867 NVB=  2867

 **** Warning!!: The largest alpha MO coefficient is  0.37308940D+02

 Would need an additional      37616728100000 words for in-memory AO integral storage.
 Orbital symmetries:
       Occupied  (BU) (AG) (AG) (BU) (AG) (AG) (AG) (BU) (BU) (AG)
                 (BU) (BG) (AU) (BU) (AU) (BU) (AG) (BU) (AG) (AG)
                 (BG) (BU) (AU) (AG) (BU) (AG) (AU) (BG) (AU) (BU)
                 (AG) (BG) (AU) (BU) (AG) (BG) (AU) (BU) (AG) (AU)
                 (BG) (BU) (AG) (BG) (AU) (BU) (AG) (BG) (AU) (BU)
                 (AG) (AU) (BG) (AG) (BU) (BG) (AU) (BU) (AG) (BG)
                 (BU) (AU) (AG) (BU) (AG) (BG) (AU) (BU) (AG) (AU)
                 (BG) (BU) (AG) (BG) (AU) (BG) (AU) (BU) (AG) (BG)
                 (AU) (BU) (AG) (BU) (AG) (BG) (AU) (BU) (AG) (BU)
                 (AG) (BG) (AU) (BG) (AU) (AU) (AG) (BG) (BU) (AU)
                 (AG) (BG) (BU) (AG) (AU) (BU) (BG) (BG) (AU) (BU)
                 (AG) (BG) (BU) (AU) (AG) (BU) (BG) (AU) (AG) (BG)
                 (AU) (BU) (AG) (BU) (AG) (BG) (AU) (AU) (AG) (BG)
                 (BU) (BU) (AG) (AU) (BG) (BU) (AG) (AG) (AG) (BU)
                 (BU) (AG) (BU) (BG) (AU) (BU) (AU) (AG) (BU) (AG)
                 (BU) (AU) (AG) (BG) (BU) (AU) (AG) (BU) (AG) (BG)
                 (AU) (BG) (BU) (AG) (AU) (BG) (BU) (AU) (AG) (BU)
                 (AG) (BU) (AG) (AU) (AG) (BG) (BU) (AG) (BU) (BU)
                 (AG) (AU) (AG) (BG) (AU) (BG) (AG) (BU) (AU) (AG)
                 (BG) (BU) (AG) (BU) (AU) (AU) (BU) (BG) (AG) (BU)
                 (AG) (AU) (BU) (BG) (AG) (AU) (BG) (BG) (AU) (BG)
                 (BU) (AU) (BG) (AG) (AU) (BU) (AG) (BU) (AG) (BU)
                 (AG) (AG) (BU) (AU) (AG) (BG) (BU) (AU) (BG) (AU)
                 (BG) (AG) (BU) (AG) (AU) (BG) (BU) (AG) (BG) (AU)
                 (AU) (BU) (BG) (BG) (AU) (BG) (AG) (BU) (AG) (AU)
                 (BG) (BU) (AG) (BU) (AU) (BU) (AG) (AG) (BG) (AU)
                 (BU) (AG) (AU) (BU) (BU) (BG) (AU) (BG) (AU) (BG)
                 (AG) (BG) (BU) (AG) (BU) (AG) (AG) (AG) (BG) (AG)
                 (BU) (AU) (AU) (BU) (BG) (AG) (AU) (BU) (AG) (BG)
                 (BU) (AG) (AU) (BG) (BU) (AU) (BU) (AG) (BG) (AU)
                 (BU) (AG) (BG) (BG) (AG) (BU) (AG) (BU) (AG) (AU)
                 (BG) (AU) (BG) (BU) (AG) (BU) (AG) (AG) (BG) (AU)
                 (BG) (AG) (BU) (AU) (BU) (AU) (BG) (BG) (AG) (BG)
                 (AU) (BG) (BU) (AG) (BG) (AU) (BU) (AU) (BU) (AG)
                 (BU) (AG) (AG) (BU) (AU) (AG) (BG) (BG) (BU) (AU)
                 (AG) (AU) (BU) (AG) (AG) (BG) (AU) (BG) (BU) (AG)
                 (BU) (BG) (AU) (AU) (BU) (BU) (BG) (AG) (AU) (BU)
                 (BG) (AU) (AG) (BG) (BG) (BU) (AU) (BU) (AG) (AG)
                 (BU) (AG) (BU) (AU) (BG) (BU) (AU) (AG) (BU) (AG)
                 (BG) (AG) (AU) (BU) (AG) (BG) (BU) (AG) (AG) (AU)
                 (BU) (BG) (AG) (AU) (BU) (AU) (BG) (AU) (BG) (AU)
                 (BG) (BU) (BG) (BU) (AG) (AG) (AU) (BG) (AU) (AG)
                 (BU) (BG) (BU) (AG) (AG) (AU) (BU) (AG) (AU) (BG)
                 (BU) (AG) (BU) (AG) (AG) (BG) (BU) (BU) (AU) (BG)
                 (AU)
       Virtual   (AG) (BG) (AU) (BU) (BG) (AG) (AU) (BG) (BU) (BU)
                 (AU) (AG) (AG) (BU) (AG) (BU) (BG) (AU) (BU) (AG)
                 (BG) (BU) (AG) (AU) (BG) (AG) (AU) (BU) (AG) (BG)
                 (AU) (BU) (AG) (BG) (AG) (BG) (AU) (BU) (AG) (BU)
                 (AU) (BG) (AG) (BU) (AU) (BU) (BU) (AG) (BU) (AG)
                 (AU) (BG) (AG) (BU) (BG) (AU) (AG) (BU) (AU) (AG)
                 (BG) (BU) (AU) (AG) (BG) (AU) (BU) (BG) (BU) (BG)
                 (AU) (BU) (AG) (BG) (AU) (AG) (AU) (BU) (AG) (BG)
                 (BU) (BG) (AG) (AU) (AG) (AU) (AG) (AG) (BU) (BG)
                 (AG) (AU) (BU) (AU) (BG) (BU) (AG) (BU) (AG) (BU)
                 (BG) (BG) (AG) (AU) (BU) (BG) (AU) (BU) (AG) (BG)
                 (AU) (AU) (AG) (BG) (BU) (AG) (BG) (BU) (AG) (BU)
                 (AU) (BU) (BG) (AG) (AU) (AG) (AU) (BU) (BG) (AU)
                 (AG) (BG) (BG) (AU) (BG) (BU) (AG) (BU) (AU) (AU)
                 (AG) (BG) (BU) (AU) (AG) (BU) (AG) (AU) (BU) (AG)
                 (BG) (BG) (AU) (AG) (BU) (BU) (AU) (AG) (AU) (AG)
                 (BG) (AU) (BU) (BG) (BU) (BG) (AG) (AU) (AG) (BU)
                 (BG) (AU) (AG) (BG) (BU) (AG) (BG) (BU) (AG) (AU)
                 (AU) (BU) (AG) (BG) (AU) (BG) (AU) (BU) (BG) (AG)
                 (BU) (BG) (AU) (AU) (BU) (AG) (BG) (AG) (BG) (BU)
                 (AG) (BU) (AU) (BU) (BG) (AU) (AG) (BG) (AU) (BU)
                 (AU) (BG) (AG) (AU) (AG) (BU) (BG) (BG) (BU) (AG)
                 (AG) (BU) (AU) (BG) (BU) (AU) (AG) (AG) (BU) (BG)
                 (BG) (BU) (AU) (AG) (BU) (BU) (AU) (AG) (BU) (AG)
                 (BG) (AG) (AG) (BU) (AU) (BG) (AG) (BU) (AG) (BU)
                 (AU) (BU) (AU) (BU) (BG) (AG) (AG) (BG) (BU) (AU)
                 (AG) (BG) (AU) (BU) (AG) (BG) (AU) (AG) (BU) (BG)
                 (AU) (AG) (AU) (AU) (BU) (BG) (AG) (AU) (BU) (AG)
                 (BG) (BU) (AG) (BG) (BU) (AU) (AG) (AG) (BG) (AU)
                 (BU) (BU) (BG) (AG) (BU) (AU) (BU) (AG) (AG) (BU)
                 (BG) (AG) (AU) (BG) (BU) (AG) (BG) (BU) (AG) (AU)
                 (AU) (AG) (BG) (BU) (BU) (AU) (AG) (BG) (AU) (AG)
                 (AU) (AG) (BU) (BG) (BU) (BG) (AU) (BG) (BU) (AG)
                 (AG) (AU) (BG) (BU) (BU) (BU) (BG) (BG) (AU) (AG)
                 (AU) (AG) (BU) (AU) (AU) (BG) (AG) (BG) (AU) (BG)
                 (BU) (BG) (AG) (BU) (AU) (BG) (AG) (AG) (AU) (BU)
                 (BG) (AU) (BG) (AG) (BU) (BU) (AG) (AU) (BG) (AG)
                 (BU) (BU) (BG) (BU) (AU) (AG) (AU) (BG) (BU) (AU)
                 (BG) (AG) (AU) (BU) (BG) (AG) (AU) (BU) (AU) (BG)
                 (BU) (AG) (BG) (AU) (AG) (BU) (BG) (AU) (BU) (AG)
                 (AU) (BU) (BG) (AU) (BG) (AG) (AG) (BG) (BU) (AU)
                 (BG) (BU) (AU) (BU) (BG) (AG) (AU) (AG) (AU) (BG)
                 (BG) (BU) (AG) (AU) (BG) (BU) (AG) (AU) (BG) (AU)
                 (AG) (BG) (AG) (AU) (BU) (BU) (BG) (BG) (AU) (AG)
                 (BU) (BU) (AG) (AU) (BG) (BU) (BG) (AU) (BG) (AU)
                 (BU) (BG) (AG) (AU) (BU) (AG) (BU) (AU) (BG) (BU)
                 (BG) (BG) (AG) (BU) (AG) (AU) (AG) (AU) (BU) (AG)
                 (BG) (AU) (AU) (BU) (AG) (BG) (BU) (BG) (AG) (BU)
                 (BG) (AU) (AG) (BU) (AU) (BG) (BU) (AU) (AG) (AU)
                 (BG) (AG) (BG) (BU) (AU) (AG) (BG) (AU) (AG) (BU)
                 (BG) (AU) (AG) (BU) (BU) (AG) (AU) (BG) (BU) (AG)
                 (AG) (BG) (AU) (BG) (BU) (AG) (BU) (AU) (AG) (BG)
                 (AU) (BU) (AG) (BU) (BG) (AU) (BG) (AG) (BU) (BU)
                 (AG) (AU) (AG) (AU) (BG) (BG) (AG) (BU) (AU) (AU)
                 (BU) (AG) (BG) (AU) (BU) (AU) (BG) (AG) (BU) (AU)
                 (AG) (BG) (BG) (BU) (AG) (AU) (BU) (BG) (AG) (AG)
                 (BU) (AU) (BU) (AU) (BG) (BU) (AG) (AU) (AG) (BG)
                 (AG) (BU) (BG) (BU) (AU) (AU) (AG) (BU) (BG) (AU)
                 (AG) (BU) (AG) (BG) (BG) (BU) (AG) (BG) (BG) (AG)
                 (BU) (BU) (AU) (AG) (BU) (BG) (AU) (AU) (AG) (BG)
                 (BU) (AG) (AU) (BU) (BU) (BG) (AU) (AG) (AU) (BU)
                 (BG) (AG) (BG) (AU) (AG) (AG) (BU) (BG) (AG) (BU)
                 (BG) (AG) (AU) (BU) (BG) (AU) (AG) (BG) (BU) (BG)
                 (AU) (AU) (BU) (AG) (BG) (BU) (AU) (BU) (AG) (BU)
                 (BG) (AU) (AG) (AU) (BG) (AU) (BG) (AU) (BU) (AG)
                 (BU) (BG) (AG) (AU) (AG) (BG) (BU) (BG) (AU) (AG)
                 (BG) (BU) (BU) (AG) (AU) (AG) (AU) (BU) (AU) (BG)
                 (AG) (BU) (AU) (BG) (BG) (AG) (AU) (BU) (AU) (BG)
                 (AG) (BU) (AU) (BG) (BU) (AG) (BU) (AU) (AG) (AG)
                 (BU) (BG) (AU) (AU) (BG) (BU) (AG) (AG) (BG) (BG)
                 (BU) (AU) (AG) (BU) (BG) (BU) (BU) (BG) (AU) (AG)
                 (AG) (BU) (BG) (AU) (BU) (AG) (AU) (BG) (AG) (AU)
                 (BU) (BG) (AG) (AU) (BU) (AG) (BU) (BG) (AG) (BU)
                 (AU) (BU) (BU) (AG) (AU) (BG) (AG) (BG) (BU) (BG)
                 (AG) (BU) (AG) (AG) (BU) (AU) (AU) (BG) (AU) (BU)
                 (BG) (AG) (AG) (BG) (BU) (BG) (AU) (BU) (AG) (BG)
                 (AU) (BU) (BG) (AU) (AG) (AU) (AG) (BU) (BG) (AU)
                 (BU) (AG) (BG) (AG) (BU) (AU) (BU) (AU) (AG) (BG)
                 (AG) (BG) (AU) (BU) (BG) (AU) (BU) (AG) (AU) (BU)
                 (BG) (AU) (AG) (AG) (BU) (BG) (BU) (BG) (BU) (AG)
                 (AU) (BG) (AG) (BU) (AU) (BG) (AG) (AU) (BG) (BU)
                 (AG) (AU) (BU) (AG) (BG) (AG) (BU) (BG) (AU) (BU)
                 (AU) (AG) (BU) (AG) (BG) (BG) (AU) (AG) (AU) (BU)
                 (BG) (BU) (AU) (AG) (BG) (BG) (BU) (AG) (AU) (BU)
                 (BG) (BU) (AG) (AG) (BU) (AU) (BG) (AU) (BU) (AG)
                 (AU) (BU) (AG) (BG) (AU) (AG) (BU) (AG) (BU) (AU)
                 (AG) (BG) (BU) (BG) (AU) (AU) (BG) (BU) (AG) (AG)
                 (AG) (BG) (BU) (AG) (AU) (AU) (BG) (AG) (BU) (BG)
                 (AU) (BU) (BG) (AG) (AG) (BU) (AU) (BU) (AG) (BG)
                 (AU) (AG) (BU) (BG) (AU) (BU) (AG) (BG) (AG) (AU)
                 (BU) (AU) (AG) (BU) (BG) (AU) (BU) (BG) (AG) (BG)
                 (AG) (BU) (BG) (AU) (AG) (BG) (BU) (AU) (AU) (BG)
                 (AG) (BU) (BG) (AU) (BG) (AG) (AU) (BU) (AU) (BG)
                 (BU) (AG) (BU) (BG) (AG) (AU) (BG) (AG) (AU) (BU)
                 (BU) (BG) (AG) (AU) (AU) (AG) (BU) (BG) (AG) (AU)
                 (BU) (AU) (BG) (BU) (BG) (AG) (AU) (AG) (BU) (BG)
                 (AU) (BU) (BU) (BG) (AU) (AG) (BG) (BG) (AG) (BU)
                 (AU) (AG) (AG) (BG) (AU) (BU) (AG) (BU) (BG) (AU)
                 (AG) (BU) (AU) (BU) (BG) (AG) (AU) (AG) (AU) (AG)
                 (BU) (AG) (BG) (AU) (BU) (AU) (BG) (AU) (AG) (BU)
                 (BU) (BG) (AU) (BG) (AG) (BG) (AG) (BU) (BU) (BG)
                 (AG) (AU) (AG) (BG) (BU) (BU) (AU) (BG) (AG) (AU)
                 (AG) (BU) (BU) (AG) (AU) (BG) (AU) (BG) (AG) (BU)
                 (AU) (BG) (BU) (AG) (BG) (AU) (AG) (BU) (AU) (BG)
                 (AG) (AU) (BU) (BG) (AG) (AU) (BU) (AG) (AU) (BU)
                 (AG) (BG) (BU) (BG) (BU) (AU) (BG) (AG) (BU) (AG)
                 (AU) (AG) (AU) (BU) (BG) (BG) (AG) (BU) (AG) (AU)
                 (AG) (BU) (BG) (BU) (BG) (AG) (AU) (BU) (AG) (BG)
                 (BU) (AU) (BU) (BG) (AG) (AU) (BG) (BU) (BU) (AG)
                 (AU) (BG) (AG) (BG) (AU) (AG) (BU) (BG) (AU) (AG)
                 (AU) (BU) (BU) (AU) (AG) (BG) (BG) (BG) (BU) (AG)
                 (AU) (BU) (BG) (AU) (BU) (AU) (AG) (AG) (AU) (AG)
                 (BG) (BU) (AU) (BU) (BG) (AG) (BU) (AU) (BG) (AG)
                 (AU) (AG) (BG) (BU) (AU) (BG) (AU) (AG) (BU) (BG)
                 (AG) (AU) (BG) (AU) (AU) (BU) (BU) (BG) (AG) (AG)
                 (BG) (AU) (BU) (BG) (BG) (BU) (AU) (AG) (BG) (AU)
                 (BU) (BU) (AU) (AG) (BU) (BG) (AG) (AU) (BG) (BU)
                 (BG) (AG) (BU) (BG) (AG) (AU) (BG) (AU) (BG) (AU)
                 (AG) (BG) (BU) (AG) (AU) (AG) (AU) (BU) (BG) (BU)
                 (BU) (AG) (BG) (AG) (AU) (BU) (BU) (AG) (BG) (AU)
                 (BU) (AG) (AU) (AG) (BU) (AG) (BG) (BU) (BG) (AG)
                 (AU) (AU) (BU) (BG) (AG) (AU) (BU) (BU) (AG) (AU)
                 (BG) (AU) (AG) (BU) (AG) (BG) (AU) (AG) (BU) (BG)
                 (AU) (AG) (BG) (AU) (AG) (BU) (BU) (BG) (AG) (BG)
                 (AU) (BG) (AG) (AU) (BU) (BU) (AG) (AU) (BG) (BU)
                 (AG) (AU) (AG) (BU) (BG) (AU) (BG) (AG) (BU) (AU)
                 (AG) (AG) (BG) (BU) (BU) (BG) (AU) (AG) (BG) (BU)
                 (AU) (AU) (BG) (AG) (BU) (BG) (AG) (AU) (BU) (AU)
                 (AG) (AG) (BG) (BU) (AG) (BU) (AU) (AU) (BG) (BU)
                 (BG) (AG) (AU) (BG) (AG) (BU) (BG) (AU) (AG) (BU)
                 (AG) (AU) (BU) (BG) (AU) (AG) (BG) (BU) (AU) (AG)
                 (BG) (AU) (BU) (AU) (BG) (AG) (AG) (BU) (BG) (AG)
                 (AU) (BG) (AU) (BU) (AG) (AU) (BG) (BU) (BU) (AG)
                 (BG) (AG) (BG) (AU) (BU) (AU) (AG) (BG) (BU) (AU)
                 (AG) (BG) (AU) (AG) (BU) (BG) (AU) (AG) (BU) (AU)
                 (BU) (AU) (BG) (BU) (AG) (BG) (BG) (AU) (BU) (BG)
                 (AU) (AG) (BU) (AU) (BG) (AG) (BU) (BG) (BU) (AU)
                 (AG) (AU) (BU) (AG) (BG) (BU) (AG) (BU) (BG) (AU)
                 (BG) (AG) (BU) (AU) (BG) (BG) (AG) (BU) (BG) (AU)
                 (AG) (AU) (AG) (BU) (BG) (BU) (AG) (BU) (AU) (BG)
                 (AU) (BG) (AG) (BG) (AU) (AG) (BU) (BG) (AG) (AU)
                 (BU) (AU) (AG) (BG) (BU) (AU) (BU) (AG) (AG) (AU)
                 (BU) (BG) (AU) (BU) (AU) (AG) (BG) (AG) (BG) (BU)
                 (AU) (BG) (AU) (AG) (BU) (BG) (BG) (BU) (AG) (BU)
                 (BG) (AU) (BU) (AG) (AU) (BG) (AU) (BG) (BU) (AG)
                 (AG) (BU) (AU) (BG) (BG) (AG) (AU) (BG) (BU) (AU)
                 (BU) (AG) (BG) (BU) (BG) (AU) (BU) (AG) (AU) (AU)
                 (BG) (AG) (AG) (BU) (BG) (AU) (BU) (BG) (AU) (AG)
                 (AU) (BU) (AG) (BU) (BG) (AU) (AG) (AG) (BG) (BU)
                 (AU) (AG) (BG) (AG) (BU) (AU) (AG) (BG) (AU) (BU)
                 (AU) (BU) (BG) (AG) (AG) (AU) (BG) (AG) (BU) (AU)
                 (BU) (AU) (AG) (BG) (BG) (AG) (BU) (AU) (BU) (BG)
                 (AU) (BU) (BG) (BG) (AG) (BU) (AU) (AG) (BG) (AU)
                 (AU) (AG) (BU) (BG) (AG) (BG) (AU) (BU) (AU) (AG)
                 (BG) (BU) (AU) (AG) (BG) (AU) (BU) (AG) (BG) (BG)
                 (AU) (BU) (AU) (AG) (BG) (BU) (BG) (AG) (BU) (AU)
                 (BG) (AU) (BU) (AG) (AG) (BU) (AU) (BU) (BG) (AG)
                 (AU) (BG) (BU) (AG) (AU) (AG) (BG) (BU) (AU) (AG)
                 (BU) (AU) (BG) (BU) (BG) (AG) (AG) (AU) (AU) (AG)
                 (BU) (BG) (AG) (BU) (AG) (BG) (AU) (BU) (BG) (AU)
                 (BU) (AU) (AG) (BU) (BG) (AG) (AU) (BG) (AG) (BU)
                 (BG) (BG) (AU) (AG) (BG) (BU) (AU) (BG) (BU) (BU)
                 (AU) (BG) (AU) (AG) (AG) (BG) (BU) (BG) (AU) (AG)
                 (BU) (AU) (BU) (AU) (AG) (BG) (BG) (AG) (BU) (AU)
                 (AG) (AU) (BU) (BG) (AG) (BG) (AU) (BU) (BG) (BU)
                 (AU) (AG) (AG) (BU) (AG) (BG) (AU) (BU) (BG) (AG)
                 (AU) (BU) (AG) (BG) (BU) (AU) (AG) (BG) (BU) (AG)
                 (BU) (AU) (AG) (BG) (AG) (AU) (BU) (BG) (AU) (BU)
                 (AG) (BU) (AG) (BG) (AG) (BU) (AG) (AU) (BU) (AG)
                 (BG) (AU) (BG) (BU) (AU) (AG) (BG) (AG) (AU) (BU)
                 (BG) (AG) (BG) (AU) (BU) (AU) (AG) (AG) (AU) (BU)
                 (AU) (BG) (BU) (AG) (BG) (AU) (BU) (AU) (BG) (AU)
                 (AG) (BU) (BG) (AG) (BU) (BU) (AU) (BG) (AG) (BU)
                 (BG) (AG) (AU) (BG) (BU) (AU) (AG) (AU) (BG) (BU)
                 (AU) (AU) (AG) (BU) (BG) (BU) (AG) (BG) (AU) (AG)
                 (BG) (AG) (BG) (BU) (BU) (AU) (AG) (BG) (BU) (AG)
                 (AU) (BU) (AG) (BG) (AU) (AG) (BU) (BG) (AU) (BU)
                 (AU) (AG) (BU) (AG) (BG) (BU) (BG) (AU) (BU) (AG)
                 (AU) (BG) (AU) (AG) (AG) (BU) (BG) (AU) (AU) (BU)
                 (BG) (AG) (AG) (AU) (BU) (BG) (AG) (BU) (BG) (AU)
                 (BU) (AG) (BU) (AG) (BG) (AG) (AU) (BU) (AG) (AU)
                 (BG) (AG) (BU) (BG) (BU) (BG) (AU) (AG) (BG) (AU)
                 (BU) (BG) (AU) (BU) (AU) (BG) (AU) (AG) (BG) (BU)
                 (AU) (AG) (BG) (BU) (AG) (BG) (BU) (AG) (AU) (AU)
                 (AU) (BU) (BG) (BG) (AG) (AG) (BG) (BU) (BG) (BU)
                 (AG) (AU) (BU) (AG) (AU) (BU) (BG) (AG) (AU) (AU)
                 (BU) (AG) (BU) (BG) (AG) (BU) (AG) (BG) (AG) (BU)
                 (BG) (AU) (AG) (AU) (AU) (BU) (AG) (BU) (AU) (BG)
                 (AG) (BU) (AG) (BU) (BG) (AU) (AG) (AG) (BG) (BU)
                 (AU) (BG) (AG) (AU) (BU) (BG) (AG) (BG) (BU) (AU)
                 (AU) (AG) (BU) (BG) (AU) (AG) (BU) (BG) (BU) (AG)
                 (AU) (AU) (BG) (BU) (AU) (BU) (BG) (BG) (AG) (BU)
                 (BU) (BG) (AG) (AU) (BU) (AG) (BG) (BU) (AG) (AG)
                 (AU) (AG) (BU) (AU) (BG) (AU) (BU) (AG) (BU) (BG)
                 (AG) (BG) (BU) (AU) (AG) (BG) (AU) (BU) (AG) (AG)
                 (BU) (AG) (BU) (BG) (AG) (AU) (BG) (BG) (AU) (BU)
                 (AU) (BU) (AG) (BG) (BG) (AG) (BU) (BU) (BG) (AU)
                 (BU) (AU) (AG) (BG) (BU) (AG) (AU) (BU) (BU) (BG)
                 (AU) (AG) (BU) (BG) (AG) (AG) (AU) (BG) (BU) (AU)
                 (AG) (BU) (AG) (BG) (BU) (AG) (AG) (AU) (BU) (AU)
                 (BU) (AG) (AU) (AG) (BG) (BU) (AG) (BG) (AU) (BU)
                 (AG) (AU) (BG) (BU) (BG) (AU) (AG) (BU) (BU) (BG)
                 (AG) (AU) (AU) (AG) (BU) (BG) (AG) (BG) (BU) (BG)
                 (AU) (BU) (AG) (AU) (BU) (BG) (AG) (AU) (BG) (BU)
                 (AU) (BG) (AG) (BU) (BU) (AU) (AG) (BG) (AG) (AU)
                 (AG) (AG) (BG) (BU) (BG) (BU) (AU) (AU) (AG) (AU)
                 (BU) (BG) (AG) (AG) (AU) (BG) (BU) (BG) (BU) (AU)
                 (AG) (BU) (BG) (AG) (BG) (AU) (AG) (BU) (BG) (AU)
                 (AG) (BU) (AU) (BU) (AG) (BG) (AU) (BU) (AG) (AU)
                 (BG) (BU) (BG) (AG) (BU) (BG) (AU) (BG) (BU) (AU)
                 (AG) (BU) (AG) (AU) (AG) (BG) (BG) (BU) (AU) (AG)
                 (AU) (BU) (BG) (AG) (AU) (BG) (BU) (AG) (BU) (BG)
                 (AU) (BG) (AG) (BU) (BG) (AU) (AG) (AU) (BU) (BU)
                 (AU) (BG) (BG) (AG) (AU) (BU) (AG) (BG) (AU) (BU)
                 (BG) (AU) (BU) (AG) (AG) (BG) (BU) (AG) (AU) (AG)
                 (BU) (AG) (AG) (BG) (AU) (BG) (BU) (AU) (BU) (AG)
                 (AU) (BG) (BU) (AG) (BG) (BU) (AU) (AG) (BU) (BG)
                 (AU) (AU) (AG) (BU) (AU) (BG) (BU) (AG) (AG) (AU)
                 (BG) (BU) (AU) (BU) (AU) (AG) (BG) (BU) (BG) (AG)
                 (BG) (BU) (AU) (AU) (BG) (AG) (AG) (BU) (AU) (BU)
                 (AG) (BG) (BG) (BU) (AU) (AG) (AU) (BG) (AU) (BU)
                 (AG) (BG) (BU) (AG) (BU) (AU) (BG) (AG) (AG) (AU)
                 (BU) (AG) (BU) (BU) (BG) (AU) (AG) (AU) (BG) (BU)
                 (AG) (BG) (AU) (AG) (AU) (BG) (BU) (BU) (BG) (AG)
                 (AU) (BG) (AG) (BU) (AG) (BG) (BU) (AU) (AG) (AG)
                 (BU) (BU) (AU) (AU) (AG) (BU) (BG) (BG) (AG) (AU)
                 (BG) (AU) (BU) (BG) (AU) (AG) (BU) (BG) (AU) (AU)
                 (AG) (BG) (AG) (AU) (AU) (BU) (BG) (AG) (BG) (BU)
                 (BU) (AG) (AU) (BG) (AG) (AU) (BG) (BG) (AG) (AU)
                 (BU) (AU) (BU) (BG) (AU) (AG) (BU) (BG) (BU) (BG)
                 (AG) (AU) (BU) (AG) (BG) (AU) (BU) (BU) (AU) (BG)
                 (AG) (AU) (BG) (BU) (AG) (BG) (AU) (BU) (BU) (BG)
                 (AG) (BU) (BG) (AG) (BG) (AU) (AG) (BG) (AU) (BU)
                 (AU) (AG) (AU) (BU) (BG) (AG) (AU) (BG) (BU) (AG)
                 (BG) (AU) (BU) (AU) (AG) (BG) (BG) (AG) (AU) (BU)
                 (AU) (BG) (AU) (BG) (AG) (AU) (BG) (BU) (AG) (AU)
                 (BG) (AG) (BU) (AU) (AG) (AU) (BG) (BU) (AU) (BG)
                 (AU) (AG) (BG) (BU) (AU) (AG) (BG) (AU) (AG) (BU)
                 (AU) (BG) (BG) (AG) (BU) (AG) (AU) (BU) (AU) (AG)
                 (BG) (BU) (BG) (AU) (BU) (AU) (AG) (BG) (AG) (BU)
                 (BG) (BU) (AU) (AG) (BG) (BG) (AU) (BU) (BG) (AG)
                 (AU) (AU) (BU) (AU) (BU) (BG) (AG) (BG) (AG) (BG)
                 (AU) (BU) (AG) (BU) (AU) (AG) (AU) (BG) (BU) (AU)
                 (BG) (BG) (AG) (BU) (BG) (AU) (AG) (BU) (BG) (AG)
                 (AU) (BU) (AU) (BG) (BU) (AU) (BG) (AU) (BG) (AG)
                 (AU) (BG) (BU) (BG) (AG) (BU) (AG) (BU) (AU) (AG)
                 (AU) (BG) (BU) (AU) (BG) (AG) (AU) (BG) (AG) (BU)
                 (AU) (AG) (BG) (BU) (BG) (BG) (AU) (BG) (AU) (AG)
                 (BU) (AU) (BU) (AU) (BG) (BG) (BU) (AG) (AU) (AU)
                 (BG) (BG) (BU) (AU) (BU) (AG) (AG) (BU) (BG) (AG)
                 (BG) (BU) (AU) (BG) (AG) (AU) (AG) (BU) (BG) (AU)
                 (BG) (AG) (BU) (AU) (BG) (AU) (BU) (AG) (BU) (BG)
                 (AU) (AG) (AG) (BU) (BU) (AU) (BG) (AG) (AU) (BU)
                 (BG) (AG) (BU) (AG) (AU) (BG) (BU) (AG) (AU) (AU)
                 (BG) (BU) (BG) (BG) (AG) (AU) (BU) (BG) (AU) (BG)
                 (BG) (AG) (BU) (AG) (AU) (BG) (AU) (AG) (BU) (BU)
                 (AU) (BU) (AG) (BG) (AU) (BG) (AU) (AG) (BU) (BG)
                 (AU) (BG) (AG) (AU) (BG) (BU) (BG) (AU) (BU) (AG)
                 (AU) (BG) (BG) (AU) (BU) (BG) (AU) (AG) (BG) (BU)
                 (AU) (BG) (AG) (BU) (AU) (BU) (AG) (AG) (BG) (BU)
                 (AU) (BG) (AG) (AG) (BG) (AU) (BU) (BU) (BG) (AG)
                 (BU) (AU) (AU) (BU) (AG) (AG) (BU) (BG) (AG) (BG)
                 (AU) (BU) (AU) (AG) (BG) (BU) (BG) (AU) (AG) (BG)
                 (AU) (BU) (BU) (AG) (AU) (BU) (BG) (BG) (AG) (AU)
                 (AG) (BU) (AU) (BG) (AG) (AG) (AU) (BU) (AG) (BU)
                 (BG) (BG) (AU) (AG) (AU) (BU) (BG) (BG) (AU) (BU)
                 (AG) (AU) (BG) (BU) (AU) (AG) (BU) (BG) (AG) (BG)
                 (AU) (AG) (BG) (BG) (AU) (AG) (BU) (BG) (AG) (BU)
                 (AG) (AU) (BU) (BU) (AU) (AG) (BG) (AG) (BU) (AG)
                 (AU) (BU) (BG) (BU) (AG) (AU) (BG) (AU) (BG) (AU)
                 (AG) (AG) (BU) (BU) (AG) (AG) (BU) (AU) (BG) (BU)
                 (BG) (AG) (AU) (BG) (AG) (AU) (BU) (AG) (AU) (BG)
                 (BU) (BG) (AG) (BU) (AG) (AG) (AU) (BG) (AU) (BU)
                 (AG) (BU) (BU) (AG) (BU) (BU) (AU) (BG) (AG) (BU)
                 (AU) (BU) (BG) (AU) (AG) (AU) (BU) (AG) (BU) (AU)
                 (AG) (BU) (BG) (AG) (BU) (AG) (BU) (AG) (AG) (AU)
                 (AU) (BU) (BG) (BU) (AG) (AG) (AG) (BU) (BG) (AG)
                 (AU) (BU) (AU) (BG) (BU) (AU) (BG) (BG) (BU) (AU)
                 (AG) (AU) (AG) (BU) (BG) (AG) (BU) (AG) (AU) (BU)
                 (AU) (BU) (BG) (AG) (AG) (BG) (AU) (BU) (BG) (AU)
                 (AG) (BG) (BU) (BG) (AU) (AU) (BG) (AU) (BG) (BU)
                 (AG) (BG) (AU) (BU) (AG) (AU) (BU) (AG) (BG) (BU)
                 (AG) (AG) (BU) (AU) (BG) (AG) (AU) (BU) (BG) (AU)
                 (BG) (AU) (BG) (AU) (BG) (BU) (AG) (AU) (BG) (BU)
                 (AU) (BG) (BG) (AG) (BU) (AU) (AG) (BG) (BU) (AG)
                 (AU) (BU) (BU) (AG) (BG) (AU) (AG) (BU) (AU) (BG)
                 (AG) (BU) (AG) (BU) (AU) (BG) (AG)
    32 initial guesses have been made.
 Convergence on wavefunction:    0.001000000000000
 Iteration     1 Dimension    32 NMult     0 NNew     32
 CISAX will form    32 AO SS matrices at one time.
 New state      6 was old state      7
 New state      7 was old state      8
 New state      8 was old state      6
 Iteration     2 Dimension    48 NMult    32 NNew     16
 New state      2 was old state      9
 New state      3 was old state      2
 New state      5 was old state      3
 New state      6 was old state      5
 New state      7 was old state      6
 Iteration     3 Dimension    64 NMult    48 NNew     16
 New state      6 was old state      8
 New state      7 was old state      6
 New state      8 was old state      7
 Iteration     4 Dimension    80 NMult    64 NNew     16
 New state      7 was old state      8
 New state      8 was old state      7
 Iteration     5 Dimension    96 NMult    80 NNew     16
 Iteration     6 Dimension   110 NMult    96 NNew     14
 Iteration     7 Dimension   124 NMult   110 NNew     14
 Iteration     8 Dimension   130 NMult   124 NNew      6
 ***********************************************************************
 Excited states from <AA,BB:AA,BB> singles matrix:
 ***********************************************************************
 
 Ground to excited state transition densities written to RWF  633
 Ground to excited state transition electric dipole moments (Au):
       state          X           Y           Z        Dip. S.      Osc.
         1         0.0000      0.0000     -0.3380      0.1142      0.0039
         2         0.0031      0.1494     -0.0000      0.0223      0.0009
         3        -0.0000      0.0000     -0.0000      0.0000      0.0000
         4        -0.0000      0.0000     -0.0000      0.0000      0.0000
         5         0.1221      3.9007      0.0000     15.2303      0.6794
         6        -0.0000     -0.0000      3.9985     15.9879      0.7542
         7        -0.0000     -0.0000     -0.0000      0.0000      0.0000
         8        -0.0000     -0.0000     -0.0000      0.0000      0.0000
 Ground to excited state transition velocity dipole moments (Au):
       state          X           Y           Z        Dip. S.      Osc.
         1        -0.0000      0.0000      0.0171      0.0003      0.0039
         2        -0.0003     -0.0086      0.0000      0.0001      0.0009
         3         0.0000     -0.0000      0.0000      0.0000      0.0000
         4        -0.0000     -0.0000      0.0000      0.0000      0.0000
         5        -0.0079     -0.2623     -0.0000      0.0689      0.6863
         6        -0.0000      0.0000     -0.2846      0.0810      0.7629
         7         0.0000      0.0000      0.0000      0.0000      0.0000
         8         0.0000      0.0000      0.0000      0.0000      0.0000
 Ground to excited state transition magnetic dipole moments (Au):
       state          X           Y           Z
         1        -0.0000      0.0000      0.0000
         2         0.0000     -0.0000      0.0000
         3        -1.3526      2.6602     -0.0000
         4        -0.0000     -0.0000      2.4237
         5         0.0000      0.0000     -0.0000
         6        -0.0000      0.0000      0.0000
         7         0.0000     -0.0000     -0.3446
         8        -0.1429      0.2912     -0.0000
 Ground to excited state transition velocity quadrupole moments (Au):
       state          XX          YY          ZZ          XY          XZ          YZ
         1        -0.0000     -0.0000     -0.0000     -0.0000     -0.0000     -0.0000
         2        -0.0000     -0.0000     -0.0000     -0.0000      0.0000      0.0000
         3         0.0000     -0.0000      0.0000     -0.0000     -1.6168     -0.8273
         4        -0.0596      1.8544     -0.0955      1.7465     -0.0000      0.0000
         5         0.0000     -0.0000      0.0000     -0.0000     -0.0000     -0.0000
         6         0.0000      0.0000      0.0000      0.0000     -0.0000      0.0000
         7        -0.0100     -0.2227      0.0391     -0.1264     -0.0000      0.0000
         8        -0.0000     -0.0000      0.0000     -0.0000      0.0248      0.0350
 <0|del|b> * <b|rxdel|0> + <0|del|b> * <b|delr+rdel|0>
 Rotatory Strengths (R) in cgs (10**-40 erg-esu-cm/Gauss)
       state          XX          YY          ZZ    R(velocity)    E-M Angle
         1        -0.0000      0.0000     -0.0000      0.0000       90.00
         2         0.0000     -0.0000      0.0000      0.0000       90.00
         3        -0.0000     -0.0000     -0.0000     -0.0000       90.00
         4         0.0000      0.0000      0.0000      0.0000       90.00
         5        -0.0000      0.0000      0.0000     -0.0000       90.00
         6        -0.0000     -0.0000     -0.0000     -0.0000       90.00
         7        -0.0000     -0.0000     -0.0000     -0.0000       90.00
         8         0.0000     -0.0000      0.0000      0.0000       90.00
 1/2[<0|r|b>*<b|rxdel|0> + (<0|rxdel|b>*<b|r|0>)*]
 Rotatory Strengths (R) in cgs (10**-40 erg-esu-cm/Gauss)
       state          XX          YY          ZZ     R(length)
         1         0.0000     -0.0000      0.0000      0.0000
         2        -0.0000      0.0000      0.0000      0.0000
         3        -0.0000     -0.0000     -0.0000     -0.0000
         4        -0.0000      0.0000      0.0000      0.0000
         5        -0.0000     -0.0000      0.0000     -0.0000
         6        -0.0000      0.0000     -0.0000     -0.0000
         7         0.0000     -0.0000     -0.0000     -0.0000
         8        -0.0000      0.0000     -0.0000      0.0000
  1/2[<0|del|b>*<b|r|0> + (<0|r|b>*<b|del|0>)*] (Au)
       state          X           Y           Z        Dip. S.   Osc.(frdel)
         1        -0.0000      0.0000     -0.0058      0.0058      0.0039
         2        -0.0000     -0.0013     -0.0000      0.0013      0.0009
         3        -0.0000     -0.0000     -0.0000      0.0000      0.0000
         4         0.0000     -0.0000     -0.0000      0.0000      0.0000
         5        -0.0010     -1.0233     -0.0000      1.0243      0.6828
         6         0.0000     -0.0000     -1.1379      1.1379      0.7586
         7        -0.0000     -0.0000     -0.0000      0.0000      0.0000
         8        -0.0000     -0.0000     -0.0000      0.0000      0.0000

 Excitation energies and oscillator strengths:
 
 Excited State   1:      Singlet-AU     1.3797 eV  898.66 nm  f=0.0039  <S**2>=0.000
     439 -> 447       -0.17440
     440 -> 445        0.24580
     441 -> 442        0.62011
     441 -> 447       -0.11466
 This state for optimization and/or second-order correction.
 Total Energy, E(TD-HF/TD-KS) =  -10327.7361154    
 Copying the excited state density for this state as the 1-particle RhoCI density.
 
 Excited State   2:      Singlet-BU     1.5559 eV  796.87 nm  f=0.0009  <S**2>=0.000
     439 -> 443       -0.36526
     440 -> 444        0.27956
     441 -> 443       -0.20113
     441 -> 446        0.47545
 
 Excited State   3:      Singlet-BG     1.6407 eV  755.69 nm  f=0.0000  <S**2>=0.000
     439 -> 445       -0.24831
     440 -> 442        0.50584
     440 -> 447        0.15272
     441 -> 445        0.37364
 
 Excited State   4:      Singlet-AG     1.7027 eV  728.17 nm  f=0.0000  <S**2>=0.000
     439 -> 444       -0.27574
     440 -> 443        0.42952
     440 -> 446        0.23354
     441 -> 444        0.39952
 
 Excited State   5:      Singlet-BU     1.8207 eV  680.98 nm  f=0.6794  <S**2>=0.000
     439 -> 446       -0.13069
     440 -> 444        0.35030
     441 -> 443        0.56587
 
 Excited State   6:      Singlet-AU     1.9256 eV  643.89 nm  f=0.7542  <S**2>=0.000
     434 -> 444       -0.10128
     439 -> 442        0.51053
     440 -> 445       -0.37470
     441 -> 447       -0.22642
 
 Excited State   7:      Singlet-AG     2.2188 eV  558.78 nm  f=0.0000  <S**2>=0.000
     439 -> 444        0.35508
     440 -> 443       -0.32174
     440 -> 446        0.21863
     441 -> 444        0.46709
 
 Excited State   8:      Singlet-BG     2.2198 eV  558.54 nm  f=0.0000  <S**2>=0.000
     439 -> 445        0.30620
     440 -> 442       -0.29625
     440 -> 447        0.18069
     441 -> 445        0.53237
 SavETr:  write IOETrn=   770 NScale= 10 NData=  16 NLR=1 NState=    8 LETran=     154.
 Hyperfine terms turned off by default for NAtoms > 100.

 **********************************************************************

            Population analysis using the SCF density.

 **********************************************************************

 Orbital symmetries:
       Occupied  (BU) (AG) (AG) (BU) (AG) (AG) (AG) (BU) (BU) (AG)
                 (BU) (BG) (AU) (BU) (AU) (BU) (AG) (BU) (AG) (AG)
                 (BG) (BU) (AU) (AG) (BU) (AG) (AU) (BG) (AU) (BU)
                 (AG) (BG) (AU) (BU) (AG) (BG) (AU) (BU) (AG) (AU)
                 (BG) (BU) (AG) (BG) (AU) (BU) (AG) (BG) (AU) (BU)
                 (AG) (AU) (BG) (AG) (BU) (BG) (AU) (BU) (AG) (BG)
                 (BU) (AU) (AG) (BU) (AG) (BG) (AU) (BU) (AG) (AU)
                 (BG) (BU) (AG) (BG) (AU) (BG) (AU) (BU) (AG) (BG)
                 (AU) (BU) (AG) (BU) (AG) (BG) (AU) (BU) (AG) (BU)
                 (AG) (BG) (AU) (BG) (AU) (AU) (AG) (BG) (BU) (AU)
                 (AG) (BG) (BU) (AG) (AU) (BU) (BG) (BG) (AU) (BU)
                 (AG) (BG) (BU) (AU) (AG) (BU) (BG) (AU) (AG) (BG)
                 (AU) (BU) (AG) (BU) (AG) (BG) (AU) (AU) (AG) (BG)
                 (BU) (BU) (AG) (AU) (BG) (BU) (AG) (AG) (AG) (BU)
                 (BU) (AG) (BU) (BG) (AU) (BU) (AU) (AG) (BU) (AG)
                 (BU) (AU) (AG) (BG) (BU) (AU) (AG) (BU) (AG) (BG)
                 (AU) (BG) (BU) (AG) (AU) (BG) (BU) (AU) (AG) (BU)
                 (AG) (BU) (AG) (AU) (AG) (BG) (BU) (AG) (BU) (BU)
                 (AG) (AU) (AG) (BG) (AU) (BG) (AG) (BU) (AU) (AG)
                 (BG) (BU) (AG) (BU) (AU) (AU) (BU) (BG) (AG) (BU)
                 (AG) (AU) (BU) (BG) (AG) (AU) (BG) (BG) (AU) (BG)
                 (BU) (AU) (BG) (AG) (AU) (BU) (AG) (BU) (AG) (BU)
                 (AG) (AG) (BU) (AU) (AG) (BG) (BU) (AU) (BG) (AU)
                 (BG) (AG) (BU) (AG) (AU) (BG) (BU) (AG) (BG) (AU)
                 (AU) (BU) (BG) (BG) (AU) (BG) (AG) (BU) (AG) (AU)
                 (BG) (BU) (AG) (BU) (AU) (BU) (AG) (AG) (BG) (AU)
                 (BU) (AG) (AU) (BU) (BU) (BG) (AU) (BG) (AU) (BG)
                 (AG) (BG) (BU) (AG) (BU) (AG) (AG) (AG) (BG) (AG)
                 (BU) (AU) (AU) (BU) (BG) (AG) (AU) (BU) (AG) (BG)
                 (BU) (AG) (AU) (BG) (BU) (AU) (BU) (AG) (BG) (AU)
                 (BU) (AG) (BG) (BG) (AG) (BU) (AG) (BU) (AG) (AU)
                 (BG) (AU) (BG) (BU) (AG) (BU) (AG) (AG) (BG) (AU)
                 (BG) (AG) (BU) (AU) (BU) (AU) (BG) (BG) (AG) (BG)
                 (AU) (BG) (BU) (AG) (BG) (AU) (BU) (AU) (BU) (AG)
                 (BU) (AG) (AG) (BU) (AU) (AG) (BG) (BG) (BU) (AU)
                 (AG) (AU) (BU) (AG) (AG) (BG) (AU) (BG) (BU) (AG)
                 (BU) (BG) (AU) (AU) (BU) (BU) (BG) (AG) (AU) (BU)
                 (BG) (AU) (AG) (BG) (BG) (BU) (AU) (BU) (AG) (AG)
                 (BU) (AG) (BU) (AU) (BG) (BU) (AU) (AG) (BU) (AG)
                 (BG) (AG) (AU) (BU) (AG) (BG) (BU) (AG) (AG) (AU)
                 (BU) (BG) (AG) (AU) (BU) (AU) (BG) (AU) (BG) (AU)
                 (BG) (BU) (BG) (BU) (AG) (AG) (AU) (BG) (AU) (AG)
                 (BU) (BG) (BU) (AG) (AG) (AU) (BU) (AG) (AU) (BG)
                 (BU) (AG) (BU) (AG) (AG) (BG) (BU) (BU) (AU) (BG)
                 (AU)
       Virtual   (AG) (BG) (AU) (BU) (BG) (AG) (AU) (BG) (BU) (BU)
                 (AU) (AG) (AG) (BU) (AG) (BU) (BG) (AU) (BU) (AG)
                 (BG) (BU) (AG) (AU) (BG) (AG) (AU) (BU) (AG) (BG)
                 (AU) (BU) (AG) (BG) (AG) (BG) (AU) (BU) (AG) (BU)
                 (AU) (BG) (AG) (BU) (AU) (BU) (BU) (AG) (BU) (AG)
                 (AU) (BG) (AG) (BU) (BG) (AU) (AG) (BU) (AU) (AG)
                 (BG) (BU) (AU) (AG) (BG) (AU) (BU) (BG) (BU) (BG)
                 (AU) (BU) (AG) (BG) (AU) (AG) (AU) (BU) (AG) (BG)
                 (BU) (BG) (AG) (AU) (AG) (AU) (AG) (AG) (BU) (BG)
                 (AG) (AU) (BU) (AU) (BG) (BU) (AG) (BU) (AG) (BU)
                 (BG) (BG) (AG) (AU) (BU) (BG) (AU) (BU) (AG) (BG)
                 (AU) (AU) (AG) (BG) (BU) (AG) (BG) (BU) (AG) (BU)
                 (AU) (BU) (BG) (AG) (AU) (AG) (AU) (BU) (BG) (AU)
                 (AG) (BG) (BG) (AU) (BG) (BU) (AG) (BU) (AU) (AU)
                 (AG) (BG) (BU) (AU) (AG) (BU) (AG) (AU) (BU) (AG)
                 (BG) (BG) (AU) (AG) (BU) (BU) (AU) (AG) (AU) (AG)
                 (BG) (AU) (BU) (BG) (BU) (BG) (AG) (AU) (AG) (BU)
                 (BG) (AU) (AG) (BG) (BU) (AG) (BG) (BU) (AG) (AU)
                 (AU) (BU) (AG) (BG) (AU) (BG) (AU) (BU) (BG) (AG)
                 (BU) (BG) (AU) (AU) (BU) (AG) (BG) (AG) (BG) (BU)
                 (AG) (BU) (AU) (BU) (BG) (AU) (AG) (BG) (AU) (BU)
                 (AU) (BG) (AG) (AU) (AG) (BU) (BG) (BG) (BU) (AG)
                 (AG) (BU) (AU) (BG) (BU) (AU) (AG) (AG) (BU) (BG)
                 (BG) (BU) (AU) (AG) (BU) (BU) (AU) (AG) (BU) (AG)
                 (BG) (AG) (AG) (BU) (AU) (BG) (AG) (BU) (AG) (BU)
                 (AU) (BU) (AU) (BU) (BG) (AG) (AG) (BG) (BU) (AU)
                 (AG) (BG) (AU) (BU) (AG) (BG) (AU) (AG) (BU) (BG)
                 (AU) (AG) (AU) (AU) (BU) (BG) (AG) (AU) (BU) (AG)
                 (BG) (BU) (AG) (BG) (BU) (AU) (AG) (AG) (BG) (AU)
                 (BU) (BU) (BG) (AG) (BU) (AU) (BU) (AG) (AG) (BU)
                 (BG) (AG) (AU) (BG) (BU) (AG) (BG) (BU) (AG) (AU)
                 (AU) (AG) (BG) (BU) (BU) (AU) (AG) (BG) (AU) (AG)
                 (AU) (AG) (BU) (BG) (BU) (BG) (AU) (BG) (BU) (AG)
                 (AG) (AU) (BG) (BU) (BU) (BU) (BG) (BG) (AU) (AG)
                 (AU) (AG) (BU) (AU) (AU) (BG) (AG) (BG) (AU) (BG)
                 (BU) (BG) (AG) (BU) (AU) (BG) (AG) (AG) (AU) (BU)
                 (BG) (AU) (BG) (AG) (BU) (BU) (AG) (AU) (BG) (AG)
                 (BU) (BU) (BG) (BU) (AU) (AG) (AU) (BG) (BU) (AU)
                 (BG) (AG) (AU) (BU) (BG) (AG) (AU) (BU) (AU) (BG)
                 (BU) (AG) (BG) (AU) (AG) (BU) (BG) (AU) (BU) (AG)
                 (AU) (BU) (BG) (AU) (BG) (AG) (AG) (BG) (BU) (AU)
                 (BG) (BU) (AU) (BU) (BG) (AG) (AU) (AG) (AU) (BG)
                 (BG) (BU) (AG) (AU) (BG) (BU) (AG) (AU) (BG) (AU)
                 (AG) (BG) (AG) (AU) (BU) (BU) (BG) (BG) (AU) (AG)
                 (BU) (BU) (AG) (AU) (BG) (BU) (BG) (AU) (BG) (AU)
                 (BU) (BG) (AG) (AU) (BU) (AG) (BU) (AU) (BG) (BU)
                 (BG) (BG) (AG) (BU) (AG) (AU) (AG) (AU) (BU) (AG)
                 (BG) (AU) (AU) (BU) (AG) (BG) (BU) (BG) (AG) (BU)
                 (BG) (AU) (AG) (BU) (AU) (BG) (BU) (AU) (AG) (AU)
                 (BG) (AG) (BG) (BU) (AU) (AG) (BG) (AU) (AG) (BU)
                 (BG) (AU) (AG) (BU) (BU) (AG) (AU) (BG) (BU) (AG)
                 (AG) (BG) (AU) (BG) (BU) (AG) (BU) (AU) (AG) (BG)
                 (AU) (BU) (AG) (BU) (BG) (AU) (BG) (AG) (BU) (BU)
                 (AG) (AU) (AG) (AU) (BG) (BG) (AG) (BU) (AU) (AU)
                 (BU) (AG) (BG) (AU) (BU) (AU) (BG) (AG) (BU) (AU)
                 (AG) (BG) (BG) (BU) (AG) (AU) (BU) (BG) (AG) (AG)
                 (BU) (AU) (BU) (AU) (BG) (BU) (AG) (AU) (AG) (BG)
                 (AG) (BU) (BG) (BU) (AU) (AU) (AG) (BU) (BG) (AU)
                 (AG) (BU) (AG) (BG) (BG) (BU) (AG) (BG) (BG) (AG)
                 (BU) (BU) (AU) (AG) (BU) (BG) (AU) (AU) (AG) (BG)
                 (BU) (AG) (AU) (BU) (BU) (BG) (AU) (AG) (AU) (BU)
                 (BG) (AG) (BG) (AU) (AG) (AG) (BU) (BG) (AG) (BU)
                 (BG) (AG) (AU) (BU) (BG) (AU) (AG) (BG) (BU) (BG)
                 (AU) (AU) (BU) (AG) (BG) (BU) (AU) (BU) (AG) (BU)
                 (BG) (AU) (AG) (AU) (BG) (AU) (BG) (AU) (BU) (AG)
                 (BU) (BG) (AG) (AU) (AG) (BG) (BU) (BG) (AU) (AG)
                 (BG) (BU) (BU) (AG) (AU) (AG) (AU) (BU) (AU) (BG)
                 (AG) (BU) (AU) (BG) (BG) (AG) (AU) (BU) (AU) (BG)
                 (AG) (BU) (AU) (BG) (BU) (AG) (BU) (AU) (AG) (AG)
                 (BU) (BG) (AU) (AU) (BG) (BU) (AG) (AG) (BG) (BG)
                 (BU) (AU) (AG) (BU) (BG) (BU) (BU) (BG) (AU) (AG)
                 (AG) (BU) (BG) (AU) (BU) (AG) (AU) (BG) (AG) (AU)
                 (BU) (BG) (AG) (AU) (BU) (AG) (BU) (BG) (AG) (BU)
                 (AU) (BU) (BU) (AG) (AU) (BG) (AG) (BG) (BU) (BG)
                 (AG) (BU) (AG) (AG) (BU) (AU) (AU) (BG) (AU) (BU)
                 (BG) (AG) (AG) (BG) (BU) (BG) (AU) (BU) (AG) (BG)
                 (AU) (BU) (BG) (AU) (AG) (AU) (AG) (BU) (BG) (AU)
                 (BU) (AG) (BG) (AG) (BU) (AU) (BU) (AU) (AG) (BG)
                 (AG) (BG) (AU) (BU) (BG) (AU) (BU) (AG) (AU) (BU)
                 (BG) (AU) (AG) (AG) (BU) (BG) (BU) (BG) (BU) (AG)
                 (AU) (BG) (AG) (BU) (AU) (BG) (AG) (AU) (BG) (BU)
                 (AG) (AU) (BU) (AG) (BG) (AG) (BU) (BG) (AU) (BU)
                 (AU) (AG) (BU) (AG) (BG) (BG) (AU) (AG) (AU) (BU)
                 (BG) (BU) (AU) (AG) (BG) (BG) (BU) (AG) (AU) (BU)
                 (BG) (BU) (AG) (AG) (BU) (AU) (BG) (AU) (BU) (AG)
                 (AU) (BU) (AG) (BG) (AU) (AG) (BU) (AG) (BU) (AU)
                 (AG) (BG) (BU) (BG) (AU) (AU) (BG) (BU) (AG) (AG)
                 (AG) (BG) (BU) (AG) (AU) (AU) (BG) (AG) (BU) (BG)
                 (AU) (BU) (BG) (AG) (AG) (BU) (AU) (BU) (AG) (BG)
                 (AU) (AG) (BU) (BG) (AU) (BU) (AG) (BG) (AG) (AU)
                 (BU) (AU) (AG) (BU) (BG) (AU) (BU) (BG) (AG) (BG)
                 (AG) (BU) (BG) (AU) (AG) (BG) (BU) (AU) (AU) (BG)
                 (AG) (BU) (BG) (AU) (BG) (AG) (AU) (BU) (AU) (BG)
                 (BU) (AG) (BU) (BG) (AG) (AU) (BG) (AG) (AU) (BU)
                 (BU) (BG) (AG) (AU) (AU) (AG) (BU) (BG) (AG) (AU)
                 (BU) (AU) (BG) (BU) (BG) (AG) (AU) (AG) (BU) (BG)
                 (AU) (BU) (BU) (BG) (AU) (AG) (BG) (BG) (AG) (BU)
                 (AU) (AG) (AG) (BG) (AU) (BU) (AG) (BU) (BG) (AU)
                 (AG) (BU) (AU) (BU) (BG) (AG) (AU) (AG) (AU) (AG)
                 (BU) (AG) (BG) (AU) (BU) (AU) (BG) (AU) (AG) (BU)
                 (BU) (BG) (AU) (BG) (AG) (BG) (AG) (BU) (BU) (BG)
                 (AG) (AU) (AG) (BG) (BU) (BU) (AU) (BG) (AG) (AU)
                 (AG) (BU) (BU) (AG) (AU) (BG) (AU) (BG) (AG) (BU)
                 (AU) (BG) (BU) (AG) (BG) (AU) (AG) (BU) (AU) (BG)
                 (AG) (AU) (BU) (BG) (AG) (AU) (BU) (AG) (AU) (BU)
                 (AG) (BG) (BU) (BG) (BU) (AU) (BG) (AG) (BU) (AG)
                 (AU) (AG) (AU) (BU) (BG) (BG) (AG) (BU) (AG) (AU)
                 (AG) (BU) (BG) (BU) (BG) (AG) (AU) (BU) (AG) (BG)
                 (BU) (AU) (BU) (BG) (AG) (AU) (BG) (BU) (BU) (AG)
                 (AU) (BG) (AG) (BG) (AU) (AG) (BU) (BG) (AU) (AG)
                 (AU) (BU) (BU) (AU) (AG) (BG) (BG) (BG) (BU) (AG)
                 (AU) (BU) (BG) (AU) (BU) (AU) (AG) (AG) (AU) (AG)
                 (BG) (BU) (AU) (BU) (BG) (AG) (BU) (AU) (BG) (AG)
                 (AU) (AG) (BG) (BU) (AU) (BG) (AU) (AG) (BU) (BG)
                 (AG) (AU) (BG) (AU) (AU) (BU) (BU) (BG) (AG) (AG)
                 (BG) (AU) (BU) (BG) (BG) (BU) (AU) (AG) (BG) (AU)
                 (BU) (BU) (AU) (AG) (BU) (BG) (AG) (AU) (BG) (BU)
                 (BG) (AG) (BU) (BG) (AG) (AU) (BG) (AU) (BG) (AU)
                 (AG) (BG) (BU) (AG) (AU) (AG) (AU) (BU) (BG) (BU)
                 (BU) (AG) (BG) (AG) (AU) (BU) (BU) (AG) (BG) (AU)
                 (BU) (AG) (AU) (AG) (BU) (AG) (BG) (BU) (BG) (AG)
                 (AU) (AU) (BU) (BG) (AG) (AU) (BU) (BU) (AG) (AU)
                 (BG) (AU) (AG) (BU) (AG) (BG) (AU) (AG) (BU) (BG)
                 (AU) (AG) (BG) (AU) (AG) (BU) (BU) (BG) (AG) (BG)
                 (AU) (BG) (AG) (AU) (BU) (BU) (AG) (AU) (BG) (BU)
                 (AG) (AU) (AG) (BU) (BG) (AU) (BG) (AG) (BU) (AU)
                 (AG) (AG) (BG) (BU) (BU) (BG) (AU) (AG) (BG) (BU)
                 (AU) (AU) (BG) (AG) (BU) (BG) (AG) (AU) (BU) (AU)
                 (AG) (AG) (BG) (BU) (AG) (BU) (AU) (AU) (BG) (BU)
                 (BG) (AG) (AU) (BG) (AG) (BU) (BG) (AU) (AG) (BU)
                 (AG) (AU) (BU) (BG) (AU) (AG) (BG) (BU) (AU) (AG)
                 (BG) (AU) (BU) (AU) (BG) (AG) (AG) (BU) (BG) (AG)
                 (AU) (BG) (AU) (BU) (AG) (AU) (BG) (BU) (BU) (AG)
                 (BG) (AG) (BG) (AU) (BU) (AU) (AG) (BG) (BU) (AU)
                 (AG) (BG) (AU) (AG) (BU) (BG) (AU) (AG) (BU) (AU)
                 (BU) (AU) (BG) (BU) (AG) (BG) (BG) (AU) (BU) (BG)
                 (AU) (AG) (BU) (AU) (BG) (AG) (BU) (BG) (BU) (AU)
                 (AG) (AU) (BU) (AG) (BG) (BU) (AG) (BU) (BG) (AU)
                 (BG) (AG) (BU) (AU) (BG) (BG) (AG) (BU) (BG) (AU)
                 (AG) (AU) (AG) (BU) (BG) (BU) (AG) (BU) (AU) (BG)
                 (AU) (BG) (AG) (BG) (AU) (AG) (BU) (BG) (AG) (AU)
                 (BU) (AU) (AG) (BG) (BU) (AU) (BU) (AG) (AG) (AU)
                 (BU) (BG) (AU) (BU) (AU) (AG) (BG) (AG) (BG) (BU)
                 (AU) (BG) (AU) (AG) (BU) (BG) (BG) (BU) (AG) (BU)
                 (BG) (AU) (BU) (AG) (AU) (BG) (AU) (BG) (BU) (AG)
                 (AG) (BU) (AU) (BG) (BG) (AG) (AU) (BG) (BU) (AU)
                 (BU) (AG) (BG) (BU) (BG) (AU) (BU) (AG) (AU) (AU)
                 (BG) (AG) (AG) (BU) (BG) (AU) (BU) (BG) (AU) (AG)
                 (AU) (BU) (AG) (BU) (BG) (AU) (AG) (AG) (BG) (BU)
                 (AU) (AG) (BG) (AG) (BU) (AU) (AG) (BG) (AU) (BU)
                 (AU) (BU) (BG) (AG) (AG) (AU) (BG) (AG) (BU) (AU)
                 (BU) (AU) (AG) (BG) (BG) (AG) (BU) (AU) (BU) (BG)
                 (AU) (BU) (BG) (BG) (AG) (BU) (AU) (AG) (BG) (AU)
                 (AU) (AG) (BU) (BG) (AG) (BG) (AU) (BU) (AU) (AG)
                 (BG) (BU) (AU) (AG) (BG) (AU) (BU) (AG) (BG) (BG)
                 (AU) (BU) (AU) (AG) (BG) (BU) (BG) (AG) (BU) (AU)
                 (BG) (AU) (BU) (AG) (AG) (BU) (AU) (BU) (BG) (AG)
                 (AU) (BG) (BU) (AG) (AU) (AG) (BG) (BU) (AU) (AG)
                 (BU) (AU) (BG) (BU) (BG) (AG) (AG) (AU) (AU) (AG)
                 (BU) (BG) (AG) (BU) (AG) (BG) (AU) (BU) (BG) (AU)
                 (BU) (AU) (AG) (BU) (BG) (AG) (AU) (BG) (AG) (BU)
                 (BG) (BG) (AU) (AG) (BG) (BU) (AU) (BG) (BU) (BU)
                 (AU) (BG) (AU) (AG) (AG) (BG) (BU) (BG) (AU) (AG)
                 (BU) (AU) (BU) (AU) (AG) (BG) (BG) (AG) (BU) (AU)
                 (AG) (AU) (BU) (BG) (AG) (BG) (AU) (BU) (BG) (BU)
                 (AU) (AG) (AG) (BU) (AG) (BG) (AU) (BU) (BG) (AG)
                 (AU) (BU) (AG) (BG) (BU) (AU) (AG) (BG) (BU) (AG)
                 (BU) (AU) (AG) (BG) (AG) (AU) (BU) (BG) (AU) (BU)
                 (AG) (BU) (AG) (BG) (AG) (BU) (AG) (AU) (BU) (AG)
                 (BG) (AU) (BG) (BU) (AU) (AG) (BG) (AG) (AU) (BU)
                 (BG) (AG) (BG) (AU) (BU) (AU) (AG) (AG) (AU) (BU)
                 (AU) (BG) (BU) (AG) (BG) (AU) (BU) (AU) (BG) (AU)
                 (AG) (BU) (BG) (AG) (BU) (BU) (AU) (BG) (AG) (BU)
                 (BG) (AG) (AU) (BG) (BU) (AU) (AG) (AU) (BG) (BU)
                 (AU) (AU) (AG) (BU) (BG) (BU) (AG) (BG) (AU) (AG)
                 (BG) (AG) (BG) (BU) (BU) (AU) (AG) (BG) (BU) (AG)
                 (AU) (BU) (AG) (BG) (AU) (AG) (BU) (BG) (AU) (BU)
                 (AU) (AG) (BU) (AG) (BG) (BU) (BG) (AU) (BU) (AG)
                 (AU) (BG) (AU) (AG) (AG) (BU) (BG) (AU) (AU) (BU)
                 (BG) (AG) (AG) (AU) (BU) (BG) (AG) (BU) (BG) (AU)
                 (BU) (AG) (BU) (AG) (BG) (AG) (AU) (BU) (AG) (AU)
                 (BG) (AG) (BU) (BG) (BU) (BG) (AU) (AG) (BG) (AU)
                 (BU) (BG) (AU) (BU) (AU) (BG) (AU) (AG) (BG) (BU)
                 (AU) (AG) (BG) (BU) (AG) (BG) (BU) (AG) (AU) (AU)
                 (AU) (BU) (BG) (BG) (AG) (AG) (BG) (BU) (BG) (BU)
                 (AG) (AU) (BU) (AG) (AU) (BU) (BG) (AG) (AU) (AU)
                 (BU) (AG) (BU) (BG) (AG) (BU) (AG) (BG) (AG) (BU)
                 (BG) (AU) (AG) (AU) (AU) (BU) (AG) (BU) (AU) (BG)
                 (AG) (BU) (AG) (BU) (BG) (AU) (AG) (AG) (BG) (BU)
                 (AU) (BG) (AG) (AU) (BU) (BG) (AG) (BG) (BU) (AU)
                 (AU) (AG) (BU) (BG) (AU) (AG) (BU) (BG) (BU) (AG)
                 (AU) (AU) (BG) (BU) (AU) (BU) (BG) (BG) (AG) (BU)
                 (BU) (BG) (AG) (AU) (BU) (AG) (BG) (BU) (AG) (AG)
                 (AU) (AG) (BU) (AU) (BG) (AU) (BU) (AG) (BU) (BG)
                 (AG) (BG) (BU) (AU) (AG) (BG) (AU) (BU) (AG) (AG)
                 (BU) (AG) (BU) (BG) (AG) (AU) (BG) (BG) (AU) (BU)
                 (AU) (BU) (AG) (BG) (BG) (AG) (BU) (BU) (BG) (AU)
                 (BU) (AU) (AG) (BG) (BU) (AG) (AU) (BU) (BU) (BG)
                 (AU) (AG) (BU) (BG) (AG) (AG) (AU) (BG) (BU) (AU)
                 (AG) (BU) (AG) (BG) (BU) (AG) (AG) (AU) (BU) (AU)
                 (BU) (AG) (AU) (AG) (BG) (BU) (AG) (BG) (AU) (BU)
                 (AG) (AU) (BG) (BU) (BG) (AU) (AG) (BU) (BU) (BG)
                 (AG) (AU) (AU) (AG) (BU) (BG) (AG) (BG) (BU) (BG)
                 (AU) (BU) (AG) (AU) (BU) (BG) (AG) (AU) (BG) (BU)
                 (AU) (BG) (AG) (BU) (BU) (AU) (AG) (BG) (AG) (AU)
                 (AG) (AG) (BG) (BU) (BG) (BU) (AU) (AU) (AG) (AU)
                 (BU) (BG) (AG) (AG) (AU) (BG) (BU) (BG) (BU) (AU)
                 (AG) (BU) (BG) (AG) (BG) (AU) (AG) (BU) (BG) (AU)
                 (AG) (BU) (AU) (BU) (AG) (BG) (AU) (BU) (AG) (AU)
                 (BG) (BU) (BG) (AG) (BU) (BG) (AU) (BG) (BU) (AU)
                 (AG) (BU) (AG) (AU) (AG) (BG) (BG) (BU) (AU) (AG)
                 (AU) (BU) (BG) (AG) (AU) (BG) (BU) (AG) (BU) (BG)
                 (AU) (BG) (AG) (BU) (BG) (AU) (AG) (AU) (BU) (BU)
                 (AU) (BG) (BG) (AG) (AU) (BU) (AG) (BG) (AU) (BU)
                 (BG) (AU) (BU) (AG) (AG) (BG) (BU) (AG) (AU) (AG)
                 (BU) (AG) (AG) (BG) (AU) (BG) (BU) (AU) (BU) (AG)
                 (AU) (BG) (BU) (AG) (BG) (BU) (AU) (AG) (BU) (BG)
                 (AU) (AU) (AG) (BU) (AU) (BG) (BU) (AG) (AG) (AU)
                 (BG) (BU) (AU) (BU) (AU) (AG) (BG) (BU) (BG) (AG)
                 (BG) (BU) (AU) (AU) (BG) (AG) (AG) (BU) (AU) (BU)
                 (AG) (BG) (BG) (BU) (AU) (AG) (AU) (BG) (AU) (BU)
                 (AG) (BG) (BU) (AG) (BU) (AU) (BG) (AG) (AG) (AU)
                 (BU) (AG) (BU) (BU) (BG) (AU) (AG) (AU) (BG) (BU)
                 (AG) (BG) (AU) (AG) (AU) (BG) (BU) (BU) (BG) (AG)
                 (AU) (BG) (AG) (BU) (AG) (BG) (BU) (AU) (AG) (AG)
                 (BU) (BU) (AU) (AU) (AG) (BU) (BG) (BG) (AG) (AU)
                 (BG) (AU) (BU) (BG) (AU) (AG) (BU) (BG) (AU) (AU)
                 (AG) (BG) (AG) (AU) (AU) (BU) (BG) (AG) (BG) (BU)
                 (BU) (AG) (AU) (BG) (AG) (AU) (BG) (BG) (AG) (AU)
                 (BU) (AU) (BU) (BG) (AU) (AG) (BU) (BG) (BU) (BG)
                 (AG) (AU) (BU) (AG) (BG) (AU) (BU) (BU) (AU) (BG)
                 (AG) (AU) (BG) (BU) (AG) (BG) (AU) (BU) (BU) (BG)
                 (AG) (BU) (BG) (AG) (BG) (AU) (AG) (BG) (AU) (BU)
                 (AU) (AG) (AU) (BU) (BG) (AG) (AU) (BG) (BU) (AG)
                 (BG) (AU) (BU) (AU) (AG) (BG) (BG) (AG) (AU) (BU)
                 (AU) (BG) (AU) (BG) (AG) (AU) (BG) (BU) (AG) (AU)
                 (BG) (AG) (BU) (AU) (AG) (AU) (BG) (BU) (AU) (BG)
                 (AU) (AG) (BG) (BU) (AU) (AG) (BG) (AU) (AG) (BU)
                 (AU) (BG) (BG) (AG) (BU) (AG) (AU) (BU) (AU) (AG)
                 (BG) (BU) (BG) (AU) (BU) (AU) (AG) (BG) (AG) (BU)
                 (BG) (BU) (AU) (AG) (BG) (BG) (AU) (BU) (BG) (AG)
                 (AU) (AU) (BU) (AU) (BU) (BG) (AG) (BG) (AG) (BG)
                 (AU) (BU) (AG) (BU) (AU) (AG) (AU) (BG) (BU) (AU)
                 (BG) (BG) (AG) (BU) (BG) (AU) (AG) (BU) (BG) (AG)
                 (AU) (BU) (AU) (BG) (BU) (AU) (BG) (AU) (BG) (AG)
                 (AU) (BG) (BU) (BG) (AG) (BU) (AG) (BU) (AU) (AG)
                 (AU) (BG) (BU) (AU) (BG) (AG) (AU) (BG) (AG) (BU)
                 (AU) (AG) (BG) (BU) (BG) (BG) (AU) (BG) (AU) (AG)
                 (BU) (AU) (BU) (AU) (BG) (BG) (BU) (AG) (AU) (AU)
                 (BG) (BG) (BU) (AU) (BU) (AG) (AG) (BU) (BG) (AG)
                 (BG) (BU) (AU) (BG) (AG) (AU) (AG) (BU) (BG) (AU)
                 (BG) (AG) (BU) (AU) (BG) (AU) (BU) (AG) (BU) (BG)
                 (AU) (AG) (AG) (BU) (BU) (AU) (BG) (AG) (AU) (BU)
                 (BG) (AG) (BU) (AG) (AU) (BG) (BU) (AG) (AU) (AU)
                 (BG) (BU) (BG) (BG) (AG) (AU) (BU) (BG) (AU) (BG)
                 (BG) (AG) (BU) (AG) (AU) (BG) (AU) (AG) (BU) (BU)
                 (AU) (BU) (AG) (BG) (AU) (BG) (AU) (AG) (BU) (BG)
                 (AU) (BG) (AG) (AU) (BG) (BU) (BG) (AU) (BU) (AG)
                 (AU) (BG) (BG) (AU) (BU) (BG) (AU) (AG) (BG) (BU)
                 (AU) (BG) (AG) (BU) (AU) (BU) (AG) (AG) (BG) (BU)
                 (AU) (BG) (AG) (AG) (BG) (AU) (BU) (BU) (BG) (AG)
                 (BU) (AU) (AU) (BU) (AG) (AG) (BU) (BG) (AG) (BG)
                 (AU) (BU) (AU) (AG) (BG) (BU) (BG) (AU) (AG) (BG)
                 (AU) (BU) (BU) (AG) (AU) (BU) (BG) (BG) (AG) (AU)
                 (AG) (BU) (AU) (BG) (AG) (AG) (AU) (BU) (AG) (BU)
                 (BG) (BG) (AU) (AG) (AU) (BU) (BG) (BG) (AU) (BU)
                 (AG) (AU) (BG) (BU) (AU) (AG) (BU) (BG) (AG) (BG)
                 (AU) (AG) (BG) (BG) (AU) (AG) (BU) (BG) (AG) (BU)
                 (AG) (AU) (BU) (BU) (AU) (AG) (BG) (AG) (BU) (AG)
                 (AU) (BU) (BG) (BU) (AG) (AU) (BG) (AU) (BG) (AU)
                 (AG) (AG) (BU) (BU) (AG) (AG) (BU) (AU) (BG) (BU)
                 (BG) (AG) (AU) (BG) (AG) (AU) (BU) (AG) (AU) (BG)
                 (BU) (BG) (AG) (BU) (AG) (AG) (AU) (BG) (AU) (BU)
                 (AG) (BU) (BU) (AG) (BU) (BU) (AU) (BG) (AG) (BU)
                 (AU) (BU) (BG) (AU) (AG) (AU) (BU) (AG) (BU) (AU)
                 (AG) (BU) (BG) (AG) (BU) (AG) (BU) (AG) (AG) (AU)
                 (AU) (BU) (BG) (BU) (AG) (AG) (AG) (BU) (BG) (AG)
                 (AU) (BU) (AU) (BG) (BU) (AU) (BG) (BG) (BU) (AU)
                 (AG) (AU) (AG) (BU) (BG) (AG) (BU) (AG) (AU) (BU)
                 (AU) (BU) (BG) (AG) (AG) (BG) (AU) (BU) (BG) (AU)
                 (AG) (BG) (BU) (BG) (AU) (AU) (BG) (AU) (BG) (BU)
                 (AG) (BG) (AU) (BU) (AG) (AU) (BU) (AG) (BG) (BU)
                 (AG) (AG) (BU) (AU) (BG) (AG) (AU) (BU) (BG) (AU)
                 (BG) (AU) (BG) (AU) (BG) (BU) (AG) (AU) (BG) (BU)
                 (AU) (BG) (BG) (AG) (BU) (AU) (AG) (BG) (BU) (AG)
                 (AU) (BU) (BU) (AG) (BG) (AU) (AG) (BU) (AU) (BG)
                 (AG) (BU) (AG) (BU) (AU) (BG) (AG)
 The electronic state is 1-AG.
 Alpha  occ. eigenvalues -- -345.96569-345.96569-345.96397 -41.83408 -41.83407
 Alpha  occ. eigenvalues --  -41.83211 -36.91705 -36.91704 -36.91506 -36.90866
 Alpha  occ. eigenvalues --  -36.90866 -36.90864 -36.90864 -36.90675 -36.90670
 Alpha  occ. eigenvalues --  -14.20015 -14.20015 -14.19820 -14.19820 -14.19819
 Alpha  occ. eigenvalues --  -14.19819 -14.19818 -14.19818 -14.19816 -14.19816
 Alpha  occ. eigenvalues --  -14.19624 -14.19623 -14.19014 -14.19014 -14.19014
 Alpha  occ. eigenvalues --  -14.19014 -14.19013 -14.19013 -14.19012 -14.19012
 Alpha  occ. eigenvalues --  -14.18859 -14.18858 -14.18858 -14.18858 -10.16260
 Alpha  occ. eigenvalues --  -10.16260 -10.16255 -10.16255 -10.16233 -10.16233
 Alpha  occ. eigenvalues --  -10.16233 -10.16233 -10.16191 -10.16191 -10.16186
 Alpha  occ. eigenvalues --  -10.16186 -10.16177 -10.16177 -10.16176 -10.16176
 Alpha  occ. eigenvalues --  -10.16081 -10.16080 -10.16076 -10.16075 -10.16050
 Alpha  occ. eigenvalues --  -10.16049 -10.16044 -10.16044 -10.09469 -10.09469
 Alpha  occ. eigenvalues --  -10.09455 -10.09455 -10.09425 -10.09424 -10.09409
 Alpha  occ. eigenvalues --  -10.09409 -10.09352 -10.09352 -10.09317 -10.09317
 Alpha  occ. eigenvalues --  -10.09289 -10.09289 -10.09288 -10.09288 -10.09237
 Alpha  occ. eigenvalues --  -10.09237 -10.09237 -10.09237 -10.09202 -10.09202
 Alpha  occ. eigenvalues --  -10.09202 -10.09202 -10.09151 -10.09151 -10.09119
 Alpha  occ. eigenvalues --  -10.09118 -10.09118 -10.09118 -10.09087 -10.09087
 Alpha  occ. eigenvalues --  -10.09070 -10.09070 -10.09038 -10.09037 -10.09028
 Alpha  occ. eigenvalues --  -10.09028 -10.09028 -10.09028 -10.09005 -10.09005
 Alpha  occ. eigenvalues --  -10.09005 -10.09004 -10.08980 -10.08980 -10.08979
 Alpha  occ. eigenvalues --  -10.08979 -10.08925 -10.08925 -10.08925 -10.08925
 Alpha  occ. eigenvalues --  -10.08897 -10.08896 -10.08896 -10.08896 -10.08860
 Alpha  occ. eigenvalues --  -10.08860 -10.08858 -10.08858 -10.08857 -10.08857
 Alpha  occ. eigenvalues --  -10.08820 -10.08820 -10.08818 -10.08817 -10.08781
 Alpha  occ. eigenvalues --  -10.08781 -10.08663 -10.08663 -10.08625 -10.08625
 Alpha  occ. eigenvalues --   -4.78278  -4.78278  -4.78087  -3.22899  -3.22899
 Alpha  occ. eigenvalues --   -3.22706  -3.21485  -3.21485  -3.21477  -3.21477
 Alpha  occ. eigenvalues --   -3.21299  -3.21283  -1.12777  -1.12616  -1.12307
 Alpha  occ. eigenvalues --   -1.11264  -1.11253  -1.11182  -1.11117  -1.10992
 Alpha  occ. eigenvalues --   -1.10801  -1.08395  -1.08341  -1.08144  -1.06156
 Alpha  occ. eigenvalues --   -1.06130  -1.05956  -1.02017  -1.01997  -1.01982
 Alpha  occ. eigenvalues --   -1.01977  -1.01833  -1.01815  -0.98927  -0.98899
 Alpha  occ. eigenvalues --   -0.98716  -0.97839  -0.97830  -0.97728  -0.97608
 Alpha  occ. eigenvalues --   -0.97586  -0.97547  -0.97522  -0.97503  -0.97331
 Alpha  occ. eigenvalues --   -0.97291  -0.97244  -0.97212  -0.89539  -0.89512
 Alpha  occ. eigenvalues --   -0.89320  -0.88251  -0.88232  -0.88097  -0.88065
 Alpha  occ. eigenvalues --   -0.87984  -0.87981  -0.87916  -0.87755  -0.87709
 Alpha  occ. eigenvalues --   -0.87683  -0.87622  -0.87607  -0.87589  -0.87389
 Alpha  occ. eigenvalues --   -0.87324  -0.87320  -0.87309  -0.87214  -0.87199
 Alpha  occ. eigenvalues --   -0.87179  -0.87054  -0.83760  -0.83738  -0.83566
 Alpha  occ. eigenvalues --   -0.81123  -0.81099  -0.81095  -0.81073  -0.80951
 Alpha  occ. eigenvalues --   -0.80856  -0.75686  -0.75652  -0.75593  -0.75484
 Alpha  occ. eigenvalues --   -0.75380  -0.75259  -0.74684  -0.74657  -0.74627
 Alpha  occ. eigenvalues --   -0.74623  -0.74446  -0.74405  -0.74032  -0.74000
 Alpha  occ. eigenvalues --   -0.73807  -0.73652  -0.73650  -0.73495  -0.71246
 Alpha  occ. eigenvalues --   -0.71201  -0.71171  -0.71156  -0.71105  -0.71081
 Alpha  occ. eigenvalues --   -0.70983  -0.70975  -0.70931  -0.70044  -0.69998
 Alpha  occ. eigenvalues --   -0.69811  -0.67506  -0.67499  -0.67305  -0.66526
 Alpha  occ. eigenvalues --   -0.66525  -0.66523  -0.66518  -0.66353  -0.66353
 Alpha  occ. eigenvalues --   -0.65060  -0.65053  -0.64882  -0.64858  -0.64856
 Alpha  occ. eigenvalues --   -0.64820  -0.64805  -0.64710  -0.64681  -0.61472
 Alpha  occ. eigenvalues --   -0.61264  -0.61259  -0.61240  -0.61205  -0.61107
 Alpha  occ. eigenvalues --   -0.61034  -0.61000  -0.60967  -0.60894  -0.60615
 Alpha  occ. eigenvalues --   -0.60614  -0.60443  -0.60234  -0.60191  -0.59522
 Alpha  occ. eigenvalues --   -0.59356  -0.59243  -0.59128  -0.59114  -0.59107
 Alpha  occ. eigenvalues --   -0.59094  -0.58925  -0.58910  -0.58768  -0.58490
 Alpha  occ. eigenvalues --   -0.57858  -0.57854  -0.57835  -0.57793  -0.57687
 Alpha  occ. eigenvalues --   -0.57579  -0.57478  -0.57019  -0.56884  -0.56874
 Alpha  occ. eigenvalues --   -0.56851  -0.56848  -0.56783  -0.56703  -0.56575
 Alpha  occ. eigenvalues --   -0.56347  -0.56329  -0.56214  -0.56177  -0.56154
 Alpha  occ. eigenvalues --   -0.56146  -0.56139  -0.55960  -0.55588  -0.55509
 Alpha  occ. eigenvalues --   -0.55315  -0.55260  -0.55216  -0.54983  -0.54977
 Alpha  occ. eigenvalues --   -0.54909  -0.54777  -0.54756  -0.54664  -0.54597
 Alpha  occ. eigenvalues --   -0.54571  -0.54508  -0.54408  -0.54164  -0.53708
 Alpha  occ. eigenvalues --   -0.53704  -0.53516  -0.53485  -0.53461  -0.53411
 Alpha  occ. eigenvalues --   -0.53406  -0.53297  -0.53283  -0.52930  -0.52198
 Alpha  occ. eigenvalues --   -0.52198  -0.52050  -0.51283  -0.51136  -0.51025
 Alpha  occ. eigenvalues --   -0.50729  -0.50296  -0.49988  -0.49758  -0.49685
 Alpha  occ. eigenvalues --   -0.49060  -0.48468  -0.48374  -0.48278  -0.47514
 Alpha  occ. eigenvalues --   -0.47461  -0.47457  -0.47187  -0.47115  -0.47078
 Alpha  occ. eigenvalues --   -0.47039  -0.47002  -0.46999  -0.46916  -0.46901
 Alpha  occ. eigenvalues --   -0.46876  -0.46558  -0.46263  -0.46258  -0.46255
 Alpha  occ. eigenvalues --   -0.46254  -0.46187  -0.46186  -0.46173  -0.46089
 Alpha  occ. eigenvalues --   -0.46060  -0.45990  -0.45591  -0.45559  -0.45361
 Alpha  occ. eigenvalues --   -0.45221  -0.44451  -0.44448  -0.44355  -0.44337
 Alpha  occ. eigenvalues --   -0.44225  -0.44153  -0.44124  -0.44114  -0.44032
 Alpha  occ. eigenvalues --   -0.43109  -0.42774  -0.42635  -0.42560  -0.42513
 Alpha  occ. eigenvalues --   -0.42345  -0.41485  -0.41419  -0.41258  -0.38667
 Alpha  occ. eigenvalues --   -0.38570  -0.38550  -0.38521  -0.38482  -0.38367
 Alpha  occ. eigenvalues --   -0.38112  -0.37685  -0.37272  -0.36729  -0.36721
 Alpha  occ. eigenvalues --   -0.36569  -0.36260  -0.35928  -0.35756  -0.35691
 Alpha  occ. eigenvalues --   -0.35625  -0.35527  -0.35415  -0.35120  -0.35117
 Alpha  occ. eigenvalues --   -0.34993  -0.34792  -0.34675  -0.34648  -0.34619
 Alpha  occ. eigenvalues --   -0.34578  -0.34512  -0.34492  -0.34352  -0.34327
 Alpha  occ. eigenvalues --   -0.34280  -0.34140  -0.34106  -0.33532  -0.33189
 Alpha  occ. eigenvalues --   -0.33133  -0.32854  -0.32768  -0.24024  -0.23383
 Alpha  occ. eigenvalues --   -0.22806
 Alpha virt. eigenvalues --   -0.06740  -0.06067  -0.05708  -0.05689  -0.05412
 Alpha virt. eigenvalues --   -0.04510   0.02287   0.02899   0.03384   0.03480
 Alpha virt. eigenvalues --    0.03523   0.03793   0.03912   0.04200   0.04500
 Alpha virt. eigenvalues --    0.04555   0.04597   0.04839   0.04876   0.05085
 Alpha virt. eigenvalues --    0.05207   0.07883   0.07936   0.09200   0.09331
 Alpha virt. eigenvalues --    0.09476   0.09545   0.09691   0.09715   0.10031
 Alpha virt. eigenvalues --    0.10064   0.10229   0.10428   0.10455   0.10484
 Alpha virt. eigenvalues --    0.10724   0.10731   0.11124   0.11149   0.11315
 Alpha virt. eigenvalues --    0.11414   0.11633   0.11812   0.11887   0.12165
 Alpha virt. eigenvalues --    0.12424   0.12674   0.12685   0.12713   0.13028
 Alpha virt. eigenvalues --    0.13049   0.13152   0.13165   0.13445   0.13456
 Alpha virt. eigenvalues --    0.13487   0.13642   0.13655   0.13755   0.13999
 Alpha virt. eigenvalues --    0.14128   0.14329   0.14386   0.14447   0.14627
 Alpha virt. eigenvalues --    0.14911   0.15261   0.15370   0.15625   0.15625
 Alpha virt. eigenvalues --    0.15807   0.15872   0.15944   0.16447   0.16533
 Alpha virt. eigenvalues --    0.17076   0.17098   0.17417   0.17447   0.17664
 Alpha virt. eigenvalues --    0.17749   0.17877   0.17936   0.18010   0.18355
 Alpha virt. eigenvalues --    0.19329   0.19348   0.19418   0.19439   0.19487
 Alpha virt. eigenvalues --    0.19676   0.19714   0.19741   0.19942   0.20014
 Alpha virt. eigenvalues --    0.20077   0.20143   0.20284   0.20580   0.20780
 Alpha virt. eigenvalues --    0.20837   0.21183   0.21236   0.21283   0.21478
 Alpha virt. eigenvalues --    0.21837   0.21949   0.22013   0.22031   0.22389
 Alpha virt. eigenvalues --    0.22403   0.22555   0.23171   0.23230   0.23621
 Alpha virt. eigenvalues --    0.24067   0.24086   0.24444   0.24446   0.24605
 Alpha virt. eigenvalues --    0.24651   0.25003   0.25011   0.25141   0.25195
 Alpha virt. eigenvalues --    0.25303   0.25358   0.25400   0.25472   0.25527
 Alpha virt. eigenvalues --    0.25667   0.25843   0.25949   0.26086   0.26186
 Alpha virt. eigenvalues --    0.26218   0.26398   0.26672   0.26749   0.26962
 Alpha virt. eigenvalues --    0.27003   0.27039   0.27052   0.27133   0.27200
 Alpha virt. eigenvalues --    0.27259   0.27511   0.27535   0.27538   0.27706
 Alpha virt. eigenvalues --    0.27734   0.27768   0.27998   0.28028   0.28052
 Alpha virt. eigenvalues --    0.28225   0.28305   0.28440   0.28601   0.28640
 Alpha virt. eigenvalues --    0.28662   0.28700   0.28704   0.28742   0.28904
 Alpha virt. eigenvalues --    0.28911   0.28923   0.28946   0.29035   0.29169
 Alpha virt. eigenvalues --    0.29347   0.29382   0.29397   0.29542   0.29588
 Alpha virt. eigenvalues --    0.29648   0.29655   0.29737   0.29766   0.29769
 Alpha virt. eigenvalues --    0.29902   0.30009   0.30134   0.30209   0.30293
 Alpha virt. eigenvalues --    0.30476   0.30502   0.30600   0.30651   0.30799
 Alpha virt. eigenvalues --    0.30840   0.30856   0.31172   0.31263   0.31305
 Alpha virt. eigenvalues --    0.31318   0.31358   0.31444   0.31535   0.31659
 Alpha virt. eigenvalues --    0.31690   0.31795   0.31936   0.32064   0.32069
 Alpha virt. eigenvalues --    0.32124   0.32210   0.32485   0.32653   0.32736
 Alpha virt. eigenvalues --    0.33023   0.33054   0.33123   0.33316   0.33536
 Alpha virt. eigenvalues --    0.33568   0.33703   0.33969   0.34012   0.34042
 Alpha virt. eigenvalues --    0.34193   0.34205   0.34430   0.34687   0.34703
 Alpha virt. eigenvalues --    0.34734   0.34894   0.35058   0.35193   0.35277
 Alpha virt. eigenvalues --    0.35354   0.35476   0.35495   0.35578   0.35650
 Alpha virt. eigenvalues --    0.35889   0.35982   0.36018   0.36211   0.36304
 Alpha virt. eigenvalues --    0.36528   0.36667   0.37058   0.37093   0.37193
 Alpha virt. eigenvalues --    0.37199   0.37343   0.37376   0.37584   0.37627
 Alpha virt. eigenvalues --    0.37715   0.37835   0.38069   0.38101   0.38150
 Alpha virt. eigenvalues --    0.38219   0.38369   0.38621   0.38715   0.38723
 Alpha virt. eigenvalues --    0.38846   0.38848   0.38927   0.38941   0.39126
 Alpha virt. eigenvalues --    0.39214   0.39282   0.39449   0.39685   0.39798
 Alpha virt. eigenvalues --    0.39806   0.39976   0.39986   0.40029   0.40029
 Alpha virt. eigenvalues --    0.40133   0.40179   0.40360   0.40454   0.40469
 Alpha virt. eigenvalues --    0.40671   0.40710   0.40756   0.40783   0.40841
 Alpha virt. eigenvalues --    0.40866   0.40964   0.41315   0.41567   0.41596
 Alpha virt. eigenvalues --    0.41602   0.41671   0.41707   0.41874   0.41933
 Alpha virt. eigenvalues --    0.41991   0.42121   0.42362   0.42554   0.42681
 Alpha virt. eigenvalues --    0.42803   0.42946   0.43135   0.43184   0.43252
 Alpha virt. eigenvalues --    0.43268   0.43481   0.43496   0.43521   0.43649
 Alpha virt. eigenvalues --    0.43818   0.43955   0.44059   0.44082   0.44291
 Alpha virt. eigenvalues --    0.44292   0.44319   0.44513   0.44595   0.44707
 Alpha virt. eigenvalues --    0.44717   0.44844   0.44856   0.44895   0.45100
 Alpha virt. eigenvalues --    0.45267   0.45273   0.45415   0.45451   0.45535
 Alpha virt. eigenvalues --    0.45688   0.45691   0.45758   0.45817   0.45976
 Alpha virt. eigenvalues --    0.46145   0.46148   0.46310   0.46530   0.46572
 Alpha virt. eigenvalues --    0.46748   0.46914   0.46959   0.47019   0.47070
 Alpha virt. eigenvalues --    0.47105   0.47251   0.47287   0.47417   0.47591
 Alpha virt. eigenvalues --    0.47605   0.47780   0.47786   0.48025   0.48027
 Alpha virt. eigenvalues --    0.48070   0.48085   0.48198   0.48339   0.48376
 Alpha virt. eigenvalues --    0.48471   0.48480   0.48758   0.48795   0.48935
 Alpha virt. eigenvalues --    0.48997   0.49385   0.49404   0.49431   0.49484
 Alpha virt. eigenvalues --    0.49598   0.49718   0.49804   0.49819   0.49841
 Alpha virt. eigenvalues --    0.49888   0.50045   0.50146   0.50190   0.50377
 Alpha virt. eigenvalues --    0.50391   0.50401   0.50434   0.50456   0.50528
 Alpha virt. eigenvalues --    0.50644   0.50706   0.50758   0.50905   0.51012
 Alpha virt. eigenvalues --    0.51166   0.51175   0.51502   0.51610   0.51689
 Alpha virt. eigenvalues --    0.51706   0.51988   0.52105   0.52300   0.52356
 Alpha virt. eigenvalues --    0.52386   0.52418   0.52446   0.52542   0.52615
 Alpha virt. eigenvalues --    0.52653   0.52805   0.52857   0.52965   0.52995
 Alpha virt. eigenvalues --    0.53254   0.53330   0.53331   0.53522   0.53544
 Alpha virt. eigenvalues --    0.53570   0.53681   0.53829   0.53915   0.54140
 Alpha virt. eigenvalues --    0.54219   0.54282   0.54417   0.54425   0.54866
 Alpha virt. eigenvalues --    0.54994   0.55001   0.55012   0.55043   0.55350
 Alpha virt. eigenvalues --    0.55399   0.55502   0.55626   0.55648   0.55654
 Alpha virt. eigenvalues --    0.55822   0.56167   0.56337   0.56355   0.56368
 Alpha virt. eigenvalues --    0.56454   0.56721   0.56776   0.56983   0.57133
 Alpha virt. eigenvalues --    0.57372   0.57545   0.57560   0.57692   0.57945
 Alpha virt. eigenvalues --    0.57972   0.57985   0.58137   0.58181   0.58467
 Alpha virt. eigenvalues --    0.58510   0.58723   0.58878   0.58921   0.59192
 Alpha virt. eigenvalues --    0.59287   0.59400   0.59482   0.59497   0.59555
 Alpha virt. eigenvalues --    0.59603   0.59674   0.59960   0.60182   0.60197
 Alpha virt. eigenvalues --    0.60217   0.60236   0.60348   0.60495   0.60621
 Alpha virt. eigenvalues --    0.60621   0.60737   0.60973   0.61082   0.61120
 Alpha virt. eigenvalues --    0.61238   0.61427   0.61665   0.61712   0.61899
 Alpha virt. eigenvalues --    0.61948   0.61962   0.62088   0.62138   0.62279
 Alpha virt. eigenvalues --    0.62412   0.62644   0.62657   0.62688   0.62873
 Alpha virt. eigenvalues --    0.62895   0.63144   0.63410   0.63524   0.63632
 Alpha virt. eigenvalues --    0.63710   0.64123   0.64221   0.64440   0.64543
 Alpha virt. eigenvalues --    0.64709   0.64790   0.64802   0.65059   0.65190
 Alpha virt. eigenvalues --    0.65385   0.65463   0.65499   0.65598   0.65781
 Alpha virt. eigenvalues --    0.65932   0.66023   0.66061   0.66542   0.66573
 Alpha virt. eigenvalues --    0.66727   0.66870   0.66909   0.67052   0.67129
 Alpha virt. eigenvalues --    0.67345   0.67510   0.67536   0.67804   0.67954
 Alpha virt. eigenvalues --    0.68038   0.68082   0.68279   0.68530   0.68585
 Alpha virt. eigenvalues --    0.68762   0.68912   0.68984   0.69009   0.69136
 Alpha virt. eigenvalues --    0.69164   0.69320   0.69591   0.69677   0.69852
 Alpha virt. eigenvalues --    0.69961   0.70026   0.70058   0.70205   0.70277
 Alpha virt. eigenvalues --    0.70315   0.70391   0.70802   0.70861   0.71016
 Alpha virt. eigenvalues --    0.71129   0.71311   0.71340   0.71432   0.71561
 Alpha virt. eigenvalues --    0.71631   0.71639   0.71813   0.71934   0.72012
 Alpha virt. eigenvalues --    0.72050   0.72143   0.72159   0.72252   0.72395
 Alpha virt. eigenvalues --    0.72779   0.72887   0.72919   0.73031   0.73119
 Alpha virt. eigenvalues --    0.73243   0.73273   0.73287   0.73382   0.73494
 Alpha virt. eigenvalues --    0.73579   0.73595   0.73704   0.73714   0.73805
 Alpha virt. eigenvalues --    0.73873   0.74114   0.74482   0.74613   0.74645
 Alpha virt. eigenvalues --    0.74711   0.74767   0.74826   0.74876   0.75127
 Alpha virt. eigenvalues --    0.75219   0.75340   0.75536   0.75540   0.75678
 Alpha virt. eigenvalues --    0.75808   0.75873   0.75874   0.75950   0.76302
 Alpha virt. eigenvalues --    0.76487   0.76512   0.76523   0.76865   0.76896
 Alpha virt. eigenvalues --    0.76969   0.77007   0.77147   0.77195   0.77293
 Alpha virt. eigenvalues --    0.77552   0.77598   0.77618   0.77991   0.78111
 Alpha virt. eigenvalues --    0.78259   0.78439   0.78570   0.78691   0.78768
 Alpha virt. eigenvalues --    0.78808   0.78862   0.78923   0.79087   0.79103
 Alpha virt. eigenvalues --    0.79151   0.79201   0.79348   0.79446   0.79652
 Alpha virt. eigenvalues --    0.79723   0.79801   0.79850   0.80023   0.80245
 Alpha virt. eigenvalues --    0.80326   0.80402   0.80461   0.80624   0.80718
 Alpha virt. eigenvalues --    0.80740   0.80769   0.80783   0.80936   0.81060
 Alpha virt. eigenvalues --    0.81198   0.81323   0.81468   0.81524   0.81629
 Alpha virt. eigenvalues --    0.81669   0.81689   0.81936   0.81986   0.82039
 Alpha virt. eigenvalues --    0.82071   0.82211   0.82320   0.82432   0.82475
 Alpha virt. eigenvalues --    0.82756   0.82767   0.82918   0.82988   0.83048
 Alpha virt. eigenvalues --    0.83411   0.83414   0.83511   0.83642   0.83729
 Alpha virt. eigenvalues --    0.83755   0.83763   0.83766   0.84084   0.84273
 Alpha virt. eigenvalues --    0.84297   0.84336   0.84453   0.84551   0.84710
 Alpha virt. eigenvalues --    0.84808   0.84884   0.84974   0.85112   0.85236
 Alpha virt. eigenvalues --    0.85329   0.85420   0.85543   0.85660   0.85667
 Alpha virt. eigenvalues --    0.85865   0.85981   0.86034   0.86140   0.86294
 Alpha virt. eigenvalues --    0.86503   0.86817   0.86863   0.86916   0.87046
 Alpha virt. eigenvalues --    0.87083   0.87370   0.87384   0.87496   0.87512
 Alpha virt. eigenvalues --    0.87637   0.87734   0.87739   0.87759   0.87890
 Alpha virt. eigenvalues --    0.87895   0.88137   0.88156   0.88388   0.88428
 Alpha virt. eigenvalues --    0.88529   0.88611   0.88865   0.89053   0.89112
 Alpha virt. eigenvalues --    0.89250   0.89254   0.89518   0.89606   0.89616
 Alpha virt. eigenvalues --    0.89633   0.89946   0.90095   0.90176   0.90212
 Alpha virt. eigenvalues --    0.90353   0.90734   0.91133   0.91242   0.91318
 Alpha virt. eigenvalues --    0.91415   0.91540   0.91594   0.91676   0.91847
 Alpha virt. eigenvalues --    0.91942   0.92118   0.92332   0.92357   0.92384
 Alpha virt. eigenvalues --    0.92659   0.92661   0.93187   0.93323   0.93331
 Alpha virt. eigenvalues --    0.93542   0.93727   0.93746   0.94054   0.94209
 Alpha virt. eigenvalues --    0.94409   0.94492   0.94793   0.94884   0.95063
 Alpha virt. eigenvalues --    0.95093   0.95205   0.95213   0.95594   0.95668
 Alpha virt. eigenvalues --    0.95709   0.96020   0.96031   0.96114   0.96388
 Alpha virt. eigenvalues --    0.96417   0.96588   0.96784   0.96844   0.96990
 Alpha virt. eigenvalues --    0.97096   0.97139   0.97205   0.97330   0.97414
 Alpha virt. eigenvalues --    0.97681   0.97776   0.97907   0.97963   0.98314
 Alpha virt. eigenvalues --    0.98405   0.98627   0.98978   0.99034   0.99103
 Alpha virt. eigenvalues --    0.99180   0.99379   0.99426   0.99524   0.99629
 Alpha virt. eigenvalues --    0.99687   0.99873   0.99915   1.00388   1.00477
 Alpha virt. eigenvalues --    1.00558   1.00659   1.00738   1.00746   1.00768
 Alpha virt. eigenvalues --    1.01096   1.01329   1.01426   1.01605   1.01761
 Alpha virt. eigenvalues --    1.01793   1.01834   1.02037   1.02053   1.02119
 Alpha virt. eigenvalues --    1.02173   1.02501   1.02504   1.02711   1.02740
 Alpha virt. eigenvalues --    1.03024   1.03179   1.03213   1.03379   1.03518
 Alpha virt. eigenvalues --    1.03680   1.03922   1.03997   1.04176   1.04411
 Alpha virt. eigenvalues --    1.04659   1.04701   1.04711   1.04833   1.04930
 Alpha virt. eigenvalues --    1.05219   1.05246   1.05361   1.05614   1.05696
 Alpha virt. eigenvalues --    1.05795   1.05845   1.05858   1.05945   1.06018
 Alpha virt. eigenvalues --    1.06311   1.06376   1.06623   1.06842   1.06857
 Alpha virt. eigenvalues --    1.06875   1.07114   1.07600   1.07859   1.07912
 Alpha virt. eigenvalues --    1.07926   1.07960   1.08255   1.08363   1.08394
 Alpha virt. eigenvalues --    1.08520   1.08593   1.08682   1.08825   1.09009
 Alpha virt. eigenvalues --    1.09325   1.09358   1.09381   1.09476   1.09488
 Alpha virt. eigenvalues --    1.09737   1.09760   1.09989   1.10088   1.10211
 Alpha virt. eigenvalues --    1.10518   1.10633   1.10773   1.11159   1.11451
 Alpha virt. eigenvalues --    1.11578   1.11600   1.11902   1.11946   1.12008
 Alpha virt. eigenvalues --    1.12089   1.12304   1.12409   1.12945   1.13106
 Alpha virt. eigenvalues --    1.13197   1.13279   1.13307   1.13358   1.13834
 Alpha virt. eigenvalues --    1.13998   1.14008   1.14445   1.14497   1.14683
 Alpha virt. eigenvalues --    1.14824   1.14908   1.15163   1.15370   1.15589
 Alpha virt. eigenvalues --    1.15775   1.15979   1.16034   1.16238   1.16264
 Alpha virt. eigenvalues --    1.16657   1.16899   1.16976   1.17294   1.17370
 Alpha virt. eigenvalues --    1.17704   1.17755   1.18107   1.18183   1.18243
 Alpha virt. eigenvalues --    1.18324   1.18355   1.18385   1.18698   1.18769
 Alpha virt. eigenvalues --    1.18898   1.19281   1.19392   1.19579   1.19589
 Alpha virt. eigenvalues --    1.19691   1.19763   1.19908   1.20315   1.20492
 Alpha virt. eigenvalues --    1.20619   1.20715   1.20722   1.20895   1.20969
 Alpha virt. eigenvalues --    1.21029   1.21364   1.21409   1.21519   1.21618
 Alpha virt. eigenvalues --    1.21689   1.22061   1.22725   1.22770   1.23003
 Alpha virt. eigenvalues --    1.23157   1.23229   1.23240   1.23411   1.23500
 Alpha virt. eigenvalues --    1.23507   1.23740   1.23903   1.23953   1.24000
 Alpha virt. eigenvalues --    1.24375   1.24402   1.24729   1.24807   1.25121
 Alpha virt. eigenvalues --    1.25162   1.25188   1.25393   1.25469   1.25562
 Alpha virt. eigenvalues --    1.25899   1.26062   1.26319   1.26323   1.26327
 Alpha virt. eigenvalues --    1.26358   1.26517   1.26862   1.26944   1.27086
 Alpha virt. eigenvalues --    1.27429   1.27614   1.27667   1.27763   1.27840
 Alpha virt. eigenvalues --    1.27945   1.28068   1.28145   1.28238   1.28384
 Alpha virt. eigenvalues --    1.28688   1.28979   1.29032   1.29089   1.29215
 Alpha virt. eigenvalues --    1.29377   1.29387   1.29802   1.29889   1.30042
 Alpha virt. eigenvalues --    1.30280   1.30299   1.30620   1.30810   1.30962
 Alpha virt. eigenvalues --    1.30978   1.31505   1.31546   1.31665   1.31754
 Alpha virt. eigenvalues --    1.32045   1.32078   1.32132   1.32162   1.32195
 Alpha virt. eigenvalues --    1.32517   1.32538   1.33245   1.33385   1.33526
 Alpha virt. eigenvalues --    1.33636   1.33788   1.33979   1.34011   1.34012
 Alpha virt. eigenvalues --    1.34238   1.34320   1.34428   1.34487   1.34771
 Alpha virt. eigenvalues --    1.35012   1.35217   1.35258   1.35264   1.35547
 Alpha virt. eigenvalues --    1.35674   1.35837   1.35937   1.36052   1.36158
 Alpha virt. eigenvalues --    1.36292   1.36298   1.36846   1.36850   1.36928
 Alpha virt. eigenvalues --    1.37074   1.37111   1.37532   1.37619   1.37661
 Alpha virt. eigenvalues --    1.37902   1.37937   1.38002   1.38144   1.38296
 Alpha virt. eigenvalues --    1.38530   1.38718   1.38871   1.38898   1.38911
 Alpha virt. eigenvalues --    1.39254   1.39300   1.39602   1.39769   1.39774
 Alpha virt. eigenvalues --    1.40077   1.40203   1.40277   1.40568   1.40635
 Alpha virt. eigenvalues --    1.40672   1.40705   1.40932   1.41170   1.41200
 Alpha virt. eigenvalues --    1.41201   1.41236   1.41654   1.41773   1.41810
 Alpha virt. eigenvalues --    1.41985   1.42343   1.42385   1.42504   1.42524
 Alpha virt. eigenvalues --    1.42631   1.42701   1.42860   1.42973   1.42979
 Alpha virt. eigenvalues --    1.43380   1.43526   1.43526   1.43546   1.43864
 Alpha virt. eigenvalues --    1.44085   1.44101   1.44179   1.44363   1.44443
 Alpha virt. eigenvalues --    1.44475   1.44817   1.45160   1.45326   1.45412
 Alpha virt. eigenvalues --    1.45456   1.45536   1.45935   1.46048   1.46169
 Alpha virt. eigenvalues --    1.46186   1.46205   1.46445   1.46520   1.46728
 Alpha virt. eigenvalues --    1.47243   1.47292   1.47458   1.47633   1.47767
 Alpha virt. eigenvalues --    1.47861   1.47975   1.48031   1.48209   1.48325
 Alpha virt. eigenvalues --    1.48352   1.48469   1.48483   1.48586   1.48673
 Alpha virt. eigenvalues --    1.49003   1.49199   1.49459   1.49486   1.49522
 Alpha virt. eigenvalues --    1.49582   1.49631   1.49871   1.50061   1.50463
 Alpha virt. eigenvalues --    1.50473   1.50753   1.50803   1.50842   1.51319
 Alpha virt. eigenvalues --    1.51335   1.51511   1.51559   1.51728   1.51798
 Alpha virt. eigenvalues --    1.51880   1.52088   1.52317   1.52425   1.52588
 Alpha virt. eigenvalues --    1.52642   1.53027   1.53134   1.53166   1.53282
 Alpha virt. eigenvalues --    1.53737   1.53851   1.53922   1.54041   1.54226
 Alpha virt. eigenvalues --    1.54252   1.54498   1.54534   1.54555   1.54887
 Alpha virt. eigenvalues --    1.54932   1.55065   1.55148   1.55323   1.55382
 Alpha virt. eigenvalues --    1.55468   1.55658   1.55897   1.55969   1.56070
 Alpha virt. eigenvalues --    1.56244   1.56336   1.56421   1.56511   1.56574
 Alpha virt. eigenvalues --    1.56903   1.57055   1.57229   1.57426   1.57439
 Alpha virt. eigenvalues --    1.57496   1.57761   1.57804   1.58019   1.58183
 Alpha virt. eigenvalues --    1.58207   1.58533   1.58662   1.58812   1.59005
 Alpha virt. eigenvalues --    1.59111   1.59127   1.59605   1.59712   1.59819
 Alpha virt. eigenvalues --    1.60075   1.60170   1.60393   1.60459   1.61117
 Alpha virt. eigenvalues --    1.61242   1.61297   1.61585   1.61663   1.61770
 Alpha virt. eigenvalues --    1.61940   1.61963   1.62310   1.62334   1.62485
 Alpha virt. eigenvalues --    1.62826   1.63051   1.63086   1.63301   1.63384
 Alpha virt. eigenvalues --    1.63392   1.63429   1.63912   1.64179   1.64189
 Alpha virt. eigenvalues --    1.64461   1.64511   1.64541   1.64580   1.64672
 Alpha virt. eigenvalues --    1.65325   1.65358   1.65393   1.65641   1.65789
 Alpha virt. eigenvalues --    1.66004   1.66147   1.66585   1.66965   1.67014
 Alpha virt. eigenvalues --    1.67032   1.67192   1.67425   1.67486   1.67601
 Alpha virt. eigenvalues --    1.67692   1.67702   1.67709   1.68016   1.68140
 Alpha virt. eigenvalues --    1.68194   1.68461   1.68603   1.68760   1.69175
 Alpha virt. eigenvalues --    1.69197   1.69459   1.69466   1.69536   1.69686
 Alpha virt. eigenvalues --    1.69862   1.70111   1.70527   1.70553   1.70690
 Alpha virt. eigenvalues --    1.70785   1.70881   1.70901   1.71186   1.71343
 Alpha virt. eigenvalues --    1.71427   1.71463   1.71519   1.71695   1.71905
 Alpha virt. eigenvalues --    1.71951   1.72176   1.72377   1.72390   1.72468
 Alpha virt. eigenvalues --    1.72562   1.72602   1.72773   1.73005   1.73240
 Alpha virt. eigenvalues --    1.73298   1.73449   1.73519   1.73706   1.73731
 Alpha virt. eigenvalues --    1.73973   1.74075   1.74123   1.74301   1.74333
 Alpha virt. eigenvalues --    1.74683   1.74731   1.74806   1.74924   1.75130
 Alpha virt. eigenvalues --    1.75221   1.75286   1.75628   1.75935   1.75980
 Alpha virt. eigenvalues --    1.76019   1.76117   1.76366   1.76429   1.76593
 Alpha virt. eigenvalues --    1.76712   1.77013   1.77055   1.77113   1.77202
 Alpha virt. eigenvalues --    1.77399   1.77487   1.77608   1.77816   1.77960
 Alpha virt. eigenvalues --    1.78122   1.78194   1.78394   1.78416   1.78457
 Alpha virt. eigenvalues --    1.78844   1.78873   1.79117   1.79183   1.79446
 Alpha virt. eigenvalues --    1.79482   1.79542   1.79744   1.79805   1.80065
 Alpha virt. eigenvalues --    1.80179   1.80339   1.80380   1.80495   1.80659
 Alpha virt. eigenvalues --    1.81009   1.81103   1.81273   1.81455   1.81501
 Alpha virt. eigenvalues --    1.81503   1.81557   1.81716   1.81811   1.82509
 Alpha virt. eigenvalues --    1.82561   1.82646   1.82797   1.82808   1.82986
 Alpha virt. eigenvalues --    1.83153   1.83206   1.83695   1.83704   1.83786
 Alpha virt. eigenvalues --    1.83932   1.84275   1.84325   1.84353   1.84558
 Alpha virt. eigenvalues --    1.84823   1.84864   1.85004   1.85123   1.85235
 Alpha virt. eigenvalues --    1.85295   1.85341   1.85408   1.85740   1.85948
 Alpha virt. eigenvalues --    1.86046   1.86233   1.86263   1.86551   1.86580
 Alpha virt. eigenvalues --    1.86612   1.87080   1.87123   1.87149   1.87255
 Alpha virt. eigenvalues --    1.87391   1.87469   1.87525   1.87625   1.87643
 Alpha virt. eigenvalues --    1.87769   1.87930   1.87987   1.88372   1.88473
 Alpha virt. eigenvalues --    1.88602   1.88945   1.89307   1.89326   1.89370
 Alpha virt. eigenvalues --    1.89675   1.90267   1.90448   1.90456   1.90531
 Alpha virt. eigenvalues --    1.90616   1.90772   1.90940   1.91049   1.91050
 Alpha virt. eigenvalues --    1.91233   1.91298   1.91317   1.91356   1.91514
 Alpha virt. eigenvalues --    1.91795   1.91920   1.92051   1.92126   1.92161
 Alpha virt. eigenvalues --    1.92671   1.92686   1.92927   1.92953   1.93187
 Alpha virt. eigenvalues --    1.93333   1.93681   1.93916   1.94246   1.94387
 Alpha virt. eigenvalues --    1.94429   1.94576   1.94935   1.95158   1.95180
 Alpha virt. eigenvalues --    1.95287   1.95392   1.95564   1.95779   1.95976
 Alpha virt. eigenvalues --    1.96229   1.96264   1.96384   1.96472   1.96587
 Alpha virt. eigenvalues --    1.96991   1.97046   1.97197   1.97211   1.97318
 Alpha virt. eigenvalues --    1.97652   1.98187   1.98292   1.98358   1.98391
 Alpha virt. eigenvalues --    1.98574   1.98796   1.98910   1.98940   1.99209
 Alpha virt. eigenvalues --    1.99285   1.99472   1.99604   2.00049   2.00121
 Alpha virt. eigenvalues --    2.00190   2.00390   2.00602   2.00807   2.00937
 Alpha virt. eigenvalues --    2.01385   2.01472   2.01483   2.01952   2.02029
 Alpha virt. eigenvalues --    2.02032   2.02209   2.02731   2.02957   2.03100
 Alpha virt. eigenvalues --    2.03412   2.03896   2.03984   2.04631   2.04755
 Alpha virt. eigenvalues --    2.04863   2.05230   2.05272   2.05301   2.05497
 Alpha virt. eigenvalues --    2.05765   2.05790   2.05931   2.05950   2.06351
 Alpha virt. eigenvalues --    2.07076   2.07128   2.07320   2.07372   2.07377
 Alpha virt. eigenvalues --    2.07561   2.07593   2.07826   2.07999   2.08317
 Alpha virt. eigenvalues --    2.08439   2.08664   2.08990   2.09621   2.09959
 Alpha virt. eigenvalues --    2.09989   2.10122   2.10214   2.10503   2.10531
 Alpha virt. eigenvalues --    2.10550   2.10786   2.11481   2.11714   2.11715
 Alpha virt. eigenvalues --    2.11810   2.11830   2.12037   2.12426   2.12859
 Alpha virt. eigenvalues --    2.13154   2.13213   2.13219   2.13823   2.14437
 Alpha virt. eigenvalues --    2.14670   2.14800   2.14805   2.14816   2.14945
 Alpha virt. eigenvalues --    2.15438   2.15502   2.15798   2.15850   2.16448
 Alpha virt. eigenvalues --    2.16651   2.16848   2.17411   2.17571   2.17678
 Alpha virt. eigenvalues --    2.17889   2.18007   2.18078   2.18149   2.18196
 Alpha virt. eigenvalues --    2.18598   2.18857   2.18906   2.18935   2.19395
 Alpha virt. eigenvalues --    2.19744   2.20087   2.20343   2.20356   2.20394
 Alpha virt. eigenvalues --    2.20439   2.20907   2.21181   2.21262   2.21606
 Alpha virt. eigenvalues --    2.21690   2.21903   2.22049   2.22135   2.22444
 Alpha virt. eigenvalues --    2.22917   2.23317   2.23433   2.23695   2.23745
 Alpha virt. eigenvalues --    2.23866   2.24294   2.24719   2.24884   2.25179
 Alpha virt. eigenvalues --    2.25216   2.25225   2.25727   2.25899   2.26078
 Alpha virt. eigenvalues --    2.26276   2.26651   2.26710   2.27028   2.27149
 Alpha virt. eigenvalues --    2.27172   2.27320   2.27858   2.28115   2.28140
 Alpha virt. eigenvalues --    2.28388   2.28474   2.28545   2.28776   2.29138
 Alpha virt. eigenvalues --    2.29382   2.29967   2.29970   2.29993   2.30353
 Alpha virt. eigenvalues --    2.30378   2.31160   2.31405   2.31571   2.31630
 Alpha virt. eigenvalues --    2.31664   2.31834   2.32225   2.32415   2.32653
 Alpha virt. eigenvalues --    2.32820   2.33121   2.33396   2.33785   2.33845
 Alpha virt. eigenvalues --    2.34831   2.34863   2.34979   2.35007   2.35256
 Alpha virt. eigenvalues --    2.35497   2.35556   2.35690   2.35795   2.36162
 Alpha virt. eigenvalues --    2.36424   2.36584   2.36777   2.36837   2.36861
 Alpha virt. eigenvalues --    2.37407   2.37457   2.37745   2.38188   2.38427
 Alpha virt. eigenvalues --    2.38503   2.38541   2.38902   2.39244   2.39530
 Alpha virt. eigenvalues --    2.39541   2.39552   2.39618   2.39879   2.39938
 Alpha virt. eigenvalues --    2.40043   2.40128   2.40836   2.40936   2.41019
 Alpha virt. eigenvalues --    2.41091   2.41179   2.41225   2.41432   2.41770
 Alpha virt. eigenvalues --    2.41842   2.41892   2.41917   2.42406   2.42415
 Alpha virt. eigenvalues --    2.42538   2.42932   2.43074   2.43283   2.43450
 Alpha virt. eigenvalues --    2.43690   2.43847   2.44006   2.44315   2.44579
 Alpha virt. eigenvalues --    2.44620   2.45197   2.45382   2.45669   2.45980
 Alpha virt. eigenvalues --    2.46161   2.46240   2.46275   2.46822   2.46854
 Alpha virt. eigenvalues --    2.46864   2.47306   2.47511   2.47642   2.47901
 Alpha virt. eigenvalues --    2.48455   2.48581   2.48600   2.48710   2.48943
 Alpha virt. eigenvalues --    2.49125   2.49215   2.49260   2.49473   2.49691
 Alpha virt. eigenvalues --    2.50013   2.50155   2.50284   2.50425   2.50655
 Alpha virt. eigenvalues --    2.50798   2.50877   2.51027   2.51474   2.51679
 Alpha virt. eigenvalues --    2.51790   2.51958   2.52148   2.52184   2.52528
 Alpha virt. eigenvalues --    2.52799   2.52895   2.53070   2.53218   2.53260
 Alpha virt. eigenvalues --    2.53687   2.53777   2.53877   2.54225   2.54311
 Alpha virt. eigenvalues --    2.54425   2.54538   2.54637   2.54687   2.54969
 Alpha virt. eigenvalues --    2.55075   2.55127   2.55275   2.55335   2.55480
 Alpha virt. eigenvalues --    2.56004   2.56044   2.56429   2.56583   2.56736
 Alpha virt. eigenvalues --    2.56940   2.57022   2.57301   2.57602   2.57992
 Alpha virt. eigenvalues --    2.58075   2.58121   2.58293   2.58533   2.58573
 Alpha virt. eigenvalues --    2.58960   2.59033   2.59061   2.59546   2.59783
 Alpha virt. eigenvalues --    2.59920   2.60156   2.60225   2.60431   2.60475
 Alpha virt. eigenvalues --    2.60764   2.61054   2.61341   2.61367   2.61930
 Alpha virt. eigenvalues --    2.62256   2.62437   2.62503   2.62803   2.62879
 Alpha virt. eigenvalues --    2.63675   2.63807   2.63833   2.63977   2.64337
 Alpha virt. eigenvalues --    2.64746   2.64802   2.64911   2.65423   2.65487
 Alpha virt. eigenvalues --    2.65578   2.65585   2.66194   2.66255   2.66371
 Alpha virt. eigenvalues --    2.66437   2.67110   2.67309   2.67623   2.68060
 Alpha virt. eigenvalues --    2.68105   2.68116   2.68549   2.68892   2.70389
 Alpha virt. eigenvalues --    2.70397   2.70415   2.70580   2.71499   2.71503
 Alpha virt. eigenvalues --    2.71639   2.72043   2.72155   2.72157   2.72399
 Alpha virt. eigenvalues --    2.72549   2.72565   2.73027   2.73109   2.73586
 Alpha virt. eigenvalues --    2.73749   2.74722   2.75060   2.75064   2.75509
 Alpha virt. eigenvalues --    2.75553   2.75676   2.75706   2.75884   2.75935
 Alpha virt. eigenvalues --    2.76033   2.76164   2.76507   2.76551   2.76855
 Alpha virt. eigenvalues --    2.76926   2.77128   2.77187   2.77253   2.77275
 Alpha virt. eigenvalues --    2.77646   2.77730   2.77828   2.77944   2.78299
 Alpha virt. eigenvalues --    2.78694   2.78777   2.78855   2.78932   2.79020
 Alpha virt. eigenvalues --    2.79043   2.79090   2.79202   2.79541   2.79578
 Alpha virt. eigenvalues --    2.80020   2.80135   2.80230   2.80247   2.80630
 Alpha virt. eigenvalues --    2.80672   2.80821   2.80865   2.80981   2.81220
 Alpha virt. eigenvalues --    2.81327   2.81455   2.81617   2.82114   2.82170
 Alpha virt. eigenvalues --    2.82631   2.82683   2.82954   2.82981   2.83161
 Alpha virt. eigenvalues --    2.83390   2.83528   2.83646   2.84308   2.84636
 Alpha virt. eigenvalues --    2.84959   2.85008   2.85815   2.86132   2.86311
 Alpha virt. eigenvalues --    2.86721   2.87220   2.87609   2.87950   2.88298
 Alpha virt. eigenvalues --    2.88574   2.88676   2.89153   2.89352   2.89445
 Alpha virt. eigenvalues --    2.89612   2.89704   2.89935   2.90440   2.90567
 Alpha virt. eigenvalues --    2.90697   2.90747   2.91293   2.91476   2.91715
 Alpha virt. eigenvalues --    2.92156   2.92188   2.92334   2.92465   2.92877
 Alpha virt. eigenvalues --    2.92969   2.93471   2.93732   2.93816   2.94216
 Alpha virt. eigenvalues --    2.94554   2.94572   2.95132   2.95144   2.95208
 Alpha virt. eigenvalues --    2.95622   2.95856   2.95881   2.95994   2.96402
 Alpha virt. eigenvalues --    2.96498   2.96782   2.96795   2.97005   2.97199
 Alpha virt. eigenvalues --    2.97388   2.97428   2.97487   2.97498   2.97622
 Alpha virt. eigenvalues --    2.97923   2.97943   2.98126   2.98133   2.98389
 Alpha virt. eigenvalues --    2.98438   2.98913   2.98927   2.99094   2.99140
 Alpha virt. eigenvalues --    2.99205   2.99434   2.99479   2.99736   3.00133
 Alpha virt. eigenvalues --    3.00159   3.00406   3.00479   3.00537   3.01050
 Alpha virt. eigenvalues --    3.01149   3.01175   3.01358   3.01463   3.01480
 Alpha virt. eigenvalues --    3.01625   3.02231   3.02306   3.02475   3.02757
 Alpha virt. eigenvalues --    3.02763   3.02915   3.03198   3.03353   3.03468
 Alpha virt. eigenvalues --    3.03761   3.04151   3.04190   3.04354   3.04539
 Alpha virt. eigenvalues --    3.04985   3.05016   3.05046   3.05188   3.05202
 Alpha virt. eigenvalues --    3.05393   3.05541   3.05733   3.05958   3.06195
 Alpha virt. eigenvalues --    3.06912   3.06929   3.06982   3.07051   3.07309
 Alpha virt. eigenvalues --    3.07477   3.07700   3.07767   3.07938   3.08230
 Alpha virt. eigenvalues --    3.08470   3.08812   3.08946   3.08958   3.09597
 Alpha virt. eigenvalues --    3.09662   3.09699   3.09702   3.09888   3.09963
 Alpha virt. eigenvalues --    3.10007   3.10466   3.10611   3.10807   3.10904
 Alpha virt. eigenvalues --    3.10958   3.10969   3.10969   3.11265   3.11525
 Alpha virt. eigenvalues --    3.11643   3.11677   3.11686   3.11892   3.12559
 Alpha virt. eigenvalues --    3.12611   3.12845   3.13315   3.13332   3.13392
 Alpha virt. eigenvalues --    3.13643   3.13834   3.14045   3.14192   3.14215
 Alpha virt. eigenvalues --    3.14833   3.14957   3.14995   3.15472   3.15800
 Alpha virt. eigenvalues --    3.15933   3.16122   3.16170   3.16211   3.16594
 Alpha virt. eigenvalues --    3.16857   3.17132   3.17150   3.17174   3.17562
 Alpha virt. eigenvalues --    3.17691   3.17819   3.17908   3.18295   3.18449
 Alpha virt. eigenvalues --    3.18602   3.18803   3.18935   3.19004   3.19342
 Alpha virt. eigenvalues --    3.19369   3.19532   3.19704   3.19714   3.19751
 Alpha virt. eigenvalues --    3.19846   3.20038   3.20189   3.20527   3.20549
 Alpha virt. eigenvalues --    3.20559   3.20624   3.20933   3.21076   3.21270
 Alpha virt. eigenvalues --    3.21309   3.21629   3.21777   3.22027   3.22186
 Alpha virt. eigenvalues --    3.22566   3.22580   3.22777   3.22807   3.22909
 Alpha virt. eigenvalues --    3.23330   3.23358   3.23427   3.23525   3.23677
 Alpha virt. eigenvalues --    3.23683   3.23741   3.24090   3.24263   3.24611
 Alpha virt. eigenvalues --    3.24778   3.24783   3.24930   3.25747   3.25797
 Alpha virt. eigenvalues --    3.25949   3.26182   3.26248   3.26305   3.26357
 Alpha virt. eigenvalues --    3.26645   3.26860   3.26891   3.26918   3.27116
 Alpha virt. eigenvalues --    3.27193   3.27463   3.27766   3.27798   3.28228
 Alpha virt. eigenvalues --    3.28330   3.28366   3.28460   3.28535   3.28537
 Alpha virt. eigenvalues --    3.28640   3.28708   3.28971   3.29286   3.29507
 Alpha virt. eigenvalues --    3.29628   3.29672   3.29745   3.30243   3.30262
 Alpha virt. eigenvalues --    3.30399   3.30443   3.30506   3.30649   3.30911
 Alpha virt. eigenvalues --    3.31195   3.31284   3.31560   3.31581   3.31646
 Alpha virt. eigenvalues --    3.31721   3.32085   3.32646   3.32655   3.32816
 Alpha virt. eigenvalues --    3.32921   3.33035   3.33203   3.33236   3.33288
 Alpha virt. eigenvalues --    3.33644   3.34023   3.34450   3.34526   3.34622
 Alpha virt. eigenvalues --    3.34695   3.35103   3.35254   3.35447   3.35552
 Alpha virt. eigenvalues --    3.35561   3.35586   3.35833   3.36427   3.36748
 Alpha virt. eigenvalues --    3.36762   3.36865   3.37085   3.37231   3.37395
 Alpha virt. eigenvalues --    3.37409   3.37622   3.37668   3.38031   3.38269
 Alpha virt. eigenvalues --    3.38306   3.38541   3.38677   3.38693   3.38965
 Alpha virt. eigenvalues --    3.39006   3.39156   3.39561   3.39722   3.39794
 Alpha virt. eigenvalues --    3.40009   3.40139   3.40406   3.40618   3.40785
 Alpha virt. eigenvalues --    3.40794   3.40796   3.41136   3.41352   3.41401
 Alpha virt. eigenvalues --    3.41570   3.41699   3.41801   3.41958   3.42080
 Alpha virt. eigenvalues --    3.42110   3.42362   3.42401   3.42734   3.42770
 Alpha virt. eigenvalues --    3.42797   3.42984   3.43260   3.43325   3.43445
 Alpha virt. eigenvalues --    3.43451   3.43695   3.44065   3.44368   3.44454
 Alpha virt. eigenvalues --    3.44471   3.44789   3.44817   3.44953   3.45192
 Alpha virt. eigenvalues --    3.45507   3.45566   3.45699   3.46029   3.46346
 Alpha virt. eigenvalues --    3.46435   3.46683   3.46979   3.47302   3.47313
 Alpha virt. eigenvalues --    3.47497   3.47616   3.47648   3.47781   3.47965
 Alpha virt. eigenvalues --    3.48158   3.48262   3.48548   3.48703   3.49051
 Alpha virt. eigenvalues --    3.49091   3.49200   3.49612   3.49793   3.49945
 Alpha virt. eigenvalues --    3.50077   3.50386   3.50501   3.50957   3.50995
 Alpha virt. eigenvalues --    3.51079   3.51405   3.51452   3.51679   3.51782
 Alpha virt. eigenvalues --    3.52042   3.52613   3.52637   3.52882   3.53336
 Alpha virt. eigenvalues --    3.53372   3.53587   3.53904   3.54104   3.54114
 Alpha virt. eigenvalues --    3.54437   3.54681   3.54869   3.55102   3.55317
 Alpha virt. eigenvalues --    3.55324   3.55331   3.55379   3.55444   3.55738
 Alpha virt. eigenvalues --    3.55900   3.56059   3.56333   3.56354   3.56496
 Alpha virt. eigenvalues --    3.56538   3.56880   3.56922   3.57252   3.57348
 Alpha virt. eigenvalues --    3.57624   3.57677   3.57747   3.57910   3.58273
 Alpha virt. eigenvalues --    3.58326   3.58348   3.58908   3.58976   3.59151
 Alpha virt. eigenvalues --    3.59166   3.59244   3.59559   3.59638   3.59905
 Alpha virt. eigenvalues --    3.60002   3.60184   3.60398   3.60413   3.60540
 Alpha virt. eigenvalues --    3.60774   3.61179   3.61185   3.61457   3.61492
 Alpha virt. eigenvalues --    3.61608   3.61744   3.62046   3.62228   3.62321
 Alpha virt. eigenvalues --    3.62448   3.62834   3.62856   3.62982   3.63136
 Alpha virt. eigenvalues --    3.63145   3.63599   3.63788   3.63996   3.64265
 Alpha virt. eigenvalues --    3.64422   3.64492   3.64651   3.64723   3.65153
 Alpha virt. eigenvalues --    3.65161   3.65279   3.65500   3.65528   3.65604
 Alpha virt. eigenvalues --    3.66145   3.66147   3.66353   3.66622   3.67077
 Alpha virt. eigenvalues --    3.67155   3.67488   3.67886   3.68037   3.68486
 Alpha virt. eigenvalues --    3.68753   3.68878   3.69085   3.69243   3.69580
 Alpha virt. eigenvalues --    3.70026   3.70262   3.70522   3.70538   3.70690
 Alpha virt. eigenvalues --    3.70690   3.70835   3.70944   3.71385   3.71660
 Alpha virt. eigenvalues --    3.71722   3.72171   3.72203   3.72394   3.72616
 Alpha virt. eigenvalues --    3.72698   3.72939   3.73115   3.73328   3.73630
 Alpha virt. eigenvalues --    3.73805   3.73826   3.73927   3.74467   3.74698
 Alpha virt. eigenvalues --    3.75114   3.75173   3.75730   3.75852   3.76341
 Alpha virt. eigenvalues --    3.76464   3.76634   3.76844   3.76848   3.77177
 Alpha virt. eigenvalues --    3.77513   3.77516   3.77912   3.78066   3.78223
 Alpha virt. eigenvalues --    3.78810   3.78901   3.79218   3.79521   3.79702
 Alpha virt. eigenvalues --    3.79735   3.79866   3.80177   3.80595   3.81443
 Alpha virt. eigenvalues --    3.82310   3.82324   3.82619   3.82898   3.82950
 Alpha virt. eigenvalues --    3.83494   3.83893   3.83925   3.84166   3.84193
 Alpha virt. eigenvalues --    3.84433   3.84492   3.85189   3.85221   3.85313
 Alpha virt. eigenvalues --    3.85394   3.85543   3.85915   3.87202   3.87314
 Alpha virt. eigenvalues --    3.87766   3.87848   3.88314   3.88813   3.88926
 Alpha virt. eigenvalues --    3.89074   3.89331   3.90337   3.90863   3.91324
 Alpha virt. eigenvalues --    3.92115   3.92291   3.92622   3.92816   3.93613
 Alpha virt. eigenvalues --    3.93673   3.94379   3.94636   3.95072   3.95085
 Alpha virt. eigenvalues --    3.95246   3.95301   3.96015   3.96494   3.96602
 Alpha virt. eigenvalues --    3.97011   3.97958   3.98035   3.98081   3.98915
 Alpha virt. eigenvalues --    3.99100   3.99419   3.99730   4.00359   4.00365
 Alpha virt. eigenvalues --    4.01028   4.01902   4.02329   4.02541   4.02595
 Alpha virt. eigenvalues --    4.02682   4.02826   4.03332   4.03380   4.03656
 Alpha virt. eigenvalues --    4.03831   4.04195   4.04873   4.06318   4.06420
 Alpha virt. eigenvalues --    4.06474   4.07297   4.07371   4.07882   4.08094
 Alpha virt. eigenvalues --    4.08306   4.08356   4.08413   4.08479   4.08585
 Alpha virt. eigenvalues --    4.09104   4.09161   4.09450   4.09757   4.10068
 Alpha virt. eigenvalues --    4.10196   4.10248   4.10479   4.10512   4.10583
 Alpha virt. eigenvalues --    4.11561   4.12738   4.12886   4.12924   4.13040
 Alpha virt. eigenvalues --    4.13077   4.13980   4.14213   4.14922   4.15416
 Alpha virt. eigenvalues --    4.15614   4.15805   4.15890   4.16436   4.17494
 Alpha virt. eigenvalues --    4.17672   4.18350   4.19036   4.19560   4.19870
 Alpha virt. eigenvalues --    4.22175   4.22670   4.22940   4.23006   4.23014
 Alpha virt. eigenvalues --    4.24525   4.25280   4.25945   4.26008   4.26325
 Alpha virt. eigenvalues --    4.27156   4.27373   4.27479   4.28014   4.28198
 Alpha virt. eigenvalues --    4.29046   4.29131   4.29492   4.29511   4.30751
 Alpha virt. eigenvalues --    4.31132   4.31690   4.31791   4.34188   4.34245
 Alpha virt. eigenvalues --    4.34340   4.34648   4.35860   4.36409   4.36442
 Alpha virt. eigenvalues --    4.36547   4.36970   4.37328   4.37567   4.37862
 Alpha virt. eigenvalues --    4.37967   4.38008   4.38721   4.38750   4.39078
 Alpha virt. eigenvalues --    4.39151   4.39749   4.40977   4.41211   4.41401
 Alpha virt. eigenvalues --    4.42084   4.42877   4.43136   4.43188   4.43324
 Alpha virt. eigenvalues --    4.43549   4.44061   4.44098   4.44250   4.44372
 Alpha virt. eigenvalues --    4.45563   4.45612   4.45863   4.49533   4.49783
 Alpha virt. eigenvalues --    4.50298   4.50651   4.50743   4.50848   4.51344
 Alpha virt. eigenvalues --    4.51452   4.51753   4.52580   4.54039   4.54585
 Alpha virt. eigenvalues --    4.55133   4.62305   4.62372   4.63183   4.63230
 Alpha virt. eigenvalues --    4.63297   4.63347   4.63450   4.64404   4.64434
 Alpha virt. eigenvalues --    4.67858   4.68019   4.68292   4.69392   4.69541
 Alpha virt. eigenvalues --    4.77366   4.77897   4.78006   4.78199   4.79098
 Alpha virt. eigenvalues --    4.79378   4.79398   4.79621   4.80024   4.80578
 Alpha virt. eigenvalues --    4.81105   4.81357   4.83885   4.84100   4.85263
 Alpha virt. eigenvalues --    4.85314   4.85817   4.86266   4.87688   4.87936
 Alpha virt. eigenvalues --    4.88155   4.88267   4.90777   4.90814   4.91366
 Alpha virt. eigenvalues --    4.91459   4.92664   4.93132   4.97110   4.98128
 Alpha virt. eigenvalues --    5.00073   5.00411   5.00674   5.00859   5.01444
 Alpha virt. eigenvalues --    5.01485   5.02351   5.02367   5.02978   5.03721
 Alpha virt. eigenvalues --    5.03866   5.04085   5.04651   5.04820   5.05078
 Alpha virt. eigenvalues --    5.05802   5.05976   5.07344   5.07347   5.07430
 Alpha virt. eigenvalues --    5.08052   5.08577   5.08941   5.09750   5.10469
 Alpha virt. eigenvalues --    5.11487   5.12199   5.12581   5.12616   5.13261
 Alpha virt. eigenvalues --    5.13841   5.14505   5.15514   5.17997   5.18104
 Alpha virt. eigenvalues --    5.18213   5.18818   5.19718   5.19723   5.21127
 Alpha virt. eigenvalues --    5.21232   5.21289   5.21564   5.23327   5.24318
 Alpha virt. eigenvalues --    5.24755   5.27750   5.28286   5.29375   5.32004
 Alpha virt. eigenvalues --    5.32089   5.33157   5.34210   5.34652   5.34825
 Alpha virt. eigenvalues --    5.35039   5.35301   5.35322   5.39104   5.39699
 Alpha virt. eigenvalues --    5.40198   5.41253   5.41266   5.43131   5.43255
 Alpha virt. eigenvalues --    5.43600   5.43681   5.44135   5.45368   5.46787
 Alpha virt. eigenvalues --    5.46807   5.46872   5.47655   5.48264   5.48334
 Alpha virt. eigenvalues --    5.48420   5.48485   5.48698   5.53638   5.55296
 Alpha virt. eigenvalues --    5.55646   5.56586   5.56641   5.57316   5.59536
 Alpha virt. eigenvalues --    5.68114   5.68474   5.70181   5.70260   5.71158
 Alpha virt. eigenvalues --    5.71167   5.71505   5.71751   5.74702   5.75054
 Alpha virt. eigenvalues --    5.79333   5.79576   5.96038   5.97952   5.97963
 Alpha virt. eigenvalues --    5.98918   6.04444   6.07560   6.12936   6.13576
 Alpha virt. eigenvalues --    6.16313   6.59512   6.59532   6.59805   6.60247
 Alpha virt. eigenvalues --    6.60375   6.60961   6.61208   6.61271   6.61477
 Alpha virt. eigenvalues --    6.62660   6.62661   6.62699   6.62711   6.63429
 Alpha virt. eigenvalues --    6.63461   6.76091   6.76240   6.76249   6.76507
 Alpha virt. eigenvalues --    6.77061   6.77405  21.70759  21.75925  21.78757
 Alpha virt. eigenvalues --   21.80778  21.84540  21.85280  21.87818  21.89776
 Alpha virt. eigenvalues --   21.99840  22.00538  22.02795  22.05364  22.05514
 Alpha virt. eigenvalues --   22.06057  22.08223  22.10049  22.13335  22.13478
 Alpha virt. eigenvalues --   22.16403  22.18525  22.18530  22.18817  22.19312
 Alpha virt. eigenvalues --   22.20027  22.20915  22.22243  22.22354  22.23068
 Alpha virt. eigenvalues --   22.23222  22.24017  22.24437  22.24561  22.24575
 Alpha virt. eigenvalues --   22.24725  22.26081  22.27196  22.27275  22.28307
 Alpha virt. eigenvalues --   22.28796  22.29016  22.29844  22.32393  22.33088
 Alpha virt. eigenvalues --   22.33570  22.33680  22.34265  22.34528  22.38609
 Alpha virt. eigenvalues --   22.46396  22.47559  22.48303  22.48834  22.49445
 Alpha virt. eigenvalues --   22.50133  22.51751  22.53266  22.54443  22.54619
 Alpha virt. eigenvalues --   22.56985  22.58488  22.60183  22.60684  22.61231
 Alpha virt. eigenvalues --   22.61515  22.61538  22.62905  22.63273  22.64351
 Alpha virt. eigenvalues --   22.66162  22.66339  22.67445  22.68391  22.70082
 Alpha virt. eigenvalues --   22.70358  22.73459  22.74457  22.75249  22.75543
 Alpha virt. eigenvalues --   22.76163  22.79064  22.80865  22.80982  22.81095
 Alpha virt. eigenvalues --   22.85052  23.31919  23.32139  23.33315  23.34314
 Alpha virt. eigenvalues --   23.34931  23.35197  23.35498  23.35966  23.36984
 Alpha virt. eigenvalues --   23.37989  23.38083  23.39324  32.21968  32.22362
 Alpha virt. eigenvalues --   32.24431  32.25995  32.26773  32.26838  32.44442
 Alpha virt. eigenvalues --   32.47845  32.51577  32.52806  32.53420  32.59033
 Alpha virt. eigenvalues --   32.59105  32.60218  32.60840  32.60849  32.62695
 Alpha virt. eigenvalues --   32.68368  32.70586  32.70814  32.73984  32.76308
 Alpha virt. eigenvalues --   32.76763  32.81146
          Condensed to atoms (all electrons):
 Mulliken charges:
               1
     1  C   -0.094764
     2  C   -0.073691
     3  C   -0.208471
     4  C    0.060538
     5  C    0.143017
     6  C   -0.224744
     7  C    0.383880
     8  C    0.369858
     9  N   -0.267587
    10  N   -0.555060
    11  N   -0.543041
    12  H    0.115456
    13  H    0.116153
    14  H    0.138722
    15  H    0.131219
    16  C   -0.084727
    17  C   -0.084727
    18  C   -0.211557
    19  C    0.108526
    20  C    0.108526
    21  C   -0.211557
    22  C    0.322232
    23  C    0.322232
    24  N   -0.269566
    25  N   -0.543041
    26  H    0.117191
    27  H    0.117191
    28  H    0.129147
    29  H    0.129147
    30  C   -0.078094
    31  C   -0.078094
    32  C   -0.246851
    33  C    0.132092
    34  C    0.132092
    35  C   -0.246851
    36  C    0.374579
    37  C    0.374579
    38  N   -0.263151
    39  N   -0.555060
    40  H    0.119449
    41  H    0.119449
    42  H    0.131619
    43  H    0.131619
    44  C   -0.073691
    45  C   -0.094764
    46  C   -0.224744
    47  C    0.143017
    48  C    0.060538
    49  C   -0.208471
    50  C    0.369858
    51  C    0.383880
    52  N   -0.267587
    53  H    0.116153
    54  H    0.115456
    55  H    0.131219
    56  H    0.138722
    57  Zn  -0.185719
    58  C   -0.077979
    59  C   -0.077979
    60  C   -0.230418
    61  C    0.132604
    62  C    0.132604
    63  C   -0.230418
    64  C    0.356205
    65  C    0.356205
    66  N   -0.307018
    67  N   -0.594275
    68  N   -0.594275
    69  H    0.110515
    70  H    0.110515
    71  H    0.129038
    72  H    0.129038
    73  C   -0.065401
    74  C   -0.065401
    75  C   -0.260574
    76  C    0.103355
    77  C    0.103355
    78  C   -0.260574
    79  C    0.379629
    80  C    0.379629
    81  N   -0.259842
    82  N   -0.594275
    83  H    0.114186
    84  H    0.114186
    85  H    0.116200
    86  H    0.116200
    87  C   -0.065401
    88  C   -0.065401
    89  C   -0.260574
    90  C    0.103355
    91  C    0.103355
    92  C   -0.260574
    93  C    0.379629
    94  C    0.379629
    95  N   -0.259842
    96  N   -0.594275
    97  H    0.114186
    98  H    0.114186
    99  H    0.116200
   100  H    0.116200
   101  C   -0.077979
   102  C   -0.077979
   103  C   -0.230418
   104  C    0.132604
   105  C    0.132604
   106  C   -0.230418
   107  C    0.356205
   108  C    0.356205
   109  N   -0.307018
   110  H    0.110515
   111  H    0.110515
   112  H    0.129038
   113  H    0.129038
   114  Zn   0.497899
   115  C   -0.073691
   116  C   -0.094764
   117  C   -0.224744
   118  C    0.143017
   119  C    0.060538
   120  C   -0.208471
   121  C    0.369858
   122  C    0.383880
   123  N   -0.267587
   124  N   -0.543041
   125  N   -0.555060
   126  H    0.116153
   127  H    0.115456
   128  H    0.131219
   129  H    0.138722
   130  C   -0.078094
   131  C   -0.078094
   132  C   -0.246851
   133  C    0.132092
   134  C    0.132092
   135  C   -0.246851
   136  C    0.374579
   137  C    0.374579
   138  N   -0.263151
   139  N   -0.555060
   140  H    0.119449
   141  H    0.119449
   142  H    0.131619
   143  H    0.131619
   144  C   -0.084727
   145  C   -0.084727
   146  C   -0.211557
   147  C    0.108526
   148  C    0.108526
   149  C   -0.211557
   150  C    0.322232
   151  C    0.322232
   152  N   -0.269566
   153  N   -0.543041
   154  H    0.117191
   155  H    0.117191
   156  H    0.129147
   157  H    0.129147
   158  C   -0.094764
   159  C   -0.073691
   160  C   -0.208471
   161  C    0.060538
   162  C    0.143017
   163  C   -0.224744
   164  C    0.383880
   165  C    0.369858
   166  N   -0.267587
   167  H    0.115456
   168  H    0.116153
   169  H    0.138722
   170  H    0.131219
   171  Zn  -0.185719
 Sum of Mulliken charges =  -0.00000
 Mulliken charges with hydrogens summed into heavy atoms:
               1
     1  C    0.020692
     2  C    0.042462
     3  C   -0.069749
     4  C    0.060538
     5  C    0.143017
     6  C   -0.093526
     7  C    0.383880
     8  C    0.369858
     9  N   -0.267587
    10  N   -0.555060
    11  N   -0.543041
    16  C    0.032464
    17  C    0.032464
    18  C   -0.082410
    19  C    0.108526
    20  C    0.108526
    21  C   -0.082410
    22  C    0.322232
    23  C    0.322232
    24  N   -0.269566
    25  N   -0.543041
    30  C    0.041355
    31  C    0.041355
    32  C   -0.115232
    33  C    0.132092
    34  C    0.132092
    35  C   -0.115232
    36  C    0.374579
    37  C    0.374579
    38  N   -0.263151
    39  N   -0.555060
    44  C    0.042462
    45  C    0.020692
    46  C   -0.093526
    47  C    0.143017
    48  C    0.060538
    49  C   -0.069749
    50  C    0.369858
    51  C    0.383880
    52  N   -0.267587
    57  Zn  -0.185719
    58  C    0.032536
    59  C    0.032536
    60  C   -0.101380
    61  C    0.132604
    62  C    0.132604
    63  C   -0.101380
    64  C    0.356205
    65  C    0.356205
    66  N   -0.307018
    67  N   -0.594275
    68  N   -0.594275
    73  C    0.048785
    74  C    0.048785
    75  C   -0.144374
    76  C    0.103355
    77  C    0.103355
    78  C   -0.144374
    79  C    0.379629
    80  C    0.379629
    81  N   -0.259842
    82  N   -0.594275
    87  C    0.048785
    88  C    0.048785
    89  C   -0.144374
    90  C    0.103355
    91  C    0.103355
    92  C   -0.144374
    93  C    0.379629
    94  C    0.379629
    95  N   -0.259842
    96  N   -0.594275
   101  C    0.032536
   102  C    0.032536
   103  C   -0.101380
   104  C    0.132604
   105  C    0.132604
   106  C   -0.101380
   107  C    0.356205
   108  C    0.356205
   109  N   -0.307018
   114  Zn   0.497899
   115  C    0.042462
   116  C    0.020692
   117  C   -0.093526
   118  C    0.143017
   119  C    0.060538
   120  C   -0.069749
   121  C    0.369858
   122  C    0.383880
   123  N   -0.267587
   124  N   -0.543041
   125  N   -0.555060
   130  C    0.041355
   131  C    0.041355
   132  C   -0.115232
   133  C    0.132092
   134  C    0.132092
   135  C   -0.115232
   136  C    0.374579
   137  C    0.374579
   138  N   -0.263151
   139  N   -0.555060
   144  C    0.032464
   145  C    0.032464
   146  C   -0.082410
   147  C    0.108526
   148  C    0.108526
   149  C   -0.082410
   150  C    0.322232
   151  C    0.322232
   152  N   -0.269566
   153  N   -0.543041
   158  C    0.020692
   159  C    0.042462
   160  C   -0.069749
   161  C    0.060538
   162  C    0.143017
   163  C   -0.093526
   164  C    0.383880
   165  C    0.369858
   166  N   -0.267587
   171  Zn  -0.185719
 Electronic spatial extent (au):  <R**2>=          98771.9145
 Charge=             -0.0000 electrons
 Dipole moment (field-independent basis, Debye):
    X=             -0.0000    Y=             -0.0000    Z=             -0.0000  Tot=              0.0000
 Quadrupole moment (field-independent basis, Debye-Ang):
   XX=           -752.4217   YY=           -639.7497   ZZ=           -639.4847
   XY=             -2.6945   XZ=             -0.0000   YZ=              0.0000
 Traceless Quadrupole moment (field-independent basis, Debye-Ang):
   XX=            -75.2030   YY=             37.4690   ZZ=             37.7340
   XY=             -2.6945   XZ=             -0.0000   YZ=              0.0000
 Octapole moment (field-independent basis, Debye-Ang**2):
  XXX=              0.0000  YYY=              0.0000  ZZZ=              0.0000  XYY=             -0.0000
  XXY=              0.0000  XXZ=             -0.0000  XZZ=             -0.0000  YZZ=             -0.0000
  YYZ=             -0.0000  XYZ=              0.0000
 Hexadecapole moment (field-independent basis, Debye-Ang**3):
 XXXX=         -35524.2111 YYYY=         -51102.2976 ZZZZ=         -40860.9016 XXXY=         -10221.4458
 XXXZ=              0.0000 YYYX=          -8794.2226 YYYZ=              0.0000 ZZZX=              0.0000
 ZZZY=              0.0000 XXYY=         -15689.7624 XXZZ=         -13701.4650 YYZZ=         -16346.1842
 XXYZ=              0.0000 YYXZ=             -0.0000 ZZXY=          -2966.5867
 N-N= 3.463797055350D+04 E-N=-9.367961953345D+04  KE= 1.030184554723D+04
 Symmetry AG   KE= 4.028475982922D+03
 Symmetry BG   KE= 1.418408280660D+03
 Symmetry AU   KE= 1.622053550603D+03
 Symmetry BU   KE= 3.232907733048D+03

 Test job not archived.
 1\1\ WCSS.PL-BEM-KETKOV-PC1\SP\RLC-BLYP TD-FC\Gen\C96H48N24Zn3\SERGEY\
 15-Apr-2026\0\\# td(nstates=8) lc-blyp/gen iop(3/107=0350000000,3/108=
 0350000000) geom=check guess=read\\def2tzvp-f, monomer geom r2scan-3c\
 \0,1\C,0,0.701663,6.554204,0.\C,0,-0.701663,6.554204,0.\C,0,1.422571,5
 .364926,0.\C,0,0.703967,4.174565,0.\C,0,-0.703967,4.174565,0.\C,0,-1.4
 22571,5.364926,0.\C,0,1.120422,2.78002,0.\C,0,-1.120422,2.78002,0.\N,0
 ,0.,1.989101,0.\N,0,-2.390568,2.390568,0.\N,0,2.390568,2.390568,0.\H,0
 ,1.231071,7.50255,0.\H,0,-1.231071,7.50255,0.\H,0,2.508027,5.356475,0.
 \H,0,-2.508027,5.356475,0.\C,0,6.554204,-0.701663,0.\C,0,6.554204,0.70
 1663,0.\C,0,5.364926,-1.422571,0.\C,0,4.174565,-0.703967,0.\C,0,4.1745
 65,0.703967,0.\C,0,5.364926,1.422571,0.\C,0,2.78002,-1.120422,0.\C,0,2
 .78002,1.120422,0.\N,0,1.989101,0.,0.\N,0,2.390568,-2.390568,0.\H,0,7.
 50255,-1.231071,0.\H,0,7.50255,1.231071,0.\H,0,5.356475,-2.508027,0.\H
 ,0,5.356475,2.508027,0.\C,0,-6.554204,0.701663,0.\C,0,-6.554204,-0.701
 663,0.\C,0,-5.364926,1.422571,0.\C,0,-4.174565,0.703967,0.\C,0,-4.1745
 65,-0.703967,0.\C,0,-5.364926,-1.422571,0.\C,0,-2.78002,1.120422,0.\C,
 0,-2.78002,-1.120422,0.\N,0,-1.989101,0.,0.\N,0,-2.390568,-2.390568,0.
 \H,0,-7.50255,1.231071,0.\H,0,-7.50255,-1.231071,0.\H,0,-5.356475,2.50
 8027,0.\H,0,-5.356475,-2.508027,0.\C,0,-0.701663,-6.554204,0.\C,0,0.70
 1663,-6.554204,0.\C,0,-1.422571,-5.364926,0.\C,0,-0.703967,-4.174565,0
 .\C,0,0.703967,-4.174565,0.\C,0,1.422571,-5.364926,0.\C,0,-1.120422,-2
 .78002,0.\C,0,1.120422,-2.78002,0.\N,0,0.,-1.989101,0.\H,0,-1.231071,-
 7.50255,0.\H,0,1.231071,-7.50255,0.\H,0,-2.508027,-5.356475,0.\H,0,2.5
 08027,-5.356475,0.\Zn,0,0.,0.,0.\C,0,2.701663,6.554204,3.4\C,0,1.29833
 7,6.554204,3.4\C,0,3.422571,5.364926,3.4\C,0,2.703967,4.174565,3.4\C,0
 ,1.296033,4.174565,3.4\C,0,0.577429,5.364926,3.4\C,0,3.120422,2.78002,
 3.4\C,0,0.879578,2.78002,3.4\N,0,2.,1.989101,3.4\N,0,-0.390568,2.39056
 8,3.4\N,0,4.390568,2.390568,3.4\H,0,3.231071,7.50255,3.4\H,0,0.768929,
 7.50255,3.4\H,0,4.508027,5.356475,3.4\H,0,-0.508027,5.356475,3.4\C,0,8
 .554204,-0.701663,3.4\C,0,8.554204,0.701663,3.4\C,0,7.364926,-1.422571
 ,3.4\C,0,6.174565,-0.703967,3.4\C,0,6.174565,0.703967,3.4\C,0,7.364926
 ,1.422571,3.4\C,0,4.78002,-1.120422,3.4\C,0,4.78002,1.120422,3.4\N,0,3
 .989101,0.,3.4\N,0,4.390568,-2.390568,3.4\H,0,9.50255,-1.231071,3.4\H,
 0,9.50255,1.231071,3.4\H,0,7.356475,-2.508027,3.4\H,0,7.356475,2.50802
 7,3.4\C,0,-4.554204,0.701663,3.4\C,0,-4.554204,-0.701663,3.4\C,0,-3.36
 4926,1.422571,3.4\C,0,-2.174565,0.703967,3.4\C,0,-2.174565,-0.703967,3
 .4\C,0,-3.364926,-1.422571,3.4\C,0,-0.78002,1.120422,3.4\C,0,-0.78002,
 -1.120422,3.4\N,0,0.010899,0.,3.4\N,0,-0.390568,-2.390568,3.4\H,0,-5.5
 0255,1.231071,3.4\H,0,-5.50255,-1.231071,3.4\H,0,-3.356475,2.508027,3.
 4\H,0,-3.356475,-2.508027,3.4\C,0,1.298337,-6.554204,3.4\C,0,2.701663,
 -6.554204,3.4\C,0,0.577429,-5.364926,3.4\C,0,1.296033,-4.174565,3.4\C,
 0,2.703967,-4.174565,3.4\C,0,3.422571,-5.364926,3.4\C,0,0.879578,-2.78
 002,3.4\C,0,3.120422,-2.78002,3.4\N,0,2.,-1.989101,3.4\H,0,0.768929,-7
 .50255,3.4\H,0,3.231071,-7.50255,3.4\H,0,-0.508027,-5.356475,3.4\H,0,4
 .508027,-5.356475,3.4\Zn,0,2.,0.,3.4\C,0,4.701663,6.554204,6.8\C,0,3.2
 98337,6.554204,6.8\C,0,5.422571,5.364926,6.8\C,0,4.703967,4.174565,6.8
 \C,0,3.296033,4.174565,6.8\C,0,2.577429,5.364926,6.8\C,0,5.120422,2.78
 002,6.8\C,0,2.879578,2.78002,6.8\N,0,4.,1.989101,6.8\N,0,1.609432,2.39
 0568,6.8\N,0,6.390568,2.390568,6.8\H,0,5.231071,7.50255,6.8\H,0,2.7689
 29,7.50255,6.8\H,0,6.508027,5.356475,6.8\H,0,1.491973,5.356475,6.8\C,0
 ,10.554204,-0.701663,6.8\C,0,10.554204,0.701663,6.8\C,0,9.364926,-1.42
 2571,6.8\C,0,8.174565,-0.703967,6.8\C,0,8.174565,0.703967,6.8\C,0,9.36
 4926,1.422571,6.8\C,0,6.78002,-1.120422,6.8\C,0,6.78002,1.120422,6.8\N
 ,0,5.989101,0.,6.8\N,0,6.390568,-2.390568,6.8\H,0,11.50255,-1.231071,6
 .8\H,0,11.50255,1.231071,6.8\H,0,9.356475,-2.508027,6.8\H,0,9.356475,2
 .508027,6.8\C,0,-2.554204,0.701663,6.8\C,0,-2.554204,-0.701663,6.8\C,0
 ,-1.364926,1.422571,6.8\C,0,-0.174565,0.703967,6.8\C,0,-0.174565,-0.70
 3967,6.8\C,0,-1.364926,-1.422571,6.8\C,0,1.21998,1.120422,6.8\C,0,1.21
 998,-1.120422,6.8\N,0,2.010899,0.,6.8\N,0,1.609432,-2.390568,6.8\H,0,-
 3.50255,1.231071,6.8\H,0,-3.50255,-1.231071,6.8\H,0,-1.356475,2.508027
 ,6.8\H,0,-1.356475,-2.508027,6.8\C,0,3.298337,-6.554204,6.8\C,0,4.7016
 63,-6.554204,6.8\C,0,2.577429,-5.364926,6.8\C,0,3.296033,-4.174565,6.8
 \C,0,4.703967,-4.174565,6.8\C,0,5.422571,-5.364926,6.8\C,0,2.879578,-2
 .78002,6.8\C,0,5.120422,-2.78002,6.8\N,0,4.,-1.989101,6.8\H,0,2.768929
 ,-7.50255,6.8\H,0,5.231071,-7.50255,6.8\H,0,1.491973,-5.356475,6.8\H,0
 ,6.508027,-5.356475,6.8\Zn,0,4.,0.,6.8\\Version=ES64L-G09RevE.01\State
 =1-AG\HF=-10327.7868166\RMSD=5.090e-09\PG=C02H [O(Zn1),C2(N1.N1),SGH(N
 6Zn2),X(C96H48N16)]\\@


 IT WAS A GAME, A VERY INTERESTING GAME ONE COULD
 PLAY.  WHENEVER ONE SOLVED ONE OF THE LITTLE PROBLEMS,
 ONE COULD WRITE A PAPER ABOUT IT.  IT WAS VERY EASY IN
 THOSE DAYS FOR ANY SECOND-RATE PHYSICIST TO DO
 FIRST-RATE WORK.  THERE HAS NOT BEEN SUCH A GLORIOUS
 TIME SINCE.  IT IS VERY DIFFICULT NOW FOR A FIRST-RATE
 PHYSICIST TO DO SECOND-RATE WORK.
     P.A.M. DIRAC, ON THE EARLY DAYS OF QUANTUM MECHANICS
                   DIRECTIONS IN PHYSICS, 1978, P. 7
 Job cpu time:       4 days 16 hours 42 minutes 50.1 seconds.
 File lengths (MBytes):  RWF=  20707 Int=      0 D2E=      0 Chk=   3240 Scr=      1
 Normal termination of Gaussian 09 at Wed Apr 15 08:57:22 2026.
