%chk=ZnPc4_34_17.chk
%mem=16GB
%nproc=6
# lc-blyp/def2svp iop(3/107=0350000000,3/108=0350000000)

monomer geom r2scan-3c

0 1
 C        0.701663       6.554204       0.000000
 C       -0.701663       6.554204       0.000000
 C        1.422571       5.364926       0.000000
 C        0.703967       4.174565       0.000000
 C       -0.703967       4.174565       0.000000
 C       -1.422571       5.364926       0.000000
 C        1.120422       2.780020       0.000000
 C       -1.120422       2.780020       0.000000
 N        0.000000       1.989101       0.000000
 N       -2.390568       2.390568       0.000000
 N        2.390568       2.390568       0.000000
 H        1.231071       7.502550       0.000000
 H       -1.231071       7.502550       0.000000
 H        2.508027       5.356475       0.000000
 H       -2.508027       5.356475       0.000000
 C        6.554204      -0.701663       0.000000
 C        6.554204       0.701663       0.000000
 C        5.364926      -1.422571       0.000000
 C        4.174565      -0.703967       0.000000
 C        4.174565       0.703967       0.000000
 C        5.364926       1.422571       0.000000
 C        2.780020      -1.120422       0.000000
 C        2.780020       1.120422       0.000000
 N        1.989101       0.000000       0.000000
 N        2.390568      -2.390568       0.000000
 H        7.502550      -1.231071       0.000000
 H        7.502550       1.231071       0.000000
 H        5.356475      -2.508027       0.000000
 H        5.356475       2.508027       0.000000
 C       -6.554204       0.701663       0.000000
 C       -6.554204      -0.701663       0.000000
 C       -5.364926       1.422571       0.000000
 C       -4.174565       0.703967       0.000000
 C       -4.174565      -0.703967       0.000000
 C       -5.364926      -1.422571       0.000000
 C       -2.780020       1.120422       0.000000
 C       -2.780020      -1.120422       0.000000
 N       -1.989101       0.000000       0.000000
 N       -2.390568      -2.390568       0.000000
 H       -7.502550       1.231071       0.000000
 H       -7.502550      -1.231071       0.000000
 H       -5.356475       2.508027       0.000000
 H       -5.356475      -2.508027       0.000000
 C       -0.701663      -6.554204       0.000000
 C        0.701663      -6.554204       0.000000
 C       -1.422571      -5.364926       0.000000
 C       -0.703967      -4.174565       0.000000
 C        0.703967      -4.174565       0.000000
 C        1.422571      -5.364926       0.000000
 C       -1.120422      -2.780020       0.000000
 C        1.120422      -2.780020       0.000000
 N       -0.000000      -1.989101       0.000000
 H       -1.231071      -7.502550       0.000000
 H        1.231071      -7.502550       0.000000
 H       -2.508027      -5.356475       0.000000
 H        2.508027      -5.356475       0.000000
 Zn       0.000000       0.000000       0.000000
 C        2.451663       6.554204       3.400000
 C        1.048337       6.554204       3.400000
 C        3.172571       5.364926       3.400000
 C        2.453967       4.174565       3.400000
 C        1.046033       4.174565       3.400000
 C        0.327429       5.364926       3.400000
 C        2.870422       2.780020       3.400000
 C        0.629578       2.780020       3.400000
 N        1.750000       1.989101       3.400000
 N       -0.640568       2.390568       3.400000
 N        4.140568       2.390568       3.400000
 H        2.981071       7.502550       3.400000
 H        0.518929       7.502550       3.400000
 H        4.258027       5.356475       3.400000
 H       -0.758027       5.356475       3.400000
 C        8.304204      -0.701663       3.400000
 C        8.304204       0.701663       3.400000
 C        7.114926      -1.422571       3.400000
 C        5.924565      -0.703967       3.400000
 C        5.924565       0.703967       3.400000
 C        7.114926       1.422571       3.400000
 C        4.530020      -1.120422       3.400000
 C        4.530020       1.120422       3.400000
 N        3.739101       0.000000       3.400000
 N        4.140568      -2.390568       3.400000
 H        9.252550      -1.231071       3.400000
 H        9.252550       1.231071       3.400000
 H        7.106475      -2.508027       3.400000
 H        7.106475       2.508027       3.400000
 C       -4.804204       0.701663       3.400000
 C       -4.804204      -0.701663       3.400000
 C       -3.614926       1.422571       3.400000
 C       -2.424565       0.703967       3.400000
 C       -2.424565      -0.703967       3.400000
 C       -3.614926      -1.422571       3.400000
 C       -1.030020       1.120422       3.400000
 C       -1.030020      -1.120422       3.400000
 N       -0.239101       0.000000       3.400000
 N       -0.640568      -2.390568       3.400000
 H       -5.752550       1.231071       3.400000
 H       -5.752550      -1.231071       3.400000
 H       -3.606475       2.508027       3.400000
 H       -3.606475      -2.508027       3.400000
 C        1.048337      -6.554204       3.400000
 C        2.451663      -6.554204       3.400000
 C        0.327429      -5.364926       3.400000
 C        1.046033      -4.174565       3.400000
 C        2.453967      -4.174565       3.400000
 C        3.172571      -5.364926       3.400000
 C        0.629578      -2.780020       3.400000
 C        2.870422      -2.780020       3.400000
 N        1.750000      -1.989101       3.400000
 H        0.518929      -7.502550       3.400000
 H        2.981071      -7.502550       3.400000
 H       -0.758027      -5.356475       3.400000
 H        4.258027      -5.356475       3.400000
 Zn       1.750000       0.000000       3.400000
 C        4.201663       6.554204       6.800000
 C        2.798337       6.554204       6.800000
 C        4.922571       5.364926       6.800000
 C        4.203967       4.174565       6.800000
 C        2.796033       4.174565       6.800000
 C        2.077429       5.364926       6.800000
 C        4.620422       2.780020       6.800000
 C        2.379578       2.780020       6.800000
 N        3.500000       1.989101       6.800000
 N        1.109432       2.390568       6.800000
 N        5.890568       2.390568       6.800000
 H        4.731071       7.502550       6.800000
 H        2.268929       7.502550       6.800000
 H        6.008027       5.356475       6.800000
 H        0.991973       5.356475       6.800000
 C       10.054204      -0.701663       6.800000
 C       10.054204       0.701663       6.800000
 C        8.864926      -1.422571       6.800000
 C        7.674565      -0.703967       6.800000
 C        7.674565       0.703967       6.800000
 C        8.864926       1.422571       6.800000
 C        6.280020      -1.120422       6.800000
 C        6.280020       1.120422       6.800000
 N        5.489101       0.000000       6.800000
 N        5.890568      -2.390568       6.800000
 H       11.002550      -1.231071       6.800000
 H       11.002550       1.231071       6.800000
 H        8.856475      -2.508027       6.800000
 H        8.856475       2.508027       6.800000
 C       -3.054204       0.701663       6.800000
 C       -3.054204      -0.701663       6.800000
 C       -1.864926       1.422571       6.800000
 C       -0.674565       0.703967       6.800000
 C       -0.674565      -0.703967       6.800000
 C       -1.864926      -1.422571       6.800000
 C        0.719980       1.120422       6.800000
 C        0.719980      -1.120422       6.800000
 N        1.510899       0.000000       6.800000
 N        1.109432      -2.390568       6.800000
 H       -4.002550       1.231071       6.800000
 H       -4.002550      -1.231071       6.800000
 H       -1.856475       2.508027       6.800000
 H       -1.856475      -2.508027       6.800000
 C        2.798337      -6.554204       6.800000
 C        4.201663      -6.554204       6.800000
 C        2.077429      -5.364926       6.800000
 C        2.796033      -4.174565       6.800000
 C        4.203967      -4.174565       6.800000
 C        4.922571      -5.364926       6.800000
 C        2.379578      -2.780020       6.800000
 C        4.620422      -2.780020       6.800000
 N        3.500000      -1.989101       6.800000
 H        2.268929      -7.502550       6.800000
 H        4.731071      -7.502550       6.800000
 H        0.991973      -5.356475       6.800000
 H        6.008027      -5.356475       6.800000
 Zn       3.500000       0.000000       6.800000
 C        5.951663       6.554204      10.200000
 C        4.548337       6.554204      10.200000
 C        6.672571       5.364926      10.200000
 C        5.953967       4.174565      10.200000
 C        4.546033       4.174565      10.200000
 C        3.827429       5.364926      10.200000
 C        6.370422       2.780020      10.200000
 C        4.129578       2.780020      10.200000
 N        5.250000       1.989101      10.200000
 N        2.859432       2.390568      10.200000
 N        7.640568       2.390568      10.200000
 H        6.481071       7.502550      10.200000
 H        4.018929       7.502550      10.200000
 H        7.758027       5.356475      10.200000
 H        2.741973       5.356475      10.200000
 C       11.804204      -0.701663      10.200000
 C       11.804204       0.701663      10.200000
 C       10.614926      -1.422571      10.200000
 C        9.424565      -0.703967      10.200000
 C        9.424565       0.703967      10.200000
 C       10.614926       1.422571      10.200000
 C        8.030020      -1.120422      10.200000
 C        8.030020       1.120422      10.200000
 N        7.239101       0.000000      10.200000
 N        7.640568      -2.390568      10.200000
 H       12.752550      -1.231071      10.200000
 H       12.752550       1.231071      10.200000
 H       10.606475      -2.508027      10.200000
 H       10.606475       2.508027      10.200000
 C       -1.304204       0.701663      10.200000
 C       -1.304204      -0.701663      10.200000
 C       -0.114926       1.422571      10.200000
 C        1.075435       0.703967      10.200000
 C        1.075435      -0.703967      10.200000
 C       -0.114926      -1.422571      10.200000
 C        2.469980       1.120422      10.200000
 C        2.469980      -1.120422      10.200000
 N        3.260899       0.000000      10.200000
 N        2.859432      -2.390568      10.200000
 H       -2.252550       1.231071      10.200000
 H       -2.252550      -1.231071      10.200000
 H       -0.106475       2.508027      10.200000
 H       -0.106475      -2.508027      10.200000
 C        4.548337      -6.554204      10.200000
 C        5.951663      -6.554204      10.200000
 C        3.827429      -5.364926      10.200000
 C        4.546033      -4.174565      10.200000
 C        5.953967      -4.174565      10.200000
 C        6.672571      -5.364926      10.200000
 C        4.129578      -2.780020      10.200000
 C        6.370422      -2.780020      10.200000
 N        5.250000      -1.989101      10.200000
 H        4.018929      -7.502550      10.200000
 H        6.481071      -7.502550      10.200000
 H        2.741973      -5.356475      10.200000
 H        7.758027      -5.356475      10.200000
 Zn       5.250000       0.000000      10.200000

--Link1--
%chk=ZnPc4_34_17.chk
%mem=60GB
%nproc=6
# td(nstates=10) lc-blyp/gen iop(3/107=0350000000,3/108=0350000000) geom=check guess=read

def2tzvp-f, monomer geom r2scan-3c

0 1

H Zn 0
def2tzvp
****
C     0
S    6   1.00
  13575.3496820              0.22245814352D-03
   2035.2333680              0.17232738252D-02
    463.22562359             0.89255715314D-02
    131.20019598             0.35727984502D-01
     42.853015891            0.11076259931
     15.584185766            0.24295627626
S    2   1.00
      6.2067138508           0.41440263448
      2.5764896527           0.23744968655
S    1   1.00
      0.57696339419          1.0000000
S    1   1.00
      0.22972831358          1.0000000
S    1   1.00
      0.95164440028D-01      1.0000000
P    4   1.00
     34.697232244            0.53333657805D-02
      7.9582622826           0.35864109092D-01
      2.3780826883           0.14215873329
      0.81433208183          0.34270471845
P    1   1.00
      0.28887547253           .46445822433
P    1   1.00
      0.10056823671           .24955789874
D    1   1.00
      1.09700000             1.0000000
D    1   1.00
      0.31800000             1.0000000
****
N     0
S    6   1.00
  19730.8006470              0.21887984991D-03
   2957.8958745              0.16960708803D-02
    673.22133595             0.87954603538D-02
    190.68249494             0.35359382605D-01
     62.295441898            0.11095789217
     22.654161182            0.24982972552
S    2   1.00
      8.9791477428           0.40623896148
      3.6863002370           0.24338217176
S    1   1.00
      0.84660076805          1.0000000
S    1   1.00
      0.33647133771          1.0000000
S    1   1.00
      0.13647653675          1.0000000
P    4   1.00
     49.200380510            0.55552416751D-02
     11.346790537            0.38052379723D-01
      3.4273972411           0.14953671029
      1.1785525134           0.34949305230
P    1   1.00
      0.41642204972           .45843153697
P    1   1.00
      0.14260826011           .24428771672
D    1   1.00
      1.65400000             1.0000000
D    1   1.00
      0.46900000             1.0000000
****


