 Entering Gaussian System, Link 0=g09
 Input=./ZnPc2_40_140.gjf
 Output=./ZnPc2_40_140.log
 Initial command:
 /home/sergey/g09/l1.exe "/home/sergey/SCRATCH/Gau-6336.inp" -scrdir="/home/sergey/SCRATCH/"
 Entering Link 1 = /home/sergey/g09/l1.exe PID=      6337.
  
 Copyright (c) 1988,1990,1992,1993,1995,1998,2003,2009,2015,
            Gaussian, Inc.  All Rights Reserved.
  
 This is part of the Gaussian(R) 09 program.  It is based on
 the Gaussian(R) 03 system (copyright 2003, Gaussian, Inc.),
 the Gaussian(R) 98 system (copyright 1998, Gaussian, Inc.),
 the Gaussian(R) 94 system (copyright 1995, Gaussian, Inc.),
 the Gaussian 92(TM) system (copyright 1992, Gaussian, Inc.),
 the Gaussian 90(TM) system (copyright 1990, Gaussian, Inc.),
 the Gaussian 88(TM) system (copyright 1988, Gaussian, Inc.),
 the Gaussian 86(TM) system (copyright 1986, Carnegie Mellon
 University), and the Gaussian 82(TM) system (copyright 1983,
 Carnegie Mellon University). Gaussian is a federally registered
 trademark of Gaussian, Inc.
  
 This software contains proprietary and confidential information,
 including trade secrets, belonging to Gaussian, Inc.
  
 This software is provided under written license and may be
 used, copied, transmitted, or stored only in accord with that
 written license.
  
 The following legend is applicable only to US Government
 contracts under FAR:
  
                    RESTRICTED RIGHTS LEGEND
  
 Use, reproduction and disclosure by the US Government is
 subject to restrictions as set forth in subparagraphs (a)
 and (c) of the Commercial Computer Software - Restricted
 Rights clause in FAR 52.227-19.
  
 Gaussian, Inc.
 340 Quinnipiac St., Bldg. 40, Wallingford CT 06492
  
  
 ---------------------------------------------------------------
 Warning -- This program may not be used in any manner that
 competes with the business of Gaussian, Inc. or will provide
 assistance to any competitor of Gaussian, Inc.  The licensee
 of this program is prohibited from giving any competitor of
 Gaussian, Inc. access to this program.  By using this program,
 the user acknowledges that Gaussian, Inc. is engaged in the
 business of creating and licensing software in the field of
 computational chemistry and represents and warrants to the
 licensee that it is not a competitor of Gaussian, Inc. and that
 it will not use this program in any manner prohibited above.
 ---------------------------------------------------------------
  

 Cite this work as:
 Gaussian 09, Revision E.01,
 M. J. Frisch, G. W. Trucks, H. B. Schlegel, G. E. Scuseria, 
 M. A. Robb, J. R. Cheeseman, G. Scalmani, V. Barone, B. Mennucci, 
 G. A. Petersson, H. Nakatsuji, M. Caricato, X. Li, H. P. Hratchian, 
 A. F. Izmaylov, J. Bloino, G. Zheng, J. L. Sonnenberg, M. Hada, 
 M. Ehara, K. Toyota, R. Fukuda, J. Hasegawa, M. Ishida, T. Nakajima, 
 Y. Honda, O. Kitao, H. Nakai, T. Vreven, J. A. Montgomery, Jr., 
 J. E. Peralta, F. Ogliaro, M. Bearpark, J. J. Heyd, E. Brothers, 
 K. N. Kudin, V. N. Staroverov, T. Keith, R. Kobayashi, J. Normand, 
 K. Raghavachari, A. Rendell, J. C. Burant, S. S. Iyengar, J. Tomasi, 
 M. Cossi, N. Rega, J. M. Millam, M. Klene, J. E. Knox, J. B. Cross, 
 V. Bakken, C. Adamo, J. Jaramillo, R. Gomperts, R. E. Stratmann, 
 O. Yazyev, A. J. Austin, R. Cammi, C. Pomelli, J. W. Ochterski, 
 R. L. Martin, K. Morokuma, V. G. Zakrzewski, G. A. Voth, 
 P. Salvador, J. J. Dannenberg, S. Dapprich, A. D. Daniels, 
 O. Farkas, J. B. Foresman, J. V. Ortiz, J. Cioslowski, 
 and D. J. Fox, Gaussian, Inc., Wallingford CT, 2013.
 
 ******************************************
 Gaussian 09:  ES64L-G09RevE.01 30-Nov-2015
                10-Apr-2026 
 ******************************************
 %chk=ZnPc_40_140.chk
 %mem=16GB
 %nproc=6
 Will use up to    6 processors via shared memory.
 Default route:  MaxDisk=477GB
 --------------------------------------------------------
 # lc-blyp/def2svp iop(3/107=0350000000,3/108=0350000000)
 --------------------------------------------------------
 1/38=1/1;
 2/12=2,17=6,18=5,40=1/2;
 3/5=43,7=101,11=2,16=1,25=1,30=1,74=1000402,107=350000000,108=350000000/1,2,3;
 4//1;
 5/5=2,38=5/2;
 6/7=2,8=2,9=2,10=2,28=1/1;
 99/5=1,9=1/99;
 ----------------------
 monomer geom r2scan-3c
 ----------------------
 Symbolic Z-matrix:
 Charge =  0 Multiplicity = 1
 C                    -4.13837   5.13067   0. 
 C                    -5.13067   4.13837   0. 
 C                    -2.78767   4.79949   0. 
 C                    -2.45408   3.44964   0. 
 C                    -3.44964   2.45408   0. 
 C                    -4.79949   2.78767   0. 
 C                    -1.17351   2.75803   0. 
 C                    -2.75803   1.17351   0. 
 N                    -1.40651   1.40651   0. 
 N                    -3.38077   0.        0. 
 N                     0.        3.38077   0. 
 H                    -4.43461   6.1756    0. 
 H                    -6.1756    4.43461   0. 
 H                    -2.01416   5.56104   0. 
 H                    -5.56104   2.01416   0. 
 C                     5.13067   4.13837   0. 
 C                     4.13837   5.13067   0. 
 C                     4.79949   2.78767   0. 
 C                     3.44964   2.45408   0. 
 C                     2.45408   3.44964   0. 
 C                     2.78767   4.79949   0. 
 C                     2.75803   1.17351   0. 
 C                     1.17351   2.75803   0. 
 N                     1.40651   1.40651   0. 
 N                     3.38077   0.        0. 
 H                     6.1756    4.43461   0. 
 H                     4.43461   6.1756    0. 
 H                     5.56104   2.01416   0. 
 H                     2.01416   5.56104   0. 
 C                    -5.13067  -4.13837   0. 
 C                    -4.13837  -5.13067   0. 
 C                    -4.79949  -2.78767   0. 
 C                    -3.44964  -2.45408   0. 
 C                    -2.45408  -3.44964   0. 
 C                    -2.78767  -4.79949   0. 
 C                    -2.75803  -1.17351   0. 
 C                    -1.17351  -2.75803   0. 
 N                    -1.40651  -1.40651   0. 
 N                     0.       -3.38077   0. 
 H                    -6.1756   -4.43461   0. 
 H                    -4.43461  -6.1756    0. 
 H                    -5.56104  -2.01416   0. 
 H                    -2.01416  -5.56104   0. 
 C                     4.13837  -5.13067   0. 
 C                     5.13067  -4.13837   0. 
 C                     2.78767  -4.79949   0. 
 C                     2.45408  -3.44964   0. 
 C                     3.44964  -2.45408   0. 
 C                     4.79949  -2.78767   0. 
 C                     1.17351  -2.75803   0. 
 C                     2.75803  -1.17351   0. 
 N                     1.40651  -1.40651   0. 
 H                     4.43461  -6.1756    0. 
 H                     6.1756   -4.43461   0. 
 H                     2.01416  -5.56104   0. 
 H                     5.56104  -2.01416   0. 
 Zn                    0.        0.        0. 
 C                     9.86163   5.13067   4. 
 C                     8.86933   4.13837   4. 
 C                     11.21233   4.79949   4. 
 C                     11.54592   3.44964   4. 
 C                     10.55036   2.45408   4. 
 C                     9.20051   2.78767   4. 
 C                     12.82649   2.75803   4. 
 C                     11.24197   1.17351   4. 
 N                     12.59349   1.40651   4. 
 N                     10.61923   0.        4. 
 N                     14.       3.38077   4. 
 H                     9.5654    6.1756    4. 
 H                     7.8244    4.43461   4. 
 H                     11.98584   5.56104   4. 
 H                     8.43896   2.01416   4. 
 C                     19.13067   4.13837   4. 
 C                     18.13837   5.13067   4. 
 C                     18.79949   2.78767   4. 
 C                     17.44964   2.45408   4. 
 C                     16.45408   3.44964   4. 
 C                     16.78767   4.79949   4. 
 C                     16.75803   1.17351   4. 
 C                     15.17351   2.75803   4. 
 N                     15.40651   1.40651   4. 
 N                     17.38077   0.        4. 
 H                     20.1756   4.43461   4. 
 H                     18.43461   6.1756    4. 
 H                     19.56104   2.01416   4. 
 H                     16.01416   5.56104   4. 
 C                     8.86933  -4.13837   4. 
 C                     9.86163  -5.13067   4. 
 C                     9.20051  -2.78767   4. 
 C                     10.55036  -2.45408   4. 
 C                     11.54592  -3.44964   4. 
 C                     11.21233  -4.79949   4. 
 C                     11.24197  -1.17351   4. 
 C                     12.82649  -2.75803   4. 
 N                     12.59349  -1.40651   4. 
 N                     14.      -3.38077   4. 
 H                     7.8244   -4.43461   4. 
 H                     9.5654   -6.1756    4. 
 H                     8.43896  -2.01416   4. 
 H                     11.98584  -5.56104   4. 
 C                     18.13837  -5.13067   4. 
 C                     19.13067  -4.13837   4. 
 C                     16.78767  -4.79949   4. 
 C                     16.45408  -3.44964   4. 
 C                     17.44964  -2.45408   4. 
 C                     18.79949  -2.78767   4. 
 C                     15.17351  -2.75803   4. 
 C                     16.75803  -1.17351   4. 
 N                     15.40651  -1.40651   4. 
 H                     18.43461  -6.1756    4. 
 H                     20.1756  -4.43461   4. 
 H                     16.01416  -5.56104   4. 
 H                     19.56104  -2.01416   4. 
 Zn                    14.       0.        4. 
 
 Stoichiometry    C64H32N16Zn2
 Framework group  C2H[SGH(N4Zn2),X(C64H32N12)]
 Deg. of freedom    86
 Full point group                 C2H     NOp   4
 Largest Abelian subgroup         C2H     NOp   4
 Largest concise Abelian subgroup C2H     NOp   4
                         Standard orientation:                         
 ---------------------------------------------------------------------
 Center     Atomic      Atomic             Coordinates (Angstroms)
 Number     Number       Type             X           Y           Z
 ---------------------------------------------------------------------
      1          6           0        2.000000   11.138371    5.130673
      2          6           0        2.000000   12.130673    4.138371
      3          6           0        2.000000    9.787666    4.799485
      4          6           0        2.000000    9.454083    3.449643
      5          6           0        2.000000   10.449643    2.454083
      6          6           0        2.000000   11.799485    2.787666
      7          6           0        2.000000    8.173513    2.758029
      8          6           0        2.000000    9.758029    1.173513
      9          7           0        2.000000    8.406507    1.406507
     10          7           0        2.000000   10.380774    0.000000
     11          7           0        2.000000    7.000000    3.380774
     12          1           0        2.000000   11.434605    6.175603
     13          1           0        2.000000   13.175603    4.434605
     14          1           0        2.000000    9.014157    5.561043
     15          1           0        2.000000   12.561043    2.014157
     16          6           0        2.000000    1.869327    4.138371
     17          6           0        2.000000    2.861629    5.130673
     18          6           0        2.000000    2.200515    2.787666
     19          6           0        2.000000    3.550357    2.454083
     20          6           0        2.000000    4.545917    3.449643
     21          6           0        2.000000    4.212334    4.799485
     22          6           0        2.000000    4.241971    1.173513
     23          6           0        2.000000    5.826487    2.758029
     24          7           0        2.000000    5.593493    1.406507
     25          7           0        2.000000    3.619226    0.000000
     26          1           0        2.000000    0.824397    4.434605
     27          1           0        2.000000    2.565395    6.175603
     28          1           0        2.000000    1.438957    2.014157
     29          1           0        2.000000    4.985843    5.561043
     30          6           0        2.000000   12.130673   -4.138371
     31          6           0        2.000000   11.138371   -5.130673
     32          6           0        2.000000   11.799485   -2.787666
     33          6           0        2.000000   10.449643   -2.454083
     34          6           0        2.000000    9.454083   -3.449643
     35          6           0        2.000000    9.787666   -4.799485
     36          6           0        2.000000    9.758029   -1.173513
     37          6           0        2.000000    8.173513   -2.758029
     38          7           0        2.000000    8.406507   -1.406507
     39          7           0        2.000000    7.000000   -3.380774
     40          1           0        2.000000   13.175603   -4.434605
     41          1           0        2.000000   11.434605   -6.175603
     42          1           0        2.000000   12.561043   -2.014157
     43          1           0        2.000000    9.014157   -5.561043
     44          6           0        2.000000    2.861629   -5.130673
     45          6           0        2.000000    1.869327   -4.138371
     46          6           0        2.000000    4.212334   -4.799485
     47          6           0        2.000000    4.545917   -3.449643
     48          6           0        2.000000    3.550357   -2.454083
     49          6           0        2.000000    2.200515   -2.787666
     50          6           0        2.000000    5.826487   -2.758029
     51          6           0        2.000000    4.241971   -1.173513
     52          7           0        2.000000    5.593493   -1.406507
     53          1           0        2.000000    2.565395   -6.175603
     54          1           0        2.000000    0.824397   -4.434605
     55          1           0        2.000000    4.985843   -5.561043
     56          1           0        2.000000    1.438957   -2.014157
     57         30           0        2.000000    7.000000    0.000000
     58          6           0       -2.000000   -2.861629    5.130673
     59          6           0       -2.000000   -1.869327    4.138371
     60          6           0       -2.000000   -4.212334    4.799485
     61          6           0       -2.000000   -4.545917    3.449643
     62          6           0       -2.000000   -3.550357    2.454083
     63          6           0       -2.000000   -2.200515    2.787666
     64          6           0       -2.000000   -5.826487    2.758029
     65          6           0       -2.000000   -4.241971    1.173513
     66          7           0       -2.000000   -5.593493    1.406507
     67          7           0       -2.000000   -3.619226    0.000000
     68          7           0       -2.000000   -7.000000    3.380774
     69          1           0       -2.000000   -2.565395    6.175603
     70          1           0       -2.000000   -0.824397    4.434605
     71          1           0       -2.000000   -4.985843    5.561043
     72          1           0       -2.000000   -1.438957    2.014157
     73          6           0       -2.000000  -12.130673    4.138371
     74          6           0       -2.000000  -11.138371    5.130673
     75          6           0       -2.000000  -11.799485    2.787666
     76          6           0       -2.000000  -10.449643    2.454083
     77          6           0       -2.000000   -9.454083    3.449643
     78          6           0       -2.000000   -9.787666    4.799485
     79          6           0       -2.000000   -9.758029    1.173513
     80          6           0       -2.000000   -8.173513    2.758029
     81          7           0       -2.000000   -8.406507    1.406507
     82          7           0       -2.000000  -10.380774    0.000000
     83          1           0       -2.000000  -13.175603    4.434605
     84          1           0       -2.000000  -11.434605    6.175603
     85          1           0       -2.000000  -12.561043    2.014157
     86          1           0       -2.000000   -9.014157    5.561043
     87          6           0       -2.000000   -1.869327   -4.138371
     88          6           0       -2.000000   -2.861629   -5.130673
     89          6           0       -2.000000   -2.200515   -2.787666
     90          6           0       -2.000000   -3.550357   -2.454083
     91          6           0       -2.000000   -4.545917   -3.449643
     92          6           0       -2.000000   -4.212334   -4.799485
     93          6           0       -2.000000   -4.241971   -1.173513
     94          6           0       -2.000000   -5.826487   -2.758029
     95          7           0       -2.000000   -5.593493   -1.406507
     96          7           0       -2.000000   -7.000000   -3.380774
     97          1           0       -2.000000   -0.824397   -4.434605
     98          1           0       -2.000000   -2.565395   -6.175603
     99          1           0       -2.000000   -1.438957   -2.014157
    100          1           0       -2.000000   -4.985843   -5.561043
    101          6           0       -2.000000  -11.138371   -5.130673
    102          6           0       -2.000000  -12.130673   -4.138371
    103          6           0       -2.000000   -9.787666   -4.799485
    104          6           0       -2.000000   -9.454083   -3.449643
    105          6           0       -2.000000  -10.449643   -2.454083
    106          6           0       -2.000000  -11.799485   -2.787666
    107          6           0       -2.000000   -8.173513   -2.758029
    108          6           0       -2.000000   -9.758029   -1.173513
    109          7           0       -2.000000   -8.406507   -1.406507
    110          1           0       -2.000000  -11.434605   -6.175603
    111          1           0       -2.000000  -13.175603   -4.434605
    112          1           0       -2.000000   -9.014157   -5.561043
    113          1           0       -2.000000  -12.561043   -2.014157
    114         30           0       -2.000000   -7.000000    0.000000
 ---------------------------------------------------------------------
 Rotational constants (GHZ):      0.0419414      0.0069817      0.0060904
 Standard basis: def2SVP (5D, 7F)
 There are   372 symmetry adapted cartesian basis functions of AG  symmetry.
 There are   344 symmetry adapted cartesian basis functions of BG  symmetry.
 There are   344 symmetry adapted cartesian basis functions of AU  symmetry.
 There are   372 symmetry adapted cartesian basis functions of BU  symmetry.
 There are   347 symmetry adapted basis functions of AG  symmetry.
 There are   324 symmetry adapted basis functions of BG  symmetry.
 There are   324 symmetry adapted basis functions of AU  symmetry.
 There are   347 symmetry adapted basis functions of BU  symmetry.
  1342 basis functions,  2386 primitive gaussians,  1432 cartesian basis functions
   294 alpha electrons      294 beta electrons
       nuclear repulsion energy     13339.6622496774 Hartrees.
 NAtoms=  114 NActive=  114 NUniq=   30 SFac= 4.00D+00 NAtFMM=   60 NAOKFM=T Big=F
 Integral buffers will be    131072 words long.
 Raffenetti 2 integral format.
 Two-electron integral symmetry is turned on.
 One-electron integrals computed using PRISM.
   4 Symmetry operations used in ECPInt.
 ECPInt:  NShTT=  179101 NPrTT=  695647 LenC2=   84747 LenP2D=  194928.
 LDataN:  DoStor=T MaxTD1= 6 Len=  172
 NBasis=  1342 RedAO= T EigKep=  1.33D-04  NBF=   347   324   324   347
 NBsUse=  1342 1.00D-06 EigRej= -1.00D+00 NBFU=   347   324   324   347
 ExpMin= 4.23D-02 ExpMax= 8.20D+04 ExpMxC= 1.23D+04 IAcc=2 IRadAn=         4 AccDes= 0.00D+00
 Harris functional with IExCor=10402 and IRadAn=       4 diagonalized for initial guess.
 HarFok:  IExCor=10402 AccDes= 0.00D+00 IRadAn=         4 IDoV= 1 UseB2=F ITyADJ=14
 ICtDFT=  3500011 ScaDFX=  1.000000  1.000000  1.000000  1.000000
 FoFCou: FMM=F IPFlag=           0 FMFlag=      100000 FMFlg1=        2000
         NFxFlg=           0 DoJE=T BraDBF=F KetDBF=T FulRan=T
         wScrn=  0.000000 ICntrl=     500 IOpCl=  0 I1Cent=   200000004 NGrid=           0
         NMat0=    1 NMatS0=      1 NMatT0=    0 NMatD0=    1 NMtDS0=    0 NMtDT0=    0
 Petite list used in FoFCou.
 Initial guess orbital symmetries:
       Occupied  (BU) (AG) (BU) (AG) (BU) (BG) (AU) (AG) (BU) (AG)
                 (BG) (AG) (BU) (AU) (AU) (BG) (BU) (AG) (BU) (AG)
                 (BU) (AU) (BG) (AG) (BU) (AG) (BG) (AU) (BG) (BU)
                 (AG) (AU) (BU) (AG) (BG) (AU) (AG) (BG) (AU) (BU)
                 (AG) (BU) (AU) (AG) (BG) (AU) (BU) (AG) (BG) (BU)
                 (AU) (AG) (BG) (AU) (BU) (AG) (BG) (BU) (AU) (BG)
                 (BG) (AU) (AG) (BG) (AU) (BU) (AU) (AG) (BG) (BU)
                 (AG) (BU) (AG) (BU) (BU) (AG) (BU) (BG) (AU) (AG)
                 (BU) (AG) (BG) (AU) (BG) (BU) (AG) (AU) (BG) (AU)
                 (BU) (AG) (BG) (BU) (AU) (AG) (BU) (AG) (BU) (AG)
                 (AU) (AG) (BU) (BG) (AU) (BG) (BU) (AG) (AU) (AG)
                 (BU) (BG) (AG) (BU) (AU) (BG) (AG) (AU) (BG) (BU)
                 (AG) (BU) (AU) (BG) (AU) (AG) (BU) (BG) (AG) (BU)
                 (AG) (BU) (AU) (AG) (BU) (BG) (AU) (BG) (AU) (BG)
                 (AG) (AU) (BG) (BU) (AG) (BU) (AU) (AG) (BU) (BG)
                 (AU) (BG) (AG) (BU) (AU) (BG) (AU) (AG) (BU) (BG)
                 (AU) (BG) (AG) (BU) (AG) (BU) (AG) (AU) (BG) (BU)
                 (AU) (BG) (AG) (AU) (BG) (BU) (AG) (BU) (AG) (AU)
                 (BG) (BU) (AU) (BG) (AG) (BU) (AU) (BG) (AU) (AG)
                 (BU) (BG) (AG) (BU) (AU) (BG) (AU) (AG) (BU) (BG)
                 (AG) (BU) (AU) (BG) (AG) (AU) (BG) (BU) (AU) (BG)
                 (AG) (BU) (AG) (AU) (BG) (BU) (AG) (BU) (AU) (BG)
                 (AG) (BU) (AU) (AG) (BU) (BG) (AU) (BG) (AU) (BG)
                 (AG) (BU) (AG) (BU) (AG) (AU) (BG) (AU) (BU) (AG)
                 (BG) (BU) (AG) (BU) (AU) (BG) (AU) (BG) (AG) (AU)
                 (BG) (BU) (AG) (AU) (BG) (BU) (AG) (BU) (AU) (BG)
                 (AG) (AU) (BG) (BU) (AG) (BU) (AG) (BU) (AU) (AG)
                 (BU) (BG) (AG) (BU) (AG) (AU) (BG) (BU) (AG) (BU)
                 (AU) (BG) (AG) (BU) (AG) (BU) (AG) (AU) (BG) (BU)
                 (AU) (BG) (AU) (BG)
       Virtual   (AG) (AU) (BG) (BU) (AG) (BU) (AU) (BG) (AG) (BU)
                 (AU) (AG) (BU) (BG) (AU) (BG) (AG) (AU) (BG) (BU)
                 (AG) (BU) (AU) (BG) (AG) (BU) (AG) (BU) (AU) (AG)
                 (BG) (BU) (AU) (AG) (BU) (BG) (AG) (BU) (AU) (AG)
                 (AU) (AG) (BG) (BU) (BU) (BG) (AG) (BU) (AU) (BG)
                 (AG) (AU) (BG) (BU) (AU) (BG) (AG) (BU) (AG) (BU)
                 (AU) (AG) (BU) (AG) (BG) (BU) (AU) (BG) (AG) (BU)
                 (AU) (AG) (BU) (BG) (AU) (BG) (AU) (AG) (BU) (BG)
                 (AG) (BU) (AG) (BU) (AU) (BG) (AG) (BG) (AU) (BU)
                 (AU) (BG) (AU) (AG) (BU) (BG) (AG) (BU) (AG) (AU)
                 (BG) (AU) (BU) (BG) (AU) (BG) (AU) (BU) (AG) (BG)
                 (AG) (BU) (AG) (BU) (AG) (BU) (AU) (AG) (BU) (BG)
                 (AU) (BG) (AG) (BU) (AU) (BG) (BG) (BU) (AU) (AG)
                 (BG) (AG) (AU) (BU) (AU) (BG) (AG) (BU) (BG) (AU)
                 (BU) (AG) (BU) (AU) (BG) (AG) (BU) (AU) (BG) (AG)
                 (AG) (BU) (BU) (AG) (AU) (BG) (BU) (AU) (AG) (BG)
                 (BG) (AU) (BU) (AG) (AU) (AG) (BU) (BG) (AU) (BG)
                 (AU) (BG) (AG) (BU) (AG) (BG) (AU) (BU) (AG) (BU)
                 (AU) (AU) (AG) (BG) (BU) (AG) (AU) (BU) (BG) (BG)
                 (AU) (BG) (AG) (AU) (BU) (BG) (AG) (AU) (BG) (BU)
                 (AU) (AG) (BU) (BG) (AG) (BU) (AG) (AU) (BU) (AG)
                 (BG) (BU) (AU) (BG) (AG) (AG) (BU) (AG) (AU) (BU)
                 (BU) (BG) (AU) (BG) (AG) (BU) (AU) (BG) (AU) (AG)
                 (BU) (BG) (AU) (BG) (AG) (AU) (BG) (BU) (AU) (BG)
                 (AG) (BU) (AG) (BU) (AG) (BU) (AU) (AG) (BG) (BU)
                 (AU) (AG) (BU) (BG) (AG) (BU) (AG) (BU) (AG) (AU)
                 (BG) (BU) (AU) (AU) (BG) (BG) (AG) (AU) (BG) (BU)
                 (AU) (BG) (AG) (AU) (BG) (BU) (AU) (AG) (BG) (BU)
                 (AG) (BU) (AU) (AG) (BU) (BG) (AG) (BU) (AG) (AG)
                 (BU) (BU) (AG) (AU) (BG) (BU) (AU) (BG) (AG) (BU)
                 (AU) (BG) (AU) (BG) (AG) (AU) (BG) (BU) (AU) (BG)
                 (AG) (BU) (AG) (BU) (AU) (BG) (AU) (BG) (AU) (AG)
                 (BU) (AU) (AG) (BG) (BG) (BU) (BU) (AU) (BG) (AG)
                 (BU) (AU) (AG) (BG) (AG) (BU) (AG) (BU) (AU) (BG)
                 (AG) (AU) (BG) (BU) (AG) (BU) (BG) (AU) (AU) (AG)
                 (BG) (BU) (AU) (BG) (BG) (AU) (AG) (AU) (BU) (BG)
                 (BU) (AG) (BU) (AU) (BG) (AG) (BG) (AU) (AG) (BU)
                 (BG) (AG) (BU) (AU) (AU) (AG) (BU) (BG) (AU) (AG)
                 (BU) (BG) (BU) (AG) (AU) (BG) (AG) (BU) (AU) (BG)
                 (BU) (AG) (AU) (AG) (BU) (BG) (AU) (BG) (AU) (BG)
                 (AG) (BU) (BG) (AU) (BU) (BG) (AU) (AG) (BU) (AG)
                 (AG) (BU) (AG) (AU) (BG) (BU) (AG) (BU) (BG) (AG)
                 (AU) (BU) (AG) (AU) (BG) (BU) (AG) (AU) (BG) (BU)
                 (AG) (BU) (BG) (BU) (AG) (AU) (BU) (AG) (BG) (AU)
                 (BG) (BU) (AG) (AU) (BG) (AU) (BU) (AG) (BG) (AU)
                 (BU) (AU) (BG) (AG) (BU) (AG) (BG) (AU) (AU) (BG)
                 (BU) (BG) (AU) (AG) (BU) (AG) (AU) (BG) (AU) (AG)
                 (BU) (BG) (AG) (BU) (AU) (BG) (BU) (AG) (AU) (BU)
                 (AG) (BG) (BG) (BU) (AG) (AU) (AG) (BU) (AG) (BU)
                 (AU) (AG) (BU) (BG) (AU) (BG) (AU) (BG) (AG) (BU)
                 (AG) (AU) (BG) (BU) (AU) (BG) (AG) (BU) (AU) (AG)
                 (BU) (BG) (BG) (AU) (AG) (BU) (AG) (BU) (AU) (BG)
                 (AU) (AG) (BU) (BG) (AG) (BU) (AG) (AU) (BG) (BU)
                 (AU) (BG) (AU) (AG) (BU) (BG) (AU) (BG) (BG) (AU)
                 (AG) (AU) (BG) (BU) (AG) (AU) (BG) (BU) (AG) (BU)
                 (AU) (BG) (AG) (BU) (AG) (BU) (AU) (BG) (AU) (AG)
                 (BU) (BG) (BG) (AU) (AG) (BU) (AU) (AG) (BG) (BU)
                 (AU) (BG) (AU) (AG) (BU) (BG) (AU) (BG) (AG) (AU)
                 (BG) (BU) (AU) (AG) (BU) (BG) (AG) (BU) (AG) (BU)
                 (AU) (BG) (AU) (BG) (AG) (AU) (BG) (AG) (BU) (BU)
                 (AG) (BU) (AG) (BU) (AG) (AU) (BU) (AG) (BG) (AU)
                 (BU) (BG) (AG) (AU) (BG) (BU) (BG) (AU) (AG) (BU)
                 (AG) (BG) (AU) (BU) (AU) (AG) (BU) (BG) (AU) (AG)
                 (BG) (BU) (AU) (BG) (AG) (BU) (AU) (AG) (BU) (BG)
                 (AU) (BG) (AG) (AU) (BU) (BG) (AG) (BU) (AU) (BG)
                 (AG) (AU) (BG) (BU) (AG) (BU) (AG) (AU) (BG) (BU)
                 (AG) (BU) (AU) (BG) (AU) (AG) (BU) (BG) (AU) (BG)
                 (AU) (BG) (AG) (AU) (BG) (BU) (AG) (BU) (AG) (BU)
                 (AG) (BU) (AU) (AG) (BG) (BU) (AG) (BU) (AU) (BG)
                 (AG) (AU) (BG) (BU) (AU) (BG) (AU) (BG) (AG) (BU)
                 (AG) (BU) (AG) (AU) (BG) (BU) (AU) (BG) (AU) (AG)
                 (BU) (BG) (AG) (BU) (AU) (AG) (BU) (BG) (AG) (BU)
                 (AG) (BU) (AG) (AU) (BG) (BU) (AU) (BG) (BG) (AU)
                 (AG) (AU) (BG) (BU) (AU) (BG) (AU) (BG) (AG) (BU)
                 (AU) (AG) (BG) (BU) (AG) (AU) (BG) (BU) (AG) (BU)
                 (AU) (BG) (AG) (BU) (AG) (AU) (BG) (BU) (AU) (AG)
                 (BG) (AG) (BU) (AU) (BG) (BU) (AU) (BG) (AU) (AU)
                 (BG) (AG) (BU) (BG) (AG) (BU) (AU) (BG) (AG) (AU)
                 (BG) (BU) (AG) (BU) (AG) (AU) (BG) (BU) (AG) (BU)
                 (BU) (AG) (AU) (BG) (AU) (BU) (AG) (BG) (AU) (BG)
                 (AU) (BU) (AG) (BG) (AU) (BG) (AG) (BU) (AG) (AU)
                 (BG) (BU) (AG) (BU) (AU) (BG) (AG) (BU) (AU) (AG)
                 (BU) (BG) (AU) (BG) (AU) (BG) (AG) (BU) (AG) (BU)
                 (AU) (BG) (AG) (BU) (AU) (AG) (BU) (BG) (AU) (BG)
                 (BG) (AU) (AU) (BG) (BU) (AU) (AG) (BG) (AG) (BU)
                 (AU) (AG) (BU) (BG) (AG) (BU) (BU) (AG) (BG) (AU)
                 (BG) (BU) (AG) (AU) (AG) (BU) (BU) (AG) (AG) (BG)
                 (AU) (BU) (BG) (AU) (AG) (AU) (BG) (BU) (AU) (BG)
                 (BG) (BU) (AG) (AU) (BU) (AG) (AU) (BG) (AU) (BG)
                 (AU) (BU) (BG) (AG) (BU) (AU) (BG) (AG) (AG) (AU)
                 (BG) (BU) (AG) (BU) (AU) (BG) (AG) (BU) (AG) (BU)
                 (BU) (AU) (BG) (AG) (AG) (BU) (AG) (AU) (BG) (BU)
                 (AG) (BU) (AU) (AG) (BG) (BU) (AU) (BG) (AG) (BU)
                 (AG) (BU) (AU) (BU) (AG) (BG) (BG) (AU) (AG) (AU)
                 (BG) (BU) (AG) (BU) (AU) (BG) (AG) (BG) (AU) (BU)
                 (AU) (BG) (AG) (BU) (AU) (BG) (BG) (BU) (AU) (BG)
                 (AG) (AU) (AU) (AG) (BU) (BG) (AU) (BG) (AG) (BU)
                 (BG) (AG) (BU) (AU) (BU) (AG) (AU) (BG) (BG) (AU)
                 (BU) (AU) (BG) (AG) (BU) (AG) (AG) (BU) (AU) (AG)
                 (BU) (BG) (AU) (AU) (BG) (BG) (AU) (AG) (BU) (BG)
                 (BU) (AG) (AU) (BG) (AG) (AU) (BG) (BU) (AG) (BU)
                 (AG) (AU) (BU) (BG) (AU) (BG) (AG) (BU) (AG) (BU)
                 (AU) (BG) (AG) (AU) (BG) (BU) (AU) (BG) (AU) (AG)
                 (BU) (BG) (AG) (BU) (AG) (BU) (AU) (BG) (AG) (BU)
                 (AU) (AG) (BU) (BG) (AU) (BU) (AG) (BG)
 The electronic state of the initial guess is 1-AG.
 Requested convergence on RMS density matrix=1.00D-08 within 128 cycles.
 Requested convergence on MAX density matrix=1.00D-06.
 Requested convergence on             energy=1.00D-06.
 No special actions if energy rises.
 SCF Done:  E(RLC-B+HF-LYP) =  -6881.15647543     A.U. after   15 cycles
            NFock= 15  Conv=0.42D-08     -V/T= 2.0056
 Hyperfine terms turned off by default for NAtoms > 100.

 **********************************************************************

            Population analysis using the SCF density.

 **********************************************************************

 Orbital symmetries:
       Occupied  (BU) (AG) (BU) (AG) (BU) (AG) (BU) (AG) (BG) (AU)
                 (BG) (AU) (BU) (AG) (AU) (BG) (BU) (AG) (BU) (AG)
                 (AU) (BG) (AG) (BU) (BU) (AG) (BU) (AG) (BG) (AU)
                 (BU) (AG) (BG) (AU) (BU) (AG) (BU) (AG) (BG) (AU)
                 (BG) (AU) (BG) (AU) (AG) (BU) (BG) (AU) (AG) (BU)
                 (BG) (AU) (BU) (AG) (BG) (AU) (BU) (AG) (BG) (BU)
                 (AU) (AG) (BU) (AG) (BG) (AU) (BG) (AU) (BU) (AG)
                 (AU) (AG) (BG) (BU) (AU) (BG) (AG) (BU) (BG) (AU)
                 (AG) (BU) (AU) (BG) (AU) (BG) (AG) (BU) (AG) (BU)
                 (BU) (AG) (BU) (AG) (AG) (BU) (BG) (AU) (AG) (BU)
                 (AU) (BG) (AG) (BU) (AU) (BG) (AG) (BU) (AU) (BG)
                 (AG) (BU) (AG) (BU) (AU) (AG) (BG) (BU) (AU) (BG)
                 (AG) (BU) (AU) (BG) (AG) (BU) (AU) (BG) (AG) (BU)
                 (AG) (BU) (AU) (BG) (AU) (BG) (AG) (BU) (AU) (BG)
                 (AU) (AG) (BG) (BU) (AU) (BG) (AG) (BU) (AG) (AU)
                 (BU) (BG) (AG) (BU) (AU) (BG) (AG) (BU) (AG) (AU)
                 (BU) (BG) (AU) (BG) (AG) (BU) (AG) (AU) (BG) (BU)
                 (AU) (BG) (AU) (AG) (BG) (BU) (AU) (BG) (AG) (BU)
                 (AG) (BU) (AU) (BG) (AG) (BU) (AG) (AU) (BU) (BG)
                 (AU) (AG) (BU) (BG) (AU) (AG) (BG) (BU) (AG) (BU)
                 (AU) (BG) (AU) (BG) (AU) (BG) (AG) (BU) (AG) (BU)
                 (AG) (BU) (AG) (AU) (BU) (BG) (AG) (BU) (AU) (BG)
                 (AU) (BG) (AG) (AU) (BG) (BU) (AU) (BG) (AG) (BU)
                 (AG) (BU) (AG) (BU) (AU) (AG) (BU) (BG) (AG) (BU)
                 (AU) (AG) (BU) (BG) (AU) (BG) (AU) (BG) (AG) (AU)
                 (BU) (BG) (AG) (BU) (AU) (AG) (BG) (BU) (AU) (BG)
                 (AU) (BG) (AG) (BU) (AG) (BU) (AU) (BG) (AG) (BU)
                 (AU) (BG) (AG) (BU) (AG) (BU) (AG) (BU) (AU) (AG)
                 (BU) (BG) (AG) (AU) (BG) (BU) (AU) (BG) (AU) (BG)
                 (AG) (BU) (AU) (BG)
       Virtual   (AG) (AU) (BG) (BU) (AG) (BU) (AU) (BG) (AG) (BU)
                 (AU) (AG) (BU) (BG) (AG) (BU) (AU) (BG) (AG) (AU)
                 (BG) (BU) (AU) (BG) (AG) (BU) (AU) (AG) (BG) (BU)
                 (AG) (AU) (BU) (AG) (BU) (BG) (AG) (BU) (AU) (AG)
                 (BU) (BG) (AG) (BU) (AU) (BG) (AG) (AU) (AU) (BU)
                 (AG) (BG) (BG) (BU) (AG) (AG) (BU) (BU) (AU) (BG)
                 (AU) (AG) (BU) (BG) (AU) (BG) (AG) (AU) (BU) (BG)
                 (AG) (BU) (AU) (BG) (AG) (BU) (AG) (AU) (BG) (BU)
                 (AU) (BG) (AG) (BU) (AG) (BU) (AG) (BG) (AU) (BU)
                 (AG) (BU) (AU) (BG) (AU) (AG) (BU) (BG) (AG) (BU)
                 (AG) (AU) (BG) (BU) (AU) (BG) (AU) (BG) (AU) (AG)
                 (BU) (BG) (AG) (BU) (AU) (AG) (BU) (BG) (AG) (BU)
                 (AU) (BG) (BG) (AU) (BG) (AU) (BU) (BG) (AU) (AG)
                 (AG) (BU) (BG) (AG) (BU) (AU) (AU) (BG) (BU) (AG)
                 (BU) (AG) (BU) (AU) (BG) (AG) (BU) (AU) (BG) (AG)
                 (AU) (BU) (AG) (BG) (BU) (AG) (BU) (AG) (BG) (BU)
                 (AG) (AU) (BG) (AU) (BG) (BU) (AG) (AU) (AU) (BG)
                 (AG) (BU) (AU) (BG) (AG) (BU) (AG) (BG) (AU) (BU)
                 (AG) (AU) (BG) (BU) (AU) (AG) (BU) (BG) (AU) (BG)
                 (AU) (BG) (AU) (BG) (AG) (BU) (AG) (AU) (BU) (AG)
                 (BG) (BU) (AU) (AG) (BU) (BG) (AG) (BU) (AG) (BU)
                 (AU) (AG) (BG) (BU) (AG) (BU) (AG) (BU) (AU) (AG)
                 (BU) (BG) (AU) (BG) (AU) (BG) (AU) (BG) (AU) (BG)
                 (AG) (AU) (BG) (BU) (AU) (AG) (AU) (BU) (BG) (BG)
                 (AG) (BU) (AG) (BU) (AG) (BU) (AU) (AG) (AU) (BG)
                 (BU) (AG) (BU) (BG) (AG) (BU) (AG) (BU) (AG) (AU)
                 (BG) (BU) (AU) (AU) (BG) (BG) (AG) (AU) (BU) (BG)
                 (AG) (BU) (AU) (AG) (BG) (BU) (AU) (BG) (AG) (BU)
                 (AG) (AU) (AU) (BG) (AG) (BG) (BU) (BU) (AG) (BU)
                 (AG) (BU) (AG) (AU) (BG) (BU) (BG) (AU) (AU) (BG)
                 (AU) (BG) (AG) (BG) (BU) (AU) (BU) (AU) (AG) (BG)
                 (AU) (AG) (BU) (BG) (BU) (AG) (AU) (BG) (AU) (BG)
                 (BU) (AG) (AU) (AG) (BG) (BU) (AU) (AG) (BU) (BG)
                 (AG) (BU) (AU) (BU) (AG) (AG) (BG) (BU) (BG) (AU)
                 (AG) (BG) (AU) (BU) (AU) (BU) (AG) (BG) (AU) (AG)
                 (BU) (BG) (AG) (AU) (BG) (BU) (AU) (BG) (AU) (BU)
                 (BG) (AG) (AU) (BG) (AU) (BG) (BU) (AG) (AG) (BU)
                 (AU) (AG) (BU) (BG) (AG) (BG) (AU) (BU) (AU) (BG)
                 (AG) (BU) (AU) (BG) (AG) (BU) (AG) (BU) (AU) (BG)
                 (BU) (AG) (BG) (AU) (AU) (BU) (AG) (BG) (AU) (BG)
                 (AG) (BU) (AG) (BU) (AU) (AG) (BG) (BU) (AU) (BG)
                 (AG) (BU) (AU) (BG) (AG) (BU) (AG) (AU) (BG) (BU)
                 (AG) (BU) (AU) (BG) (AU) (AG) (BU) (BG) (AG) (BU)
                 (AG) (BU) (BG) (BU) (AG) (AU) (BU) (AG) (BG) (AU)
                 (BG) (AG) (BU) (AU) (BG) (AU) (BU) (AG) (BG) (AU)
                 (BU) (AU) (BG) (AG) (BU) (AG) (BG) (AU) (AU) (BG)
                 (BU) (AG) (BU) (BG) (AU) (AG) (BU) (AG) (AU) (BG)
                 (AU) (AG) (BG) (BU) (BG) (BU) (AG) (AU) (AG) (BU)
                 (AU) (BG) (AG) (BU) (AG) (BU) (AU) (BG) (AG) (AU)
                 (BG) (BU) (AU) (BG) (AG) (BU) (AG) (BU) (AG) (BU)
                 (AG) (AU) (BU) (BG) (AU) (BG) (AG) (BU) (BG) (AU)
                 (AU) (BG) (AU) (AG) (BG) (BU) (AU) (BG) (AU) (AG)
                 (BU) (BG) (AG) (BU) (AU) (BG) (AG) (BU) (AG) (BU)
                 (AG) (AU) (BU) (BG) (AU) (BG) (BG) (AU) (AU) (BG)
                 (AG) (AU) (BG) (BU) (AG) (AU) (BG) (BU) (AU) (BG)
                 (AG) (BU) (BU) (AG) (AG) (BU) (AU) (BG) (AU) (AG)
                 (BU) (BG) (BG) (AU) (AG) (BU) (AU) (AG) (BG) (BU)
                 (AU) (BG) (AU) (AG) (BU) (BG) (AU) (BG) (AU) (BG)
                 (AG) (BU) (AU) (AG) (BU) (BG) (AG) (BU) (AG) (BU)
                 (AU) (AG) (BU) (BG) (AG) (AU) (BU) (BG) (AG) (AU)
                 (BG) (AU) (BU) (AG) (BU) (BG) (AG) (AU) (BG) (BU)
                 (AG) (AU) (BG) (BU) (AG) (BU) (BG) (AU) (AG) (BU)
                 (AG) (AU) (BG) (BU) (AU) (AG) (BU) (AU) (BG) (BG)
                 (AU) (AG) (BG) (BU) (AG) (BU) (AG) (AU) (BU) (BG)
                 (AU) (AG) (BU) (BG) (AU) (BG) (AG) (BU) (AG) (BU)
                 (AU) (BG) (AU) (AG) (BG) (BU) (AU) (BG) (AU) (AG)
                 (BU) (BG) (AG) (BU) (AU) (AG) (BU) (AU) (BG) (BG)
                 (AU) (BG) (AG) (AU) (BG) (BU) (AG) (BU) (AG) (BU)
                 (AG) (BU) (AU) (AG) (BG) (BU) (AG) (BU) (AU) (BG)
                 (AG) (AU) (BG) (BU) (AU) (BG) (AG) (BU) (BG) (AU)
                 (AG) (BU) (AG) (BU) (AU) (BG) (AU) (BG) (AU) (AG)
                 (BU) (BG) (AG) (BU) (AG) (BU) (AU) (BG) (AG) (BU)
                 (AG) (BU) (AU) (BG) (AG) (AU) (BG) (BU) (BG) (AU)
                 (AU) (AG) (BG) (BU) (AU) (BG) (AU) (BG) (AG) (BU)
                 (AU) (AG) (BU) (BG) (AG) (AU) (BG) (BU) (AG) (BU)
                 (AG) (AU) (AG) (BU) (AU) (BG) (BU) (BG) (AG) (AU)
                 (BU) (BG) (AU) (BG) (AU) (AG) (BU) (BG) (AU) (BG)
                 (AU) (BU) (AG) (BG) (AG) (BU) (AG) (AU) (BG) (BU)
                 (AU) (BG) (AG) (BU) (AG) (AU) (BG) (BU) (AG) (BU)
                 (AU) (BG) (BU) (AG) (AU) (BG) (BU) (AG) (AU) (BG)
                 (AU) (AU) (BG) (AG) (BU) (BG) (AG) (BU) (AG) (BU)
                 (AG) (AU) (BG) (BU) (AG) (BU) (AU) (BG) (AU) (AG)
                 (BU) (BG) (AU) (BG) (AU) (BG) (AU) (AG) (BG) (BU)
                 (AG) (BU) (AG) (BU) (AU) (AG) (BU) (BG) (AU) (BG)
                 (AU) (BG) (AU) (BG) (AU) (BG) (BU) (AG) (AG) (BU)
                 (AG) (BU) (AU) (AG) (BU) (BG) (BU) (AG) (BG) (AU)
                 (BU) (AG) (BG) (AU) (AG) (BU) (BU) (AG) (AG) (BG)
                 (AU) (BU) (AU) (BG) (AG) (BU) (BG) (AU) (AU) (BG)
                 (BG) (BU) (AG) (AU) (BU) (AG) (BG) (AU) (BG) (AU)
                 (AU) (BG) (BU) (AG) (AG) (BU) (AU) (BG) (AG) (AU)
                 (BG) (BU) (BU) (AG) (AG) (BU) (AG) (BU) (AU) (BG)
                 (BU) (AU) (BG) (AG) (AG) (BU) (AU) (BG) (AG) (BU)
                 (AG) (BU) (AG) (BU) (AG) (AU) (BG) (BU) (AU) (BG)
                 (AG) (BU) (AU) (BU) (AG) (BG) (AU) (BG) (AG) (AU)
                 (BG) (BU) (AG) (BU) (AU) (BG) (BG) (AU) (AG) (AU)
                 (BG) (BU) (AG) (BU) (AU) (BG) (AG) (BU) (AU) (BG)
                 (AU) (BG) (BU) (BG) (AG) (AU) (BG) (AU) (BU) (AG)
                 (BG) (AU) (AG) (BU) (AG) (BG) (AU) (BU) (BG) (AU)
                 (BU) (AU) (BG) (AG) (BU) (AG) (AG) (BU) (AU) (BU)
                 (AG) (BG) (AU) (BG) (AU) (BG) (AU) (AG) (BU) (BG)
                 (AG) (BU) (AU) (BG) (AU) (AG) (BG) (BU) (AG) (BU)
                 (AG) (AU) (BU) (BG) (AU) (BG) (AG) (BU) (AG) (BU)
                 (AU) (BG) (AG) (AU) (BG) (BU) (AU) (BG) (AU) (AG)
                 (BU) (BG) (AG) (BU) (AG) (BU) (AG) (BU) (AU) (BG)
                 (AU) (BU) (AG) (BG) (AU) (AG) (BU) (BG)
 The electronic state is 1-AG.
 Alpha  occ. eigenvalues -- -345.98453-345.98453 -41.86383 -41.86383 -36.96090
 Alpha  occ. eigenvalues --  -36.96090 -36.95308 -36.95308 -36.95308 -36.95308
 Alpha  occ. eigenvalues --  -14.21349 -14.21349 -14.21349 -14.21349 -14.21347
 Alpha  occ. eigenvalues --  -14.21347 -14.21344 -14.21344 -14.20504 -14.20504
 Alpha  occ. eigenvalues --  -14.20503 -14.20503 -14.20501 -14.20501 -14.20499
 Alpha  occ. eigenvalues --  -14.20499 -10.17909 -10.17909 -10.17906 -10.17906
 Alpha  occ. eigenvalues --  -10.17905 -10.17905 -10.17900 -10.17900 -10.17897
 Alpha  occ. eigenvalues --  -10.17897 -10.17892 -10.17892 -10.17891 -10.17891
 Alpha  occ. eigenvalues --  -10.17887 -10.17887 -10.11051 -10.11051 -10.11050
 Alpha  occ. eigenvalues --  -10.11050 -10.11049 -10.11049 -10.11047 -10.11047
 Alpha  occ. eigenvalues --  -10.11034 -10.11034 -10.11033 -10.11033 -10.11025
 Alpha  occ. eigenvalues --  -10.11025 -10.11023 -10.11023 -10.10881 -10.10881
 Alpha  occ. eigenvalues --  -10.10881 -10.10881 -10.10877 -10.10877 -10.10877
 Alpha  occ. eigenvalues --  -10.10877 -10.10865 -10.10865 -10.10865 -10.10865
 Alpha  occ. eigenvalues --  -10.10857 -10.10857 -10.10856 -10.10856 -10.10820
 Alpha  occ. eigenvalues --  -10.10820 -10.10819 -10.10818 -10.10817 -10.10817
 Alpha  occ. eigenvalues --  -10.10815 -10.10815 -10.10810 -10.10810 -10.10808
 Alpha  occ. eigenvalues --  -10.10808 -10.10807 -10.10807 -10.10806 -10.10806
 Alpha  occ. eigenvalues --   -4.78179  -4.78179  -3.22869  -3.22869  -3.21568
 Alpha  occ. eigenvalues --   -3.21568  -3.21568  -3.21568  -1.12027  -1.12027
 Alpha  occ. eigenvalues --   -1.10579  -1.10579  -1.10578  -1.10578  -1.07851
 Alpha  occ. eigenvalues --   -1.07851  -1.05459  -1.05459  -1.01404  -1.01404
 Alpha  occ. eigenvalues --   -1.01403  -1.01403  -0.98367  -0.98367  -0.97097
 Alpha  occ. eigenvalues --   -0.97096  -0.97096  -0.97096  -0.97062  -0.97062
 Alpha  occ. eigenvalues --   -0.96937  -0.96936  -0.89008  -0.89007  -0.87696
 Alpha  occ. eigenvalues --   -0.87694  -0.87420  -0.87419  -0.87418  -0.87416
 Alpha  occ. eigenvalues --   -0.87072  -0.87072  -0.87069  -0.87067  -0.86853
 Alpha  occ. eigenvalues --   -0.86852  -0.86734  -0.86732  -0.83295  -0.83293
 Alpha  occ. eigenvalues --   -0.80713  -0.80713  -0.80713  -0.80712  -0.75378
 Alpha  occ. eigenvalues --   -0.75377  -0.75179  -0.75177  -0.74349  -0.74349
 Alpha  occ. eigenvalues --   -0.74348  -0.74346  -0.73650  -0.73647  -0.73517
 Alpha  occ. eigenvalues --   -0.73516  -0.70981  -0.70980  -0.70964  -0.70964
 Alpha  occ. eigenvalues --   -0.70962  -0.70961  -0.69772  -0.69768  -0.67425
 Alpha  occ. eigenvalues --   -0.67422  -0.66509  -0.66509  -0.66508  -0.66506
 Alpha  occ. eigenvalues --   -0.65103  -0.65100  -0.64954  -0.64954  -0.64954
 Alpha  occ. eigenvalues --   -0.64951  -0.61517  -0.61517  -0.61113  -0.61108
 Alpha  occ. eigenvalues --   -0.60910  -0.60907  -0.60552  -0.60549  -0.59553
 Alpha  occ. eigenvalues --   -0.59553  -0.59094  -0.59094  -0.59092  -0.59087
 Alpha  occ. eigenvalues --   -0.59087  -0.59087  -0.59087  -0.59086  -0.57886
 Alpha  occ. eigenvalues --   -0.57886  -0.57882  -0.57882  -0.56991  -0.56991
 Alpha  occ. eigenvalues --   -0.56818  -0.56813  -0.56530  -0.56529  -0.56081
 Alpha  occ. eigenvalues --   -0.56081  -0.56081  -0.56081  -0.55993  -0.55993
 Alpha  occ. eigenvalues --   -0.55507  -0.55501  -0.54949  -0.54949  -0.54946
 Alpha  occ. eigenvalues --   -0.54943  -0.54876  -0.54871  -0.54533  -0.54533
 Alpha  occ. eigenvalues --   -0.53962  -0.53957  -0.53711  -0.53710  -0.53709
 Alpha  occ. eigenvalues --   -0.53700  -0.52427  -0.52420  -0.51339  -0.51337
 Alpha  occ. eigenvalues --   -0.50643  -0.50643  -0.48620  -0.48613  -0.48609
 Alpha  occ. eigenvalues --   -0.48607  -0.48605  -0.48604  -0.47520  -0.47509
 Alpha  occ. eigenvalues --   -0.47263  -0.47262  -0.47254  -0.47251  -0.46660
 Alpha  occ. eigenvalues --   -0.46655  -0.46525  -0.46516  -0.46368  -0.46367
 Alpha  occ. eigenvalues --   -0.46365  -0.46363  -0.45794  -0.45787  -0.44603
 Alpha  occ. eigenvalues --   -0.44603  -0.44601  -0.44598  -0.44480  -0.44475
 Alpha  occ. eigenvalues --   -0.42917  -0.42916  -0.42916  -0.42913  -0.41120
 Alpha  occ. eigenvalues --   -0.41120  -0.38384  -0.38384  -0.38380  -0.38379
 Alpha  occ. eigenvalues --   -0.38039  -0.38034  -0.36621  -0.36621  -0.36001
 Alpha  occ. eigenvalues --   -0.35996  -0.35767  -0.35759  -0.35509  -0.35506
 Alpha  occ. eigenvalues --   -0.35503  -0.35497  -0.34735  -0.34733  -0.34729
 Alpha  occ. eigenvalues --   -0.34725  -0.34693  -0.34692  -0.34594  -0.34588
 Alpha  occ. eigenvalues --   -0.33618  -0.33615  -0.23947  -0.23942
 Alpha virt. eigenvalues --   -0.05824  -0.05823  -0.05819  -0.05817   0.02829
 Alpha virt. eigenvalues --    0.02845   0.03971   0.03979   0.04908   0.04918
 Alpha virt. eigenvalues --    0.05295   0.05299   0.05307   0.05310   0.08622
 Alpha virt. eigenvalues --    0.08624   0.10280   0.10321   0.10699   0.10706
 Alpha virt. eigenvalues --    0.10733   0.10737   0.13607   0.13612   0.13662
 Alpha virt. eigenvalues --    0.14209   0.14216   0.14324   0.14591   0.14732
 Alpha virt. eigenvalues --    0.14739   0.14932   0.14949   0.15110   0.15111
 Alpha virt. eigenvalues --    0.15445   0.16151   0.16601   0.17234   0.17287
 Alpha virt. eigenvalues --    0.17758   0.17777   0.18458   0.18879   0.19233
 Alpha virt. eigenvalues --    0.19789   0.20376   0.20667   0.20680   0.20684
 Alpha virt. eigenvalues --    0.20687   0.20688   0.20949   0.21066   0.21503
 Alpha virt. eigenvalues --    0.21717   0.21737   0.22149   0.23400   0.23875
 Alpha virt. eigenvalues --    0.24049   0.24279   0.24295   0.24586   0.24802
 Alpha virt. eigenvalues --    0.25321   0.25498   0.25501   0.25549   0.25590
 Alpha virt. eigenvalues --    0.26434   0.26435   0.27244   0.27274   0.27760
 Alpha virt. eigenvalues --    0.27783   0.27840   0.27841   0.27864   0.27866
 Alpha virt. eigenvalues --    0.28691   0.28702   0.29206   0.29262   0.31234
 Alpha virt. eigenvalues --    0.31270   0.31415   0.31442   0.31446   0.31490
 Alpha virt. eigenvalues --    0.32044   0.32063   0.33408   0.33472   0.33752
 Alpha virt. eigenvalues --    0.33776   0.33798   0.33838   0.34680   0.34697
 Alpha virt. eigenvalues --    0.34954   0.35001   0.35029   0.35068   0.35357
 Alpha virt. eigenvalues --    0.35435   0.35653   0.35708   0.35735   0.35752
 Alpha virt. eigenvalues --    0.35762   0.35801   0.36003   0.36094   0.37155
 Alpha virt. eigenvalues --    0.37197   0.37243   0.37289   0.38277   0.38370
 Alpha virt. eigenvalues --    0.39231   0.39322   0.39749   0.39763   0.40164
 Alpha virt. eigenvalues --    0.40190   0.40232   0.40242   0.40243   0.40247
 Alpha virt. eigenvalues --    0.40538   0.40568   0.41115   0.41138   0.41169
 Alpha virt. eigenvalues --    0.41197   0.41377   0.41415   0.41420   0.41437
 Alpha virt. eigenvalues --    0.41654   0.41722   0.43208   0.43213   0.43222
 Alpha virt. eigenvalues --    0.43224   0.44800   0.44844   0.44869   0.44906
 Alpha virt. eigenvalues --    0.45663   0.45738   0.45738   0.45820   0.46290
 Alpha virt. eigenvalues --    0.46302   0.46326   0.46327   0.46738   0.46754
 Alpha virt. eigenvalues --    0.46768   0.46786   0.46864   0.46895   0.47687
 Alpha virt. eigenvalues --    0.47714   0.47721   0.47747   0.49424   0.49470
 Alpha virt. eigenvalues --    0.49834   0.49895   0.52064   0.52186   0.52716
 Alpha virt. eigenvalues --    0.52755   0.52764   0.52836   0.52913   0.53001
 Alpha virt. eigenvalues --    0.53055   0.53057   0.53064   0.53075   0.53688
 Alpha virt. eigenvalues --    0.53828   0.53908   0.53962   0.53966   0.54113
 Alpha virt. eigenvalues --    0.54182   0.54343   0.54588   0.54630   0.55445
 Alpha virt. eigenvalues --    0.55574   0.55701   0.55714   0.55776   0.55791
 Alpha virt. eigenvalues --    0.55858   0.56009   0.56492   0.56497   0.56556
 Alpha virt. eigenvalues --    0.56565   0.56821   0.56909   0.56928   0.56936
 Alpha virt. eigenvalues --    0.56996   0.57034   0.57167   0.57240   0.57709
 Alpha virt. eigenvalues --    0.57779   0.57866   0.58041   0.58215   0.58253
 Alpha virt. eigenvalues --    0.58348   0.58361   0.58512   0.58559   0.58796
 Alpha virt. eigenvalues --    0.59221   0.59721   0.59805   0.59945   0.59993
 Alpha virt. eigenvalues --    0.60701   0.60737   0.60761   0.60793   0.60934
 Alpha virt. eigenvalues --    0.60951   0.61114   0.61127   0.61137   0.61183
 Alpha virt. eigenvalues --    0.63797   0.63843   0.63918   0.64023   0.64215
 Alpha virt. eigenvalues --    0.64328   0.64960   0.64999   0.65026   0.65034
 Alpha virt. eigenvalues --    0.65044   0.65093   0.65114   0.65187   0.66379
 Alpha virt. eigenvalues --    0.66466   0.67812   0.67851   0.68120   0.68176
 Alpha virt. eigenvalues --    0.68266   0.68346   0.68387   0.68548   0.68584
 Alpha virt. eigenvalues --    0.68625   0.70710   0.70751   0.70798   0.70876
 Alpha virt. eigenvalues --    0.70905   0.71063   0.71159   0.71183   0.71244
 Alpha virt. eigenvalues --    0.71261   0.71460   0.71610   0.71614   0.71651
 Alpha virt. eigenvalues --    0.72067   0.72150   0.72196   0.72228   0.72252
 Alpha virt. eigenvalues --    0.72301   0.72308   0.72409   0.73261   0.73434
 Alpha virt. eigenvalues --    0.74094   0.74193   0.74856   0.74865   0.74893
 Alpha virt. eigenvalues --    0.75023   0.75834   0.75912   0.76123   0.76141
 Alpha virt. eigenvalues --    0.76608   0.76632   0.76662   0.76663   0.76731
 Alpha virt. eigenvalues --    0.76739   0.76756   0.76781   0.76874   0.76924
 Alpha virt. eigenvalues --    0.77114   0.77117   0.77229   0.77253   0.77364
 Alpha virt. eigenvalues --    0.77378   0.77619   0.77797   0.78379   0.78590
 Alpha virt. eigenvalues --    0.79145   0.79268   0.79307   0.79428   0.79441
 Alpha virt. eigenvalues --    0.79471   0.79590   0.79619   0.79685   0.79790
 Alpha virt. eigenvalues --    0.79859   0.80092   0.81664   0.81786   0.81876
 Alpha virt. eigenvalues --    0.82106   0.82185   0.82386   0.84078   0.84157
 Alpha virt. eigenvalues --    0.84166   0.84212   0.84213   0.84217   0.84674
 Alpha virt. eigenvalues --    0.84694   0.84745   0.84798   0.84967   0.84987
 Alpha virt. eigenvalues --    0.85006   0.85071   0.85344   0.85419   0.85420
 Alpha virt. eigenvalues --    0.85513   0.85731   0.85780   0.86604   0.86628
 Alpha virt. eigenvalues --    0.86696   0.86697   0.86798   0.86886   0.87089
 Alpha virt. eigenvalues --    0.87269   0.88673   0.88674   0.89011   0.89084
 Alpha virt. eigenvalues --    0.90314   0.90318   0.90319   0.90325   0.91566
 Alpha virt. eigenvalues --    0.91603   0.91629   0.91688   0.91895   0.91916
 Alpha virt. eigenvalues --    0.91997   0.92013   0.92015   0.92016   0.92153
 Alpha virt. eigenvalues --    0.92153   0.93013   0.93017   0.93505   0.93545
 Alpha virt. eigenvalues --    0.95412   0.95432   0.99024   0.99060   0.99405
 Alpha virt. eigenvalues --    0.99411   0.99423   0.99439   1.00734   1.00736
 Alpha virt. eigenvalues --    1.01330   1.01378   1.02139   1.02145   1.02545
 Alpha virt. eigenvalues --    1.02548   1.02570   1.02572   1.02824   1.02878
 Alpha virt. eigenvalues --    1.03584   1.03584   1.03724   1.03726   1.03728
 Alpha virt. eigenvalues --    1.03729   1.05598   1.05638   1.05643   1.05690
 Alpha virt. eigenvalues --    1.06403   1.06512   1.07524   1.07573   1.07965
 Alpha virt. eigenvalues --    1.07974   1.07987   1.08016   1.08027   1.08030
 Alpha virt. eigenvalues --    1.10723   1.10725   1.11689   1.11692   1.11702
 Alpha virt. eigenvalues --    1.11709   1.12897   1.12906   1.13517   1.13536
 Alpha virt. eigenvalues --    1.14909   1.14973   1.14974   1.15052   1.15489
 Alpha virt. eigenvalues --    1.15492   1.17507   1.17569   1.17668   1.17766
 Alpha virt. eigenvalues --    1.20475   1.20541   1.20567   1.20641   1.21093
 Alpha virt. eigenvalues --    1.21152   1.24110   1.24162   1.25664   1.25677
 Alpha virt. eigenvalues --    1.27288   1.27334   1.27758   1.27766   1.27774
 Alpha virt. eigenvalues --    1.27785   1.28978   1.28983   1.30097   1.30098
 Alpha virt. eigenvalues --    1.30512   1.30513   1.30514   1.30515   1.30941
 Alpha virt. eigenvalues --    1.30944   1.30945   1.30947   1.31683   1.31686
 Alpha virt. eigenvalues --    1.33528   1.33529   1.33765   1.33818   1.33928
 Alpha virt. eigenvalues --    1.33928   1.33928   1.33928   1.33981   1.33993
 Alpha virt. eigenvalues --    1.34002   1.34008   1.34344   1.34346   1.34868
 Alpha virt. eigenvalues --    1.34870   1.35161   1.35161   1.35344   1.35350
 Alpha virt. eigenvalues --    1.35522   1.35523   1.35528   1.35530   1.35818
 Alpha virt. eigenvalues --    1.35826   1.37543   1.37556   1.37713   1.37720
 Alpha virt. eigenvalues --    1.38109   1.38111   1.38503   1.38520   1.38522
 Alpha virt. eigenvalues --    1.38523   1.38539   1.38612   1.38642   1.38649
 Alpha virt. eigenvalues --    1.38688   1.38734   1.40064   1.40067   1.41858
 Alpha virt. eigenvalues --    1.41858   1.41859   1.41861   1.42930   1.42936
 Alpha virt. eigenvalues --    1.43327   1.43328   1.43332   1.43334   1.43485
 Alpha virt. eigenvalues --    1.43491   1.46365   1.46376   1.46548   1.46549
 Alpha virt. eigenvalues --    1.47032   1.47069   1.47076   1.47107   1.47107
 Alpha virt. eigenvalues --    1.47109   1.47109   1.47116   1.48784   1.48784
 Alpha virt. eigenvalues --    1.49301   1.49301   1.50989   1.50993   1.51526
 Alpha virt. eigenvalues --    1.51632   1.52786   1.52916   1.53259   1.53277
 Alpha virt. eigenvalues --    1.53285   1.53316   1.53626   1.53628   1.57294
 Alpha virt. eigenvalues --    1.57625   1.58341   1.58379   1.58675   1.58704
 Alpha virt. eigenvalues --    1.60782   1.60785   1.62166   1.62186   1.62235
 Alpha virt. eigenvalues --    1.62261   1.63316   1.63869   1.65100   1.65100
 Alpha virt. eigenvalues --    1.65100   1.65101   1.69625   1.69646   1.69727
 Alpha virt. eigenvalues --    1.69760   1.70441   1.70443   1.71787   1.71805
 Alpha virt. eigenvalues --    1.75159   1.75211   1.75216   1.75216   1.77568
 Alpha virt. eigenvalues --    1.77572   1.77667   1.77694   1.77710   1.77746
 Alpha virt. eigenvalues --    1.77763   1.77820   1.77828   1.77832   1.77874
 Alpha virt. eigenvalues --    1.77988   1.78045   1.78056   1.78087   1.78089
 Alpha virt. eigenvalues --    1.78524   1.78529   1.78554   1.78582   1.79076
 Alpha virt. eigenvalues --    1.79145   1.82722   1.82727   1.83490   1.83530
 Alpha virt. eigenvalues --    1.84129   1.84178   1.84179   1.84265   1.84929
 Alpha virt. eigenvalues --    1.85015   1.85052   1.85099   1.85111   1.85133
 Alpha virt. eigenvalues --    1.85245   1.85341   1.85366   1.85449   1.86116
 Alpha virt. eigenvalues --    1.86133   1.86165   1.86165   1.86181   1.86190
 Alpha virt. eigenvalues --    1.87349   1.87361   1.87385   1.87392   1.87757
 Alpha virt. eigenvalues --    1.87830   1.88182   1.88224   1.88268   1.88322
 Alpha virt. eigenvalues --    1.88377   1.88416   1.88557   1.88559   1.88590
 Alpha virt. eigenvalues --    1.88599   1.88805   1.88844   1.89079   1.89084
 Alpha virt. eigenvalues --    1.89102   1.89111   1.90051   1.90082   1.91199
 Alpha virt. eigenvalues --    1.91222   1.91240   1.91260   1.91264   1.91318
 Alpha virt. eigenvalues --    1.92562   1.92763   1.95654   1.95683   1.95737
 Alpha virt. eigenvalues --    1.95774   1.96559   1.96593   1.98496   1.98564
 Alpha virt. eigenvalues --    2.00381   2.00386   2.00886   2.00894   2.00922
 Alpha virt. eigenvalues --    2.00924   2.01844   2.01917   2.02768   2.02817
 Alpha virt. eigenvalues --    2.03700   2.03705   2.03745   2.03752   2.04034
 Alpha virt. eigenvalues --    2.04125   2.04302   2.04302   2.05146   2.05146
 Alpha virt. eigenvalues --    2.05151   2.05153   2.05208   2.05259   2.05581
 Alpha virt. eigenvalues --    2.05582   2.05780   2.05794   2.06936   2.06961
 Alpha virt. eigenvalues --    2.06997   2.07054   2.07835   2.07835   2.07837
 Alpha virt. eigenvalues --    2.07838   2.07842   2.07846   2.08186   2.08188
 Alpha virt. eigenvalues --    2.08603   2.08647   2.08802   2.08804   2.09059
 Alpha virt. eigenvalues --    2.09067   2.09087   2.09090   2.10818   2.10840
 Alpha virt. eigenvalues --    2.11276   2.11276   2.11277   2.11278   2.12952
 Alpha virt. eigenvalues --    2.13033   2.13217   2.13218   2.13807   2.13824
 Alpha virt. eigenvalues --    2.14582   2.14589   2.14592   2.14595   2.19169
 Alpha virt. eigenvalues --    2.19209   2.19252   2.19305   2.19695   2.19825
 Alpha virt. eigenvalues --    2.23241   2.23250   2.23335   2.23338   2.23355
 Alpha virt. eigenvalues --    2.23401   2.23458   2.23466   2.23602   2.23765
 Alpha virt. eigenvalues --    2.23782   2.23832   2.24005   2.24066   2.24538
 Alpha virt. eigenvalues --    2.24563   2.24589   2.24627   2.24662   2.24732
 Alpha virt. eigenvalues --    2.25313   2.25389   2.25392   2.25545   2.26833
 Alpha virt. eigenvalues --    2.26856   2.28090   2.28133   2.28134   2.28195
 Alpha virt. eigenvalues --    2.28221   2.28222   2.29856   2.29886   2.29939
 Alpha virt. eigenvalues --    2.29945   2.29950   2.29957   2.30970   2.30997
 Alpha virt. eigenvalues --    2.33043   2.33058   2.34052   2.34053   2.34740
 Alpha virt. eigenvalues --    2.34740   2.34741   2.34741   2.35134   2.35134
 Alpha virt. eigenvalues --    2.35158   2.35194   2.35197   2.35198   2.35202
 Alpha virt. eigenvalues --    2.35248   2.35957   2.35961   2.38206   2.38209
 Alpha virt. eigenvalues --    2.38543   2.38544   2.38544   2.38547   2.39250
 Alpha virt. eigenvalues --    2.39252   2.39406   2.39407   2.40758   2.40758
 Alpha virt. eigenvalues --    2.40758   2.40761   2.40973   2.40975   2.41166
 Alpha virt. eigenvalues --    2.41168   2.43338   2.43338   2.43339   2.43339
 Alpha virt. eigenvalues --    2.43773   2.43774   2.44302   2.44359   2.45199
 Alpha virt. eigenvalues --    2.45215   2.45247   2.45260   2.47358   2.47404
 Alpha virt. eigenvalues --    2.47941   2.47981   2.48636   2.48636   2.49353
 Alpha virt. eigenvalues --    2.49353   2.49355   2.49355   2.50343   2.50395
 Alpha virt. eigenvalues --    2.55343   2.55343   2.56376   2.56400   2.56420
 Alpha virt. eigenvalues --    2.56444   2.57078   2.57079   2.57517   2.57517
 Alpha virt. eigenvalues --    2.59693   2.59693   2.59695   2.59696   2.61257
 Alpha virt. eigenvalues --    2.61265   2.63811   2.63811   2.65768   2.65786
 Alpha virt. eigenvalues --    2.65792   2.65807   2.66417   2.66417   2.66418
 Alpha virt. eigenvalues --    2.66418   2.66909   2.66913   2.68220   2.68318
 Alpha virt. eigenvalues --    2.69310   2.69314   2.69333   2.69337   2.69564
 Alpha virt. eigenvalues --    2.69585   2.69611   2.69611   2.70266   2.70290
 Alpha virt. eigenvalues --    2.74650   2.74650   2.74650   2.74650   2.74905
 Alpha virt. eigenvalues --    2.74906   2.75432   2.75432   2.75882   2.75888
 Alpha virt. eigenvalues --    2.75910   2.75926   2.76762   2.76787   2.77120
 Alpha virt. eigenvalues --    2.77130   2.77746   2.77746   2.78033   2.78040
 Alpha virt. eigenvalues --    2.79580   2.79583   2.79613   2.79623   2.80218
 Alpha virt. eigenvalues --    2.80232   2.80572   2.80572   2.80574   2.80574
 Alpha virt. eigenvalues --    2.82722   2.82722   2.83550   2.83619   2.83903
 Alpha virt. eigenvalues --    2.83912   2.83967   2.83992   2.84094   2.84174
 Alpha virt. eigenvalues --    2.87864   2.87881   2.88976   2.88990   2.88992
 Alpha virt. eigenvalues --    2.89005   2.92121   2.92136   2.94012   2.94032
 Alpha virt. eigenvalues --    2.94045   2.94065   2.94290   2.94329   2.94849
 Alpha virt. eigenvalues --    2.94902   2.95130   2.95139   2.95193   2.95203
 Alpha virt. eigenvalues --    2.95204   2.95211   2.97810   2.97811   2.97994
 Alpha virt. eigenvalues --    2.97994   2.99765   2.99765   2.99767   2.99767
 Alpha virt. eigenvalues --    3.00726   3.00726   3.01288   3.01289   3.01304
 Alpha virt. eigenvalues --    3.01311   3.02535   3.02582   3.05685   3.05685
 Alpha virt. eigenvalues --    3.07937   3.07938   3.08818   3.08826   3.09132
 Alpha virt. eigenvalues --    3.09133   3.09146   3.09146   3.10395   3.10402
 Alpha virt. eigenvalues --    3.12398   3.12427   3.12429   3.12441   3.13449
 Alpha virt. eigenvalues --    3.13496   3.16638   3.16669   3.20571   3.20599
 Alpha virt. eigenvalues --    3.20602   3.20621   3.23126   3.23129   3.23322
 Alpha virt. eigenvalues --    3.23382   3.24674   3.24676   3.24689   3.24691
 Alpha virt. eigenvalues --    3.27674   3.27675   3.33220   3.33230   3.34106
 Alpha virt. eigenvalues --    3.34108   3.34109   3.34112   3.35410   3.35416
 Alpha virt. eigenvalues --    3.47314   3.47318   3.47321   3.47323   3.54315
 Alpha virt. eigenvalues --    3.54315   3.56571   3.56574   3.58566   3.58587
 Alpha virt. eigenvalues --    3.62468   3.62469   3.64506   3.64508   3.64526
 Alpha virt. eigenvalues --    3.64526   3.72018   3.72074   3.76226   3.76228
 Alpha virt. eigenvalues --    3.76255   3.76255   3.78636   3.78657   6.59877
 Alpha virt. eigenvalues --    6.59877   6.60138   6.60138   6.60531   6.60531
 Alpha virt. eigenvalues --    6.60776   6.60776   6.60776   6.60776   6.64730
 Alpha virt. eigenvalues --    6.64730   6.64730   6.64730
          Condensed to atoms (all electrons):
 Mulliken charges:
               1
     1  C    0.024065
     2  C    0.024054
     3  C   -0.067989
     4  C    0.100297
     5  C    0.100274
     6  C   -0.067940
     7  C   -0.068677
     8  C   -0.068622
     9  N   -0.208911
    10  N    0.104220
    11  N    0.104182
    12  H   -0.006896
    13  H   -0.006863
    14  H   -0.012575
    15  H   -0.012468
    16  C    0.022250
    17  C    0.023581
    18  C   -0.069208
    19  C    0.100419
    20  C    0.100315
    21  C   -0.068164
    22  C   -0.068885
    23  C   -0.068749
    24  N   -0.208839
    25  N    0.104627
    26  H   -0.004952
    27  H   -0.007290
    28  H   -0.010721
    29  H   -0.012615
    30  C    0.024054
    31  C    0.024065
    32  C   -0.067940
    33  C    0.100274
    34  C    0.100297
    35  C   -0.067989
    36  C   -0.068622
    37  C   -0.068677
    38  N   -0.208911
    39  N    0.104182
    40  H   -0.006863
    41  H   -0.006896
    42  H   -0.012468
    43  H   -0.012575
    44  C    0.023581
    45  C    0.022250
    46  C   -0.068164
    47  C    0.100315
    48  C    0.100419
    49  C   -0.069208
    50  C   -0.068749
    51  C   -0.068885
    52  N   -0.208839
    53  H   -0.007290
    54  H   -0.004952
    55  H   -0.012615
    56  H   -0.010721
    57  Zn   0.673011
    58  C    0.023581
    59  C    0.022250
    60  C   -0.068164
    61  C    0.100315
    62  C    0.100419
    63  C   -0.069208
    64  C   -0.068749
    65  C   -0.068885
    66  N   -0.208839
    67  N    0.104627
    68  N    0.104182
    69  H   -0.007290
    70  H   -0.004952
    71  H   -0.012615
    72  H   -0.010721
    73  C    0.024054
    74  C    0.024065
    75  C   -0.067940
    76  C    0.100274
    77  C    0.100297
    78  C   -0.067989
    79  C   -0.068622
    80  C   -0.068677
    81  N   -0.208911
    82  N    0.104220
    83  H   -0.006863
    84  H   -0.006896
    85  H   -0.012468
    86  H   -0.012575
    87  C    0.022250
    88  C    0.023581
    89  C   -0.069208
    90  C    0.100419
    91  C    0.100315
    92  C   -0.068164
    93  C   -0.068885
    94  C   -0.068749
    95  N   -0.208839
    96  N    0.104182
    97  H   -0.004952
    98  H   -0.007290
    99  H   -0.010721
   100  H   -0.012615
   101  C    0.024065
   102  C    0.024054
   103  C   -0.067989
   104  C    0.100297
   105  C    0.100274
   106  C   -0.067940
   107  C   -0.068677
   108  C   -0.068622
   109  N   -0.208911
   110  H   -0.006896
   111  H   -0.006863
   112  H   -0.012575
   113  H   -0.012468
   114  Zn   0.673011
 Sum of Mulliken charges =  -0.00000
 Mulliken charges with hydrogens summed into heavy atoms:
               1
     1  C    0.017169
     2  C    0.017191
     3  C   -0.080565
     4  C    0.100297
     5  C    0.100274
     6  C   -0.080408
     7  C   -0.068677
     8  C   -0.068622
     9  N   -0.208911
    10  N    0.104220
    11  N    0.104182
    16  C    0.017298
    17  C    0.016291
    18  C   -0.079929
    19  C    0.100419
    20  C    0.100315
    21  C   -0.080779
    22  C   -0.068885
    23  C   -0.068749
    24  N   -0.208839
    25  N    0.104627
    30  C    0.017191
    31  C    0.017169
    32  C   -0.080408
    33  C    0.100274
    34  C    0.100297
    35  C   -0.080565
    36  C   -0.068622
    37  C   -0.068677
    38  N   -0.208911
    39  N    0.104182
    44  C    0.016291
    45  C    0.017298
    46  C   -0.080779
    47  C    0.100315
    48  C    0.100419
    49  C   -0.079929
    50  C   -0.068749
    51  C   -0.068885
    52  N   -0.208839
    57  Zn   0.673011
    58  C    0.016291
    59  C    0.017298
    60  C   -0.080779
    61  C    0.100315
    62  C    0.100419
    63  C   -0.079929
    64  C   -0.068749
    65  C   -0.068885
    66  N   -0.208839
    67  N    0.104627
    68  N    0.104182
    73  C    0.017191
    74  C    0.017169
    75  C   -0.080408
    76  C    0.100274
    77  C    0.100297
    78  C   -0.080565
    79  C   -0.068622
    80  C   -0.068677
    81  N   -0.208911
    82  N    0.104220
    87  C    0.017298
    88  C    0.016291
    89  C   -0.079929
    90  C    0.100419
    91  C    0.100315
    92  C   -0.080779
    93  C   -0.068885
    94  C   -0.068749
    95  N   -0.208839
    96  N    0.104182
   101  C    0.017169
   102  C    0.017191
   103  C   -0.080565
   104  C    0.100297
   105  C    0.100274
   106  C   -0.080408
   107  C   -0.068677
   108  C   -0.068622
   109  N   -0.208911
   114  Zn   0.673011
 Electronic spatial extent (au):  <R**2>=         155339.9203
 Charge=              0.0000 electrons
 Dipole moment (field-independent basis, Debye):
    X=              0.0000    Y=              0.0000    Z=             -0.0000  Tot=              0.0000
 Quadrupole moment (field-independent basis, Debye-Ang):
   XX=           -488.6463   YY=           -422.5477   ZZ=           -423.1947
   XY=              0.2444   XZ=              0.0000   YZ=              0.0000
 Traceless Quadrupole moment (field-independent basis, Debye-Ang):
   XX=            -43.8501   YY=             22.2485   ZZ=             21.6015
   XY=              0.2444   XZ=              0.0000   YZ=              0.0000
 Octapole moment (field-independent basis, Debye-Ang**2):
  XXX=             -0.0000  YYY=             -0.0000  ZZZ=              0.0000  XYY=             -0.0000
  XXY=              0.0000  XXZ=              0.0000  XZZ=              0.0000  YZZ=             -0.0000
  YYZ=              0.0000  XYZ=             -0.0000
 Hexadecapole moment (field-independent basis, Debye-Ang**3):
 XXXX=         -12239.5608 YYYY=        -152108.4196 ZZZZ=         -27921.5598 XXXY=         -20533.9148
 XXXZ=             -0.0000 YYYX=         -17732.8804 YYYZ=              0.0000 ZZZX=             -0.0000
 ZZZY=             -0.0000 XXYY=         -31298.2956 XXZZ=          -7342.3241 YYZZ=         -29304.5101
 XXYZ=             -0.0000 YYXZ=              0.0000 ZZXY=          -5917.6469
 N-N= 1.333966224968D+04 E-N=-4.291305849607D+04  KE= 6.843171935061D+03
 Symmetry AG   KE= 2.404441236359D+03
 Symmetry BG   KE= 1.017144676243D+03
 Symmetry AU   KE= 1.017122351501D+03
 Symmetry BU   KE= 2.404463670958D+03

 Test job not archived.
 1\1\ WCSS.PL-BEM-KETKOV-PC1\SP\RLC-BLYP\def2SVP\C64H32N16Zn2\SERGEY\10
 -Apr-2026\0\\# lc-blyp/def2svp iop(3/107=0350000000,3/108=0350000000)\
 \monomer geom r2scan-3c\\0,1\C,0,-4.138371,5.130673,0.\C,0,-5.130673,4
 .138371,0.\C,0,-2.787666,4.799485,0.\C,0,-2.454083,3.449643,0.\C,0,-3.
 449643,2.454083,0.\C,0,-4.799485,2.787666,0.\C,0,-1.173513,2.758029,0.
 \C,0,-2.758029,1.173513,0.\N,0,-1.406507,1.406507,0.\N,0,-3.380774,0.,
 0.\N,0,0.,3.380774,0.\H,0,-4.434605,6.175603,0.\H,0,-6.175603,4.434605
 ,0.\H,0,-2.014157,5.561043,0.\H,0,-5.561043,2.014157,0.\C,0,5.130673,4
 .138371,0.\C,0,4.138371,5.130673,0.\C,0,4.799485,2.787666,0.\C,0,3.449
 643,2.454083,0.\C,0,2.454083,3.449643,0.\C,0,2.787666,4.799485,0.\C,0,
 2.758029,1.173513,0.\C,0,1.173513,2.758029,0.\N,0,1.406507,1.406507,0.
 \N,0,3.380774,0.,0.\H,0,6.175603,4.434605,0.\H,0,4.434605,6.175603,0.\
 H,0,5.561043,2.014157,0.\H,0,2.014157,5.561043,0.\C,0,-5.130673,-4.138
 371,0.\C,0,-4.138371,-5.130673,0.\C,0,-4.799485,-2.787666,0.\C,0,-3.44
 9643,-2.454083,0.\C,0,-2.454083,-3.449643,0.\C,0,-2.787666,-4.799485,0
 .\C,0,-2.758029,-1.173513,0.\C,0,-1.173513,-2.758029,0.\N,0,-1.406507,
 -1.406507,0.\N,0,0.,-3.380774,0.\H,0,-6.175603,-4.434605,0.\H,0,-4.434
 605,-6.175603,0.\H,0,-5.561043,-2.014157,0.\H,0,-2.014157,-5.561043,0.
 \C,0,4.138371,-5.130673,0.\C,0,5.130673,-4.138371,0.\C,0,2.787666,-4.7
 99485,0.\C,0,2.454083,-3.449643,0.\C,0,3.449643,-2.454083,0.\C,0,4.799
 485,-2.787666,0.\C,0,1.173513,-2.758029,0.\C,0,2.758029,-1.173513,0.\N
 ,0,1.406507,-1.406507,0.\H,0,4.434605,-6.175603,0.\H,0,6.175603,-4.434
 605,0.\H,0,2.014157,-5.561043,0.\H,0,5.561043,-2.014157,0.\Zn,0,0.,0.,
 0.\C,0,9.861629,5.130673,4.\C,0,8.869327,4.138371,4.\C,0,11.212334,4.7
 99485,4.\C,0,11.545917,3.449643,4.\C,0,10.550357,2.454083,4.\C,0,9.200
 515,2.787666,4.\C,0,12.826487,2.758029,4.\C,0,11.241971,1.173513,4.\N,
 0,12.593493,1.406507,4.\N,0,10.619226,0.,4.\N,0,14.,3.380774,4.\H,0,9.
 565395,6.175603,4.\H,0,7.824397,4.434605,4.\H,0,11.985843,5.561043,4.\
 H,0,8.438957,2.014157,4.\C,0,19.130673,4.138371,4.\C,0,18.138371,5.130
 673,4.\C,0,18.799485,2.787666,4.\C,0,17.449643,2.454083,4.\C,0,16.4540
 83,3.449643,4.\C,0,16.787666,4.799485,4.\C,0,16.758029,1.173513,4.\C,0
 ,15.173513,2.758029,4.\N,0,15.406507,1.406507,4.\N,0,17.380774,0.,4.\H
 ,0,20.175603,4.434605,4.\H,0,18.434605,6.175603,4.\H,0,19.561043,2.014
 157,4.\H,0,16.014157,5.561043,4.\C,0,8.869327,-4.138371,4.\C,0,9.86162
 9,-5.130673,4.\C,0,9.200515,-2.787666,4.\C,0,10.550357,-2.454083,4.\C,
 0,11.545917,-3.449643,4.\C,0,11.212334,-4.799485,4.\C,0,11.241971,-1.1
 73513,4.\C,0,12.826487,-2.758029,4.\N,0,12.593493,-1.406507,4.\N,0,14.
 ,-3.380774,4.\H,0,7.824397,-4.434605,4.\H,0,9.565395,-6.175603,4.\H,0,
 8.438957,-2.014157,4.\H,0,11.985843,-5.561043,4.\C,0,18.138371,-5.1306
 73,4.\C,0,19.130673,-4.138371,4.\C,0,16.787666,-4.799485,4.\C,0,16.454
 083,-3.449643,4.\C,0,17.449643,-2.454083,4.\C,0,18.799485,-2.787666,4.
 \C,0,15.173513,-2.758029,4.\C,0,16.758029,-1.173513,4.\N,0,15.406507,-
 1.406507,4.\H,0,18.434605,-6.175603,4.\H,0,20.175603,-4.434605,4.\H,0,
 16.014157,-5.561043,4.\H,0,19.561043,-2.014157,4.\Zn,0,14.,0.,4.\\Vers
 ion=ES64L-G09RevE.01\State=1-AG\HF=-6881.1564754\RMSD=4.241e-09\Dipole
 =0.,0.,0.\Quadrupole=16.5412487,16.0602197,-32.6014684,0.,0.1816891,0.
 \PG=C02H [SGH(N4Zn2),X(C64H32N12)]\\@


 THERE IS AN OLD, OLD RECIPE IN MAINE FOR STEWING COOT. PLACE THE
 BIRD IN A KETTLE OF WATER WITH A RED BUILDING BRICK FREE OF MORTAR AND
 BLEMISHES. PARBOIL THE COOT AND BRICK TOGETHER FOR THREE HOURS.
 POUR OFF THE WATER, REFILL THE KETTLE, AND AGAIN PARBOIL FOR THREE HOURS.
 ONCE AGAIN POUR OFF THE WATER, FOR THE LAST TIME ADD FRESH WATER,
 AND LET THE COOT AND BRICK SIMMER TOGETHER OVERNIGHT. IN THE MORNING,
 THROW AWAY THE COOT AND EAT THE BRICK.
 Job cpu time:       0 days  0 hours 30 minutes 33.5 seconds.
 File lengths (MBytes):  RWF=    939 Int=      0 D2E=      0 Chk=     91 Scr=      1
 Normal termination of Gaussian 09 at Fri Apr 10 22:04:12 2026.
 Initial command:
 /home/sergey/g09/l1.exe "/home/sergey/SCRATCH/Gau-6336.inp" -scrdir="/home/sergey/SCRATCH/"
 Entering Link 1 = /home/sergey/g09/l1.exe PID=      6579.
  
 Copyright (c) 1988,1990,1992,1993,1995,1998,2003,2009,2015,
            Gaussian, Inc.  All Rights Reserved.
  
 This is part of the Gaussian(R) 09 program.  It is based on
 the Gaussian(R) 03 system (copyright 2003, Gaussian, Inc.),
 the Gaussian(R) 98 system (copyright 1998, Gaussian, Inc.),
 the Gaussian(R) 94 system (copyright 1995, Gaussian, Inc.),
 the Gaussian 92(TM) system (copyright 1992, Gaussian, Inc.),
 the Gaussian 90(TM) system (copyright 1990, Gaussian, Inc.),
 the Gaussian 88(TM) system (copyright 1988, Gaussian, Inc.),
 the Gaussian 86(TM) system (copyright 1986, Carnegie Mellon
 University), and the Gaussian 82(TM) system (copyright 1983,
 Carnegie Mellon University). Gaussian is a federally registered
 trademark of Gaussian, Inc.
  
 This software contains proprietary and confidential information,
 including trade secrets, belonging to Gaussian, Inc.
  
 This software is provided under written license and may be
 used, copied, transmitted, or stored only in accord with that
 written license.
  
 The following legend is applicable only to US Government
 contracts under FAR:
  
                    RESTRICTED RIGHTS LEGEND
  
 Use, reproduction and disclosure by the US Government is
 subject to restrictions as set forth in subparagraphs (a)
 and (c) of the Commercial Computer Software - Restricted
 Rights clause in FAR 52.227-19.
  
 Gaussian, Inc.
 340 Quinnipiac St., Bldg. 40, Wallingford CT 06492
  
  
 ---------------------------------------------------------------
 Warning -- This program may not be used in any manner that
 competes with the business of Gaussian, Inc. or will provide
 assistance to any competitor of Gaussian, Inc.  The licensee
 of this program is prohibited from giving any competitor of
 Gaussian, Inc. access to this program.  By using this program,
 the user acknowledges that Gaussian, Inc. is engaged in the
 business of creating and licensing software in the field of
 computational chemistry and represents and warrants to the
 licensee that it is not a competitor of Gaussian, Inc. and that
 it will not use this program in any manner prohibited above.
 ---------------------------------------------------------------
  

 Cite this work as:
 Gaussian 09, Revision E.01,
 M. J. Frisch, G. W. Trucks, H. B. Schlegel, G. E. Scuseria, 
 M. A. Robb, J. R. Cheeseman, G. Scalmani, V. Barone, B. Mennucci, 
 G. A. Petersson, H. Nakatsuji, M. Caricato, X. Li, H. P. Hratchian, 
 A. F. Izmaylov, J. Bloino, G. Zheng, J. L. Sonnenberg, M. Hada, 
 M. Ehara, K. Toyota, R. Fukuda, J. Hasegawa, M. Ishida, T. Nakajima, 
 Y. Honda, O. Kitao, H. Nakai, T. Vreven, J. A. Montgomery, Jr., 
 J. E. Peralta, F. Ogliaro, M. Bearpark, J. J. Heyd, E. Brothers, 
 K. N. Kudin, V. N. Staroverov, T. Keith, R. Kobayashi, J. Normand, 
 K. Raghavachari, A. Rendell, J. C. Burant, S. S. Iyengar, J. Tomasi, 
 M. Cossi, N. Rega, J. M. Millam, M. Klene, J. E. Knox, J. B. Cross, 
 V. Bakken, C. Adamo, J. Jaramillo, R. Gomperts, R. E. Stratmann, 
 O. Yazyev, A. J. Austin, R. Cammi, C. Pomelli, J. W. Ochterski, 
 R. L. Martin, K. Morokuma, V. G. Zakrzewski, G. A. Voth, 
 P. Salvador, J. J. Dannenberg, S. Dapprich, A. D. Daniels, 
 O. Farkas, J. B. Foresman, J. V. Ortiz, J. Cioslowski, 
 and D. J. Fox, Gaussian, Inc., Wallingford CT, 2013.
 
 ******************************************
 Gaussian 09:  ES64L-G09RevE.01 30-Nov-2015
                10-Apr-2026 
 ******************************************
 %chk=ZnPc_40_140.chk
 %mem=60GB
 %nproc=6
 Will use up to    6 processors via shared memory.
 Default route:  MaxDisk=477GB
 ----------------------------------------------------------------------
 # td(nstates=4) lc-blyp/gen iop(3/107=0350000000,3/108=0350000000) geo
 m=check guess=read
 ----------------------------------------------------------------------
 1/29=2,38=1/1;
 2/12=2,40=1/2;
 3/5=7,11=9,14=-4,16=1,25=1,30=1,74=1000402,107=350000000,108=350000000,116=-2/1,2,8,3;
 4/5=1/1;
 5/5=2,38=6/2;
 8/6=1,10=1,108=4/1;
 9/41=4,42=1,70=2/14;
 6/7=2,8=2,9=2,10=2/1;
 99/5=1,9=1/99;
 ----------------------------------
 def2tzvp-f, monomer geom r2scan-3c
 ----------------------------------
 Structure from the checkpoint file:  "ZnPc_40_140.chk"
 Charge =  0 Multiplicity = 1
 Z-Matrix found in file.
 C,0,-4.138371,5.130673,0.
 C,0,-5.130673,4.138371,0.
 C,0,-2.787666,4.799485,0.
 C,0,-2.454083,3.449643,0.
 C,0,-3.449643,2.454083,0.
 C,0,-4.799485,2.787666,0.
 C,0,-1.173513,2.758029,0.
 C,0,-2.758029,1.173513,0.
 N,0,-1.406507,1.406507,0.
 N,0,-3.380774,0.,0.
 N,0,0.,3.380774,0.
 H,0,-4.434605,6.175603,0.
 H,0,-6.175603,4.434605,0.
 H,0,-2.014157,5.561043,0.
 H,0,-5.561043,2.014157,0.
 C,0,5.130673,4.138371,0.
 C,0,4.138371,5.130673,0.
 C,0,4.799485,2.787666,0.
 C,0,3.449643,2.454083,0.
 C,0,2.454083,3.449643,0.
 C,0,2.787666,4.799485,0.
 C,0,2.758029,1.173513,0.
 C,0,1.173513,2.758029,0.
 N,0,1.406507,1.406507,0.
 N,0,3.380774,0.,0.
 H,0,6.175603,4.434605,0.
 H,0,4.434605,6.175603,0.
 H,0,5.561043,2.014157,0.
 H,0,2.014157,5.561043,0.
 C,0,-5.130673,-4.138371,0.
 C,0,-4.138371,-5.130673,0.
 C,0,-4.799485,-2.787666,0.
 C,0,-3.449643,-2.454083,0.
 C,0,-2.454083,-3.449643,0.
 C,0,-2.787666,-4.799485,0.
 C,0,-2.758029,-1.173513,0.
 C,0,-1.173513,-2.758029,0.
 N,0,-1.406507,-1.406507,0.
 N,0,0.,-3.380774,0.
 H,0,-6.175603,-4.434605,0.
 H,0,-4.434605,-6.175603,0.
 H,0,-5.561043,-2.014157,0.
 H,0,-2.014157,-5.561043,0.
 C,0,4.138371,-5.130673,0.
 C,0,5.130673,-4.138371,0.
 C,0,2.787666,-4.799485,0.
 C,0,2.454083,-3.449643,0.
 C,0,3.449643,-2.454083,0.
 C,0,4.799485,-2.787666,0.
 C,0,1.173513,-2.758029,0.
 C,0,2.758029,-1.173513,0.
 N,0,1.406507,-1.406507,0.
 H,0,4.434605,-6.175603,0.
 H,0,6.175603,-4.434605,0.
 H,0,2.014157,-5.561043,0.
 H,0,5.561043,-2.014157,0.
 Zn,0,0.,0.,0.
 C,0,9.861629,5.130673,4.
 C,0,8.869327,4.138371,4.
 C,0,11.212334,4.799485,4.
 C,0,11.545917,3.449643,4.
 C,0,10.550357,2.454083,4.
 C,0,9.200515,2.787666,4.
 C,0,12.826487,2.758029,4.
 C,0,11.241971,1.173513,4.
 N,0,12.593493,1.406507,4.
 N,0,10.619226,0.,4.
 N,0,14.,3.380774,4.
 H,0,9.565395,6.175603,4.
 H,0,7.824397,4.434605,4.
 H,0,11.985843,5.561043,4.
 H,0,8.438957,2.014157,4.
 C,0,19.130673,4.138371,4.
 C,0,18.138371,5.130673,4.
 C,0,18.799485,2.787666,4.
 C,0,17.449643,2.454083,4.
 C,0,16.454083,3.449643,4.
 C,0,16.787666,4.799485,4.
 C,0,16.758029,1.173513,4.
 C,0,15.173513,2.758029,4.
 N,0,15.406507,1.406507,4.
 N,0,17.380774,0.,4.
 H,0,20.175603,4.434605,4.
 H,0,18.434605,6.175603,4.
 H,0,19.561043,2.014157,4.
 H,0,16.014157,5.561043,4.
 C,0,8.869327,-4.138371,4.
 C,0,9.861629,-5.130673,4.
 C,0,9.200515,-2.787666,4.
 C,0,10.550357,-2.454083,4.
 C,0,11.545917,-3.449643,4.
 C,0,11.212334,-4.799485,4.
 C,0,11.241971,-1.173513,4.
 C,0,12.826487,-2.758029,4.
 N,0,12.593493,-1.406507,4.
 N,0,14.,-3.380774,4.
 H,0,7.824397,-4.434605,4.
 H,0,9.565395,-6.175603,4.
 H,0,8.438957,-2.014157,4.
 H,0,11.985843,-5.561043,4.
 C,0,18.138371,-5.130673,4.
 C,0,19.130673,-4.138371,4.
 C,0,16.787666,-4.799485,4.
 C,0,16.454083,-3.449643,4.
 C,0,17.449643,-2.454083,4.
 C,0,18.799485,-2.787666,4.
 C,0,15.173513,-2.758029,4.
 C,0,16.758029,-1.173513,4.
 N,0,15.406507,-1.406507,4.
 H,0,18.434605,-6.175603,4.
 H,0,20.175603,-4.434605,4.
 H,0,16.014157,-5.561043,4.
 H,0,19.561043,-2.014157,4.
 Zn,0,14.,0.,4.
 Recover connectivity data from disk.
 Stoichiometry    C64H32N16Zn2
 Framework group  C2H[SGH(N4Zn2),X(C64H32N12)]
 Deg. of freedom    86
 Full point group                 C2H     NOp   4
 Largest Abelian subgroup         C2H     NOp   4
 Largest concise Abelian subgroup C2H     NOp   4
                         Standard orientation:                         
 ---------------------------------------------------------------------
 Center     Atomic      Atomic             Coordinates (Angstroms)
 Number     Number       Type             X           Y           Z
 ---------------------------------------------------------------------
      1          6           0        2.000000   11.138371    5.130673
      2          6           0        2.000000   12.130673    4.138371
      3          6           0        2.000000    9.787666    4.799485
      4          6           0        2.000000    9.454083    3.449643
      5          6           0        2.000000   10.449643    2.454083
      6          6           0        2.000000   11.799485    2.787666
      7          6           0        2.000000    8.173513    2.758029
      8          6           0        2.000000    9.758029    1.173513
      9          7           0        2.000000    8.406507    1.406507
     10          7           0        2.000000   10.380774   -0.000000
     11          7           0        2.000000    7.000000    3.380774
     12          1           0        2.000000   11.434605    6.175603
     13          1           0        2.000000   13.175603    4.434605
     14          1           0        2.000000    9.014157    5.561043
     15          1           0        2.000000   12.561043    2.014157
     16          6           0        2.000000    1.869327    4.138371
     17          6           0        2.000000    2.861629    5.130673
     18          6           0        2.000000    2.200515    2.787666
     19          6           0        2.000000    3.550357    2.454083
     20          6           0        2.000000    4.545917    3.449643
     21          6           0        2.000000    4.212334    4.799485
     22          6           0        2.000000    4.241971    1.173513
     23          6           0        2.000000    5.826487    2.758029
     24          7           0        2.000000    5.593493    1.406507
     25          7           0        2.000000    3.619226   -0.000000
     26          1           0        2.000000    0.824397    4.434605
     27          1           0        2.000000    2.565395    6.175603
     28          1           0        2.000000    1.438957    2.014157
     29          1           0        2.000000    4.985843    5.561043
     30          6           0        2.000000   12.130673   -4.138371
     31          6           0        2.000000   11.138371   -5.130673
     32          6           0        2.000000   11.799485   -2.787666
     33          6           0        2.000000   10.449643   -2.454083
     34          6           0        2.000000    9.454083   -3.449643
     35          6           0        2.000000    9.787666   -4.799485
     36          6           0        2.000000    9.758029   -1.173513
     37          6           0        2.000000    8.173513   -2.758029
     38          7           0        2.000000    8.406507   -1.406507
     39          7           0        2.000000    7.000000   -3.380774
     40          1           0        2.000000   13.175603   -4.434605
     41          1           0        2.000000   11.434605   -6.175603
     42          1           0        2.000000   12.561043   -2.014157
     43          1           0        2.000000    9.014157   -5.561043
     44          6           0        2.000000    2.861629   -5.130673
     45          6           0        2.000000    1.869327   -4.138371
     46          6           0        2.000000    4.212334   -4.799485
     47          6           0        2.000000    4.545917   -3.449643
     48          6           0        2.000000    3.550357   -2.454083
     49          6           0        2.000000    2.200515   -2.787666
     50          6           0        2.000000    5.826487   -2.758029
     51          6           0        2.000000    4.241971   -1.173513
     52          7           0        2.000000    5.593493   -1.406507
     53          1           0        2.000000    2.565395   -6.175603
     54          1           0        2.000000    0.824397   -4.434605
     55          1           0        2.000000    4.985843   -5.561043
     56          1           0        2.000000    1.438957   -2.014157
     57         30           0        2.000000    7.000000   -0.000000
     58          6           0       -2.000000   -2.861629    5.130673
     59          6           0       -2.000000   -1.869327    4.138371
     60          6           0       -2.000000   -4.212334    4.799485
     61          6           0       -2.000000   -4.545917    3.449643
     62          6           0       -2.000000   -3.550357    2.454083
     63          6           0       -2.000000   -2.200515    2.787666
     64          6           0       -2.000000   -5.826487    2.758029
     65          6           0       -2.000000   -4.241971    1.173513
     66          7           0       -2.000000   -5.593493    1.406507
     67          7           0       -2.000000   -3.619226   -0.000000
     68          7           0       -2.000000   -7.000000    3.380774
     69          1           0       -2.000000   -2.565395    6.175603
     70          1           0       -2.000000   -0.824397    4.434605
     71          1           0       -2.000000   -4.985843    5.561043
     72          1           0       -2.000000   -1.438957    2.014157
     73          6           0       -2.000000  -12.130673    4.138371
     74          6           0       -2.000000  -11.138371    5.130673
     75          6           0       -2.000000  -11.799485    2.787666
     76          6           0       -2.000000  -10.449643    2.454083
     77          6           0       -2.000000   -9.454083    3.449643
     78          6           0       -2.000000   -9.787666    4.799485
     79          6           0       -2.000000   -9.758029    1.173513
     80          6           0       -2.000000   -8.173513    2.758029
     81          7           0       -2.000000   -8.406507    1.406507
     82          7           0       -2.000000  -10.380774   -0.000000
     83          1           0       -2.000000  -13.175603    4.434605
     84          1           0       -2.000000  -11.434605    6.175603
     85          1           0       -2.000000  -12.561043    2.014157
     86          1           0       -2.000000   -9.014157    5.561043
     87          6           0       -2.000000   -1.869327   -4.138371
     88          6           0       -2.000000   -2.861629   -5.130673
     89          6           0       -2.000000   -2.200515   -2.787666
     90          6           0       -2.000000   -3.550357   -2.454083
     91          6           0       -2.000000   -4.545917   -3.449643
     92          6           0       -2.000000   -4.212334   -4.799485
     93          6           0       -2.000000   -4.241971   -1.173513
     94          6           0       -2.000000   -5.826487   -2.758029
     95          7           0       -2.000000   -5.593493   -1.406507
     96          7           0       -2.000000   -7.000000   -3.380774
     97          1           0       -2.000000   -0.824397   -4.434605
     98          1           0       -2.000000   -2.565395   -6.175603
     99          1           0       -2.000000   -1.438957   -2.014157
    100          1           0       -2.000000   -4.985843   -5.561043
    101          6           0       -2.000000  -11.138371   -5.130673
    102          6           0       -2.000000  -12.130673   -4.138371
    103          6           0       -2.000000   -9.787666   -4.799485
    104          6           0       -2.000000   -9.454083   -3.449643
    105          6           0       -2.000000  -10.449643   -2.454083
    106          6           0       -2.000000  -11.799485   -2.787666
    107          6           0       -2.000000   -8.173513   -2.758029
    108          6           0       -2.000000   -9.758029   -1.173513
    109          7           0       -2.000000   -8.406507   -1.406507
    110          1           0       -2.000000  -11.434605   -6.175603
    111          1           0       -2.000000  -13.175603   -4.434605
    112          1           0       -2.000000   -9.014157   -5.561043
    113          1           0       -2.000000  -12.561043   -2.014157
    114         30           0       -2.000000   -7.000000   -0.000000
 ---------------------------------------------------------------------
 Rotational constants (GHZ):      0.0419414      0.0069817      0.0060904
 General basis read from cards:  (5D, 7F)
 There are   618 symmetry adapted cartesian basis functions of AG  symmetry.
 There are   573 symmetry adapted cartesian basis functions of BG  symmetry.
 There are   573 symmetry adapted cartesian basis functions of AU  symmetry.
 There are   618 symmetry adapted cartesian basis functions of BU  symmetry.
 There are   570 symmetry adapted basis functions of AG  symmetry.
 There are   534 symmetry adapted basis functions of BG  symmetry.
 There are   534 symmetry adapted basis functions of AU  symmetry.
 There are   570 symmetry adapted basis functions of BU  symmetry.
  2208 basis functions,  3746 primitive gaussians,  2382 cartesian basis functions
   294 alpha electrons      294 beta electrons
       nuclear repulsion energy     13339.6622496774 Hartrees.
 NAtoms=  114 NActive=  114 NUniq=   30 SFac= 4.00D+00 NAtFMM=   60 NAOKFM=T Big=F
 Integral buffers will be    131072 words long.
 Raffenetti 1 integral format.
 Two-electron integral symmetry is turned on.
 One-electron integrals computed using PRISM.
 NBasis=  2208 RedAO= T EigKep=  1.24D-06  NBF=   570   534   534   570
 NBsUse=  2208 1.00D-06 EigRej= -1.00D+00 NBFU=   570   534   534   570
 Initial guess from the checkpoint file:  "ZnPc_40_140.chk"
 B after Tr=    -0.000000   -0.000000    0.000000
         Rot=    1.000000    0.000000    0.000000    0.000000 Ang=   0.00 deg.
 Initial guess orbital symmetries:
       Occupied  (BU) (AG) (BU) (AG) (BU) (AG) (BU) (AG) (BG) (AU)
                 (BG) (AU) (BU) (AG) (AU) (BG) (BU) (AG) (BU) (AG)
                 (AU) (BG) (AG) (BU) (BU) (AG) (BU) (AG) (BG) (AU)
                 (BU) (AG) (BG) (AU) (BU) (AG) (BU) (AG) (BG) (AU)
                 (BG) (AU) (BG) (AU) (AG) (BU) (BG) (AU) (AG) (BU)
                 (BG) (AU) (BU) (AG) (BG) (AU) (BU) (AG) (BG) (BU)
                 (AU) (AG) (BU) (AG) (BG) (AU) (BG) (AU) (BU) (AG)
                 (AU) (AG) (BG) (BU) (AU) (BG) (AG) (BU) (BG) (AU)
                 (AG) (BU) (AU) (BG) (AU) (BG) (AG) (BU) (AG) (BU)
                 (BU) (AG) (BU) (AG) (AG) (BU) (BG) (AU) (AG) (BU)
                 (AU) (BG) (AG) (BU) (AU) (BG) (AG) (BU) (AU) (BG)
                 (AG) (BU) (AG) (BU) (AU) (AG) (BG) (BU) (AU) (BG)
                 (AG) (BU) (AU) (BG) (AG) (BU) (AU) (BG) (AG) (BU)
                 (AG) (BU) (AU) (BG) (AU) (BG) (AG) (BU) (AU) (BG)
                 (AU) (AG) (BG) (BU) (AU) (BG) (AG) (BU) (AG) (AU)
                 (BU) (BG) (AG) (BU) (AU) (BG) (AG) (BU) (AG) (AU)
                 (BU) (BG) (AU) (BG) (AG) (BU) (AG) (AU) (BG) (BU)
                 (AU) (BG) (AU) (AG) (BG) (BU) (AU) (BG) (AG) (BU)
                 (AG) (BU) (AU) (BG) (AG) (BU) (AG) (AU) (BU) (BG)
                 (AU) (AG) (BU) (BG) (AU) (AG) (BG) (BU) (AG) (BU)
                 (AU) (BG) (AU) (BG) (AU) (BG) (AG) (BU) (AG) (BU)
                 (AG) (BU) (AG) (AU) (BU) (BG) (AG) (BU) (AU) (BG)
                 (AU) (BG) (AG) (AU) (BG) (BU) (AU) (BG) (AG) (BU)
                 (AG) (BU) (AG) (BU) (AU) (AG) (BU) (BG) (AG) (BU)
                 (AU) (AG) (BU) (BG) (AU) (BG) (AU) (BG) (AG) (AU)
                 (BU) (BG) (AG) (BU) (AU) (AG) (BG) (BU) (AU) (BG)
                 (AU) (BG) (AG) (BU) (AG) (BU) (AU) (BG) (AG) (BU)
                 (AU) (BG) (AG) (BU) (AG) (BU) (AG) (BU) (AU) (AG)
                 (BU) (BG) (AG) (AU) (BG) (BU) (AU) (BG) (AU) (BG)
                 (AG) (BU) (AU) (BG)
       Virtual   (AG) (AU) (BG) (BU) (AG) (BU) (AU) (BG) (AG) (BU)
                 (AU) (AG) (BU) (BG) (AG) (BU) (AU) (BG) (AG) (AU)
                 (BG) (BU) (AU) (BG) (AG) (BU) (AU) (AG) (BG) (BU)
                 (AG) (AU) (BU) (AG) (BU) (BG) (AG) (BU) (AU) (AG)
                 (BU) (BG) (AG) (BU) (AU) (BG) (AG) (AU) (AU) (BU)
                 (AG) (BG) (BG) (BU) (AG) (AG) (BU) (BU) (AU) (BG)
                 (AU) (AG) (BU) (BG) (AU) (BG) (AG) (AU) (BU) (BG)
                 (AG) (BU) (AU) (BG) (AG) (BU) (AG) (AU) (BG) (BU)
                 (AU) (BG) (AG) (BU) (AG) (BU) (AG) (BG) (AU) (BU)
                 (AG) (BU) (AU) (BG) (AU) (AG) (BU) (BG) (AG) (BU)
                 (AG) (AU) (BG) (BU) (AU) (BG) (AU) (BG) (AU) (AG)
                 (BU) (BG) (AG) (BU) (AU) (AG) (BU) (BG) (AG) (BU)
                 (AU) (BG) (BG) (AU) (BG) (AU) (BU) (BG) (AU) (AG)
                 (AG) (BU) (BG) (AG) (BU) (AU) (AU) (BG) (BU) (AG)
                 (BU) (AG) (BU) (AU) (BG) (AG) (BU) (AU) (BG) (AG)
                 (AU) (BU) (AG) (BG) (BU) (AG) (BU) (AG) (BG) (BU)
                 (AG) (AU) (BG) (AU) (BG) (BU) (AG) (AU) (AU) (BG)
                 (AG) (BU) (AU) (BG) (AG) (BU) (AG) (BG) (AU) (BU)
                 (AG) (AU) (BG) (BU) (AU) (AG) (BU) (BG) (AU) (BG)
                 (AU) (BG) (AU) (BG) (AG) (BU) (AG) (AU) (BU) (AG)
                 (BG) (BU) (AU) (AG) (BU) (BG) (AG) (BU) (AG) (BU)
                 (AU) (AG) (BG) (BU) (AG) (BU) (AG) (BU) (AU) (AG)
                 (BU) (BG) (AU) (BG) (AU) (BG) (AU) (BG) (AU) (BG)
                 (AG) (AU) (BG) (BU) (AU) (AG) (AU) (BU) (BG) (BG)
                 (AG) (BU) (AG) (BU) (AG) (BU) (AU) (AG) (AU) (BG)
                 (BU) (AG) (BU) (BG) (AG) (BU) (AG) (BU) (AG) (AU)
                 (BG) (BU) (AU) (AU) (BG) (BG) (AG) (AU) (BU) (BG)
                 (AG) (BU) (AU) (AG) (BG) (BU) (AU) (BG) (AG) (BU)
                 (AG) (AU) (AU) (BG) (AG) (BG) (BU) (BU) (AG) (BU)
                 (AG) (BU) (AG) (AU) (BG) (BU) (BG) (AU) (AU) (BG)
                 (AU) (BG) (AG) (BG) (BU) (AU) (BU) (AU) (AG) (BG)
                 (AU) (AG) (BU) (BG) (BU) (AG) (AU) (BG) (AU) (BG)
                 (BU) (AG) (AU) (AG) (BG) (BU) (AU) (AG) (BU) (BG)
                 (AG) (BU) (AU) (BU) (AG) (AG) (BG) (BU) (BG) (AU)
                 (AG) (BG) (AU) (BU) (AU) (BU) (AG) (BG) (AU) (AG)
                 (BU) (BG) (AG) (AU) (BG) (BU) (AU) (BG) (AU) (BU)
                 (BG) (AG) (AU) (BG) (AU) (BG) (BU) (AG) (AG) (BU)
                 (AU) (AG) (BU) (BG) (AG) (BG) (AU) (BU) (AU) (BG)
                 (AG) (BU) (AU) (BG) (AG) (BU) (AG) (BU) (AU) (BG)
                 (BU) (AG) (BG) (AU) (AU) (BU) (AG) (BG) (AU) (BG)
                 (AG) (BU) (AG) (BU) (AU) (AG) (BG) (BU) (AU) (BG)
                 (AG) (BU) (AU) (BG) (AG) (BU) (AG) (AU) (BG) (BU)
                 (AG) (BU) (AU) (BG) (AU) (AG) (BU) (BG) (AG) (BU)
                 (AG) (BU) (BG) (BU) (AG) (AU) (BU) (AG) (BG) (AU)
                 (BG) (AG) (BU) (AU) (BG) (AU) (BU) (AG) (BG) (AU)
                 (BU) (AU) (BG) (AG) (BU) (AG) (BG) (AU) (AU) (BG)
                 (BU) (AG) (BU) (BG) (AU) (AG) (BU) (AG) (AU) (BG)
                 (AU) (AG) (BG) (BU) (BG) (BU) (AG) (AU) (AG) (BU)
                 (AU) (BG) (AG) (BU) (AG) (BU) (AU) (BG) (AG) (AU)
                 (BG) (BU) (AU) (BG) (AG) (BU) (AG) (BU) (AG) (BU)
                 (AG) (AU) (BU) (BG) (AU) (BG) (AG) (BU) (BG) (AU)
                 (AU) (BG) (AU) (AG) (BG) (BU) (AU) (BG) (AU) (AG)
                 (BU) (BG) (AG) (BU) (AU) (BG) (AG) (BU) (AG) (BU)
                 (AG) (AU) (BU) (BG) (AU) (BG) (BG) (AU) (AU) (BG)
                 (AG) (AU) (BG) (BU) (AG) (AU) (BG) (BU) (AU) (BG)
                 (AG) (BU) (BU) (AG) (AG) (BU) (AU) (BG) (AU) (AG)
                 (BU) (BG) (BG) (AU) (AG) (BU) (AU) (AG) (BG) (BU)
                 (AU) (BG) (AU) (AG) (BU) (BG) (AU) (BG) (AU) (BG)
                 (AG) (BU) (AU) (AG) (BU) (BG) (AG) (BU) (AG) (BU)
                 (AU) (AG) (BU) (BG) (AG) (AU) (BU) (BG) (AG) (AU)
                 (BG) (AU) (BU) (AG) (BU) (BG) (AG) (AU) (BG) (BU)
                 (AG) (AU) (BG) (BU) (AG) (BU) (BG) (AU) (AG) (BU)
                 (AG) (AU) (BG) (BU) (AU) (AG) (BU) (AU) (BG) (BG)
                 (AU) (AG) (BG) (BU) (AG) (BU) (AG) (AU) (BU) (BG)
                 (AU) (AG) (BU) (BG) (AU) (BG) (AG) (BU) (AG) (BU)
                 (AU) (BG) (AU) (AG) (BG) (BU) (AU) (BG) (AU) (AG)
                 (BU) (BG) (AG) (BU) (AU) (AG) (BU) (AU) (BG) (BG)
                 (AU) (BG) (AG) (AU) (BG) (BU) (AG) (BU) (AG) (BU)
                 (AG) (BU) (AU) (AG) (BG) (BU) (AG) (BU) (AU) (BG)
                 (AG) (AU) (BG) (BU) (AU) (BG) (AG) (BU) (BG) (AU)
                 (AG) (BU) (AG) (BU) (AU) (BG) (AU) (BG) (AU) (AG)
                 (BU) (BG) (AG) (BU) (AG) (BU) (AU) (BG) (AG) (BU)
                 (AG) (BU) (AU) (BG) (AG) (AU) (BG) (BU) (BG) (AU)
                 (AU) (AG) (BG) (BU) (AU) (BG) (AU) (BG) (AG) (BU)
                 (AU) (AG) (BU) (BG) (AG) (AU) (BG) (BU) (AG) (BU)
                 (AG) (AU) (AG) (BU) (AU) (BG) (BU) (BG) (AG) (AU)
                 (BU) (BG) (AU) (BG) (AU) (AG) (BU) (BG) (AU) (BG)
                 (AU) (BU) (AG) (BG) (AG) (BU) (AG) (AU) (BG) (BU)
                 (AU) (BG) (AG) (BU) (AG) (AU) (BG) (BU) (AG) (BU)
                 (AU) (BG) (BU) (AG) (AU) (BG) (BU) (AG) (AU) (BG)
                 (AU) (AU) (BG) (AG) (BU) (BG) (AG) (BU) (AG) (BU)
                 (AG) (AU) (BG) (BU) (AG) (BU) (AU) (BG) (AU) (AG)
                 (BU) (BG) (AU) (BG) (AU) (BG) (AU) (AG) (BG) (BU)
                 (AG) (BU) (AG) (BU) (AU) (AG) (BU) (BG) (AU) (BG)
                 (AU) (BG) (AU) (BG) (AU) (BG) (BU) (AG) (AG) (BU)
                 (AG) (BU) (AU) (AG) (BU) (BG) (BU) (AG) (BG) (AU)
                 (BU) (AG) (BG) (AU) (AG) (BU) (BU) (AG) (AG) (BG)
                 (AU) (BU) (AU) (BG) (AG) (BU) (BG) (AU) (AU) (BG)
                 (BG) (BU) (AG) (AU) (BU) (AG) (BG) (AU) (BG) (AU)
                 (AU) (BG) (BU) (AG) (AG) (BU) (AU) (BG) (AG) (AU)
                 (BG) (BU) (BU) (AG) (AG) (BU) (AG) (BU) (AU) (BG)
                 (BU) (AU) (BG) (AG) (AG) (BU) (AU) (BG) (AG) (BU)
                 (AG) (BU) (AG) (BU) (AG) (AU) (BG) (BU) (AU) (BG)
                 (AG) (BU) (AU) (BU) (AG) (BG) (AU) (BG) (AG) (AU)
                 (BG) (BU) (AG) (BU) (AU) (BG) (BG) (AU) (AG) (AU)
                 (BG) (BU) (AG) (BU) (AU) (BG) (AG) (BU) (AU) (BG)
                 (AU) (BG) (BU) (BG) (AG) (AU) (BG) (AU) (BU) (AG)
                 (BG) (AU) (AG) (BU) (AG) (BG) (AU) (BU) (BG) (AU)
                 (BU) (AU) (BG) (AG) (BU) (AG) (AG) (BU) (AU) (BU)
                 (AG) (BG) (AU) (BG) (AU) (BG) (AU) (AG) (BU) (BG)
                 (AG) (BU) (AU) (BG) (AU) (AG) (BG) (BU) (AG) (BU)
                 (AG) (AU) (BU) (BG) (AU) (BG) (AG) (BU) (AG) (BU)
                 (AU) (BG) (AG) (AU) (BG) (BU) (AU) (BG) (AU) (AG)
                 (BU) (BG) (AG) (BU) (AG) (BU) (AG) (BU) (AU) (BG)
                 (AU) (BU) (AG) (BG) (AU) (AG) (BU) (BG) (AG) (AG)
                 (AG) (AG) (AG) (AG) (AG) (AG) (AG) (AG) (AG) (AG)
                 (AG) (AG) (AG) (AG) (AG) (AG) (AG) (AG) (AG) (AG)
                 (AG) (AG) (AG) (AG) (AG) (AG) (AG) (AG) (AG) (AG)
                 (AG) (AG) (AG) (AG) (AG) (AG) (AG) (AG) (AG) (AG)
                 (AG) (AG) (AG) (AG) (AG) (AG) (AG) (AG) (AG) (AG)
                 (AG) (AG) (AG) (AG) (AG) (AG) (AG) (AG) (AG) (AG)
                 (AG) (AG) (AG) (AG) (AG) (AG) (AG) (AG) (AG) (AG)
                 (AG) (AG) (AG) (AG) (AG) (AG) (AG) (AG) (AG) (AG)
                 (AG) (AG) (AG) (AG) (AG) (AG) (AG) (AG) (AG) (AG)
                 (AG) (AG) (AG) (AG) (AG) (AG) (AG) (AG) (AG) (AG)
                 (AG) (AG) (AG) (AG) (AG) (AG) (AG) (AG) (AG) (AG)
                 (AG) (AG) (AG) (AG) (AG) (AG) (AG) (AG) (AG) (AG)
                 (AG) (AG) (AG) (AG) (AG) (AG) (AG) (AG) (AG) (AG)
                 (AG) (AG) (AG) (AG) (AG) (AG) (AG) (AG) (AG) (AG)
                 (AG) (AG) (AG) (AG) (AG) (AG) (AG) (AG) (AG) (AG)
                 (AG) (AG) (AG) (AG) (AG) (AG) (AG) (AG) (AG) (AG)
                 (AG) (AG) (AG) (AG) (AG) (AG) (AG) (AG) (AG) (AG)
                 (AG) (AG) (AG) (AG) (AG) (AG) (AG) (AG) (AG) (AG)
                 (AG) (AG) (AG) (AG) (AG) (AG) (AG) (AG) (AG) (AG)
                 (AG) (AG) (AG) (AG) (AG) (AG) (AG) (AG) (AG) (AG)
                 (AG) (AG) (AG) (AG) (AG) (AG) (AG) (AG) (AG) (AG)
                 (AG) (AG) (AG) (AG) (AG) (AG) (AG) (AG) (AG) (AG)
                 (AG) (BG) (BG) (BG) (BG) (BG) (BG) (BG) (BG) (BG)
                 (BG) (BG) (BG) (BG) (BG) (BG) (BG) (BG) (BG) (BG)
                 (BG) (BG) (BG) (BG) (BG) (BG) (BG) (BG) (BG) (BG)
                 (BG) (BG) (BG) (BG) (BG) (BG) (BG) (BG) (BG) (BG)
                 (BG) (BG) (BG) (BG) (BG) (BG) (BG) (BG) (BG) (BG)
                 (BG) (BG) (BG) (BG) (BG) (BG) (BG) (BG) (BG) (BG)
                 (BG) (BG) (BG) (BG) (BG) (BG) (BG) (BG) (BG) (BG)
                 (BG) (BG) (BG) (BG) (BG) (BG) (BG) (BG) (BG) (BG)
                 (BG) (BG) (BG) (BG) (BG) (BG) (BG) (BG) (BG) (BG)
                 (BG) (BG) (BG) (BG) (BG) (BG) (BG) (BG) (BG) (BG)
                 (BG) (BG) (BG) (BG) (BG) (BG) (BG) (BG) (BG) (BG)
                 (BG) (BG) (BG) (BG) (BG) (BG) (BG) (BG) (BG) (BG)
                 (BG) (BG) (BG) (BG) (BG) (BG) (BG) (BG) (BG) (BG)
                 (BG) (BG) (BG) (BG) (BG) (BG) (BG) (BG) (BG) (BG)
                 (BG) (BG) (BG) (BG) (BG) (BG) (BG) (BG) (BG) (BG)
                 (BG) (BG) (BG) (BG) (BG) (BG) (BG) (BG) (BG) (BG)
                 (BG) (BG) (BG) (BG) (BG) (BG) (BG) (BG) (BG) (BG)
                 (BG) (BG) (BG) (BG) (BG) (BG) (BG) (BG) (BG) (BG)
                 (BG) (BG) (BG) (BG) (BG) (BG) (BG) (BG) (BG) (BG)
                 (BG) (BG) (BG) (BG) (BG) (BG) (BG) (BG) (BG) (BG)
                 (BG) (BG) (BG) (BG) (BG) (BG) (BG) (BG) (BG) (BG)
                 (BG) (AU) (AU) (AU) (AU) (AU) (AU) (AU) (AU) (AU)
                 (AU) (AU) (AU) (AU) (AU) (AU) (AU) (AU) (AU) (AU)
                 (AU) (AU) (AU) (AU) (AU) (AU) (AU) (AU) (AU) (AU)
                 (AU) (AU) (AU) (AU) (AU) (AU) (AU) (AU) (AU) (AU)
                 (AU) (AU) (AU) (AU) (AU) (AU) (AU) (AU) (AU) (AU)
                 (AU) (AU) (AU) (AU) (AU) (AU) (AU) (AU) (AU) (AU)
                 (AU) (AU) (AU) (AU) (AU) (AU) (AU) (AU) (AU) (AU)
                 (AU) (AU) (AU) (AU) (AU) (AU) (AU) (AU) (AU) (AU)
                 (AU) (AU) (AU) (AU) (AU) (AU) (AU) (AU) (AU) (AU)
                 (AU) (AU) (AU) (AU) (AU) (AU) (AU) (AU) (AU) (AU)
                 (AU) (AU) (AU) (AU) (AU) (AU) (AU) (AU) (AU) (AU)
                 (AU) (AU) (AU) (AU) (AU) (AU) (AU) (AU) (AU) (AU)
                 (AU) (AU) (AU) (AU) (AU) (AU) (AU) (AU) (AU) (AU)
                 (AU) (AU) (AU) (AU) (AU) (AU) (AU) (AU) (AU) (AU)
                 (AU) (AU) (AU) (AU) (AU) (AU) (AU) (AU) (AU) (AU)
                 (AU) (AU) (AU) (AU) (AU) (AU) (AU) (AU) (AU) (AU)
                 (AU) (AU) (AU) (AU) (AU) (AU) (AU) (AU) (AU) (AU)
                 (AU) (AU) (AU) (AU) (AU) (AU) (AU) (AU) (AU) (AU)
                 (AU) (AU) (AU) (AU) (AU) (AU) (AU) (AU) (AU) (AU)
                 (AU) (AU) (AU) (AU) (AU) (AU) (AU) (AU) (AU) (AU)
                 (AU) (AU) (AU) (AU) (AU) (AU) (AU) (AU) (AU) (AU)
                 (AU) (BU) (BU) (BU) (BU) (BU) (BU) (BU) (BU) (BU)
                 (BU) (BU) (BU) (BU) (BU) (BU) (BU) (BU) (BU) (BU)
                 (BU) (BU) (BU) (BU) (BU) (BU) (BU) (BU) (BU) (BU)
                 (BU) (BU) (BU) (BU) (BU) (BU) (BU) (BU) (BU) (BU)
                 (BU) (BU) (BU) (BU) (BU) (BU) (BU) (BU) (BU) (BU)
                 (BU) (BU) (BU) (BU) (BU) (BU) (BU) (BU) (BU) (BU)
                 (BU) (BU) (BU) (BU) (BU) (BU) (BU) (BU) (BU) (BU)
                 (BU) (BU) (BU) (BU) (BU) (BU) (BU) (BU) (BU) (BU)
                 (BU) (BU) (BU) (BU) (BU) (BU) (BU) (BU) (BU) (BU)
                 (BU) (BU) (BU) (BU) (BU) (BU) (BU) (BU) (BU) (BU)
                 (BU) (BU) (BU) (BU) (BU) (BU) (BU) (BU) (BU) (BU)
                 (BU) (BU) (BU) (BU) (BU) (BU) (BU) (BU) (BU) (BU)
                 (BU) (BU) (BU) (BU) (BU) (BU) (BU) (BU) (BU) (BU)
                 (BU) (BU) (BU) (BU) (BU) (BU) (BU) (BU) (BU) (BU)
                 (BU) (BU) (BU) (BU) (BU) (BU) (BU) (BU) (BU) (BU)
                 (BU) (BU) (BU) (BU) (BU) (BU) (BU) (BU) (BU) (BU)
                 (BU) (BU) (BU) (BU) (BU) (BU) (BU) (BU) (BU) (BU)
                 (BU) (BU) (BU) (BU) (BU) (BU) (BU) (BU) (BU) (BU)
                 (BU) (BU) (BU) (BU) (BU) (BU) (BU) (BU) (BU) (BU)
                 (BU) (BU) (BU) (BU) (BU) (BU) (BU) (BU) (BU) (BU)
                 (BU) (BU) (BU) (BU) (BU) (BU) (BU) (BU) (BU) (BU)
                 (BU) (BU) (BU) (BU) (BU) (BU) (BU) (BU) (BU) (BU)
                 (BU) (BU) (BU) (BU)
 Requested convergence on RMS density matrix=1.00D-08 within 128 cycles.
 Requested convergence on MAX density matrix=1.00D-06.
 Requested convergence on             energy=1.00D-06.
 No special actions if energy rises.
 SCF Done:  E(RLC-B+HF-LYP) =  -6885.16816807     A.U. after   14 cycles
            NFock= 14  Conv=0.80D-08     -V/T= 2.0025
 ExpMin= 4.78D-02 ExpMax= 4.06D+05 ExpMxC= 3.92D+03 IAcc=3 IRadAn=         5 AccDes= 0.00D+00
 HarFok:  IExCor=  205 AccDes= 0.00D+00 IRadAn=         5 IDoV=-2 UseB2=F ITyADJ=14
 ICtDFT= 12500011 ScaDFX=  1.000000  1.000000  1.000000  1.000000
 Range of M.O.s used for correlation:    99  2208
 NBasis=  2208 NAE=   294 NBE=   294 NFC=    98 NFV=     0
 NROrb=   2110 NOA=   196 NOB=   196 NVA=  1914 NVB=  1914

 **** Warning!!: The largest alpha MO coefficient is  0.37758392D+02

 Would need an additional       7426252400000 words for in-memory AO integral storage.
 Orbital symmetries:
       Occupied  (AG) (BU) (AG) (BU) (BU) (AG) (AG) (BU) (BG) (AU)
                 (AU) (BG) (BU) (AG) (BG) (AU) (AG) (BU) (AU) (BG)
                 (AG) (BU) (BU) (AG) (BU) (AG) (AU) (BG) (AG) (BU)
                 (BG) (AU) (BU) (AG) (BG) (AU) (BU) (AG) (BG) (AU)
                 (BU) (AG) (BG) (AU) (BU) (AG) (BG) (AU) (AG) (BU)
                 (AU) (BG) (AG) (BU) (AU) (BG) (AG) (BU) (BG) (AU)
                 (BU) (AG) (BG) (AU) (BU) (AG) (BG) (AU) (BU) (AG)
                 (BG) (AU) (BU) (AG) (BG) (AU) (AG) (BU) (AU) (BG)
                 (AG) (BU) (BG) (AU) (BU) (AG) (AU) (BG) (AG) (BU)
                 (AG) (BU) (BU) (AG) (AG) (BU) (BG) (AU) (AG) (BU)
                 (AU) (BG) (AG) (BU) (AU) (BG) (AG) (BU) (AU) (BG)
                 (AG) (BU) (AG) (BU) (AU) (AG) (BG) (BU) (AU) (BG)
                 (AG) (BU) (AU) (BG) (AG) (BU) (AU) (BG) (AG) (BU)
                 (AG) (BU) (AU) (BG) (AU) (BG) (AG) (BU) (AU) (BG)
                 (AU) (AG) (BG) (BU) (AU) (BG) (AG) (BU) (AG) (AU)
                 (BU) (BG) (AG) (BU) (AU) (BG) (AG) (AU) (BU) (BG)
                 (AG) (BU) (AU) (BG) (AG) (BU) (AU) (AG) (BG) (BU)
                 (AU) (BG) (AU) (AG) (BG) (BU) (AU) (BG) (AG) (BU)
                 (AG) (BU) (AU) (BG) (AG) (BU) (AU) (BG) (AG) (BU)
                 (AG) (AU) (BU) (BG) (AU) (AG) (BG) (BU) (AG) (BU)
                 (AU) (BG) (AU) (BG) (AG) (BU) (AU) (BG) (AG) (BU)
                 (AG) (BU) (AU) (AG) (BU) (BG) (AG) (BU) (AU) (BG)
                 (AU) (BG) (AG) (AU) (BG) (BU) (AU) (BG) (AG) (BU)
                 (AG) (BU) (AG) (AU) (BU) (AG) (BU) (BG) (AG) (BU)
                 (AU) (AG) (BU) (BG) (AU) (BG) (AU) (BG) (AG) (AU)
                 (BU) (BG) (AG) (BU) (AU) (AG) (BG) (BU) (AU) (BG)
                 (AG) (AU) (BG) (BU) (AG) (BU) (AU) (BG) (AG) (BU)
                 (AU) (BG) (AG) (BU) (AG) (BU) (AG) (BU) (AU) (AG)
                 (BU) (BG) (AU) (BG) (AG) (AU) (BG) (BU) (AU) (BG)
                 (AG) (BU) (AU) (BG)
       Virtual   (AG) (AU) (BG) (BU) (AG) (BU) (AG) (AU) (BU) (BG)
                 (AU) (AG) (BU) (BG) (AG) (BU) (AG) (BU) (AU) (BG)
                 (AG) (AU) (BU) (BG) (AG) (AU) (BG) (BU) (AG) (BU)
                 (AU) (AG) (AG) (AU) (BG) (BG) (BU) (AU) (BG) (BU)
                 (AG) (BU) (AU) (AG) (BU) (BG) (AG) (BU) (AU) (BG)
                 (AG) (AU) (BG) (BU) (AG) (BU) (AG) (AU) (BG) (BU)
                 (AG) (BU) (AU) (AG) (BG) (BU) (AU) (AG) (BU) (AG)
                 (BG) (BU) (AU) (BG) (AU) (BU) (AG) (BG) (AU) (BU)
                 (AG) (BG) (AG) (AU) (BG) (BU) (BG) (AG) (BU) (AU)
                 (AG) (BG) (BU) (AU) (AG) (BU) (AU) (BG) (BG) (AU)
                 (AG) (AU) (AG) (BG) (BU) (AU) (BU) (BG) (AG) (AG)
                 (BU) (AU) (BU) (BG) (AG) (AU) (AG) (BU) (BG) (BU)
                 (AU) (BU) (AG) (BG) (BU) (AG) (BG) (AU) (BU) (AG)
                 (AU) (BU) (AG) (BG) (AU) (AG) (BU) (BG) (AG) (AU)
                 (BG) (BU) (AG) (AG) (BU) (BU) (AU) (AG) (BU) (BG)
                 (BG) (AU) (AU) (AG) (BG) (BU) (BG) (AU) (AU) (AG)
                 (BG) (AU) (BU) (AG) (BG) (BU) (AG) (BU) (AU) (BG)
                 (AU) (AG) (BG) (AU) (BU) (AG) (BG) (BU) (AG) (AG)
                 (AU) (BU) (BG) (BU) (BG) (AU) (AU) (BU) (BG) (AG)
                 (AG) (BU) (BU) (AU) (AG) (AG) (BG) (BU) (BG) (AU)
                 (BU) (AG) (AU) (AG) (AU) (AG) (BU) (BG) (BU) (BG)
                 (AU) (AG) (BG) (BU) (BU) (AU) (AG) (BG) (AG) (AU)
                 (AU) (BU) (BG) (AG) (AG) (BU) (BU) (AG) (BG) (BU)
                 (AU) (AG) (BG) (BU) (AG) (AU) (BG) (AU) (BG) (BU)
                 (AG) (AU) (BG) (BG) (AU) (BU) (AG) (BG) (BU) (AG)
                 (AU) (AU) (BU) (AG) (BU) (BG) (AU) (AU) (BG) (AG)
                 (BU) (AG) (BG) (AU) (BG) (BU) (AG) (AU) (BG) (BU)
                 (BU) (AG) (AU) (BU) (AG) (AG) (BG) (AU) (BG) (BU)
                 (AG) (BU) (BG) (AU) (AU) (AU) (BG) (AG) (BU) (BG)
                 (AU) (AU) (BU) (AG) (BG) (BU) (AG) (AG) (BG) (AG)
                 (BU) (BU) (BG) (AG) (AU) (BU) (AU) (BU) (AG) (BG)
                 (BG) (AU) (AG) (BG) (BU) (AU) (AG) (BU) (AG) (BU)
                 (AU) (BG) (BU) (AG) (AG) (BU) (AU) (AG) (BU) (BG)
                 (BG) (BU) (AG) (AU) (AG) (AU) (BU) (BG) (BU) (AG)
                 (AG) (AU) (BG) (AU) (BG) (BU) (BU) (AG) (BG) (AG)
                 (AU) (AU) (BG) (BU) (AU) (BG) (AG) (BU) (AU) (BG)
                 (BU) (AG) (AU) (BG) (AG) (BU) (AU) (BG) (AG) (BU)
                 (BU) (AG) (AU) (AG) (BG) (BU) (AU) (BG) (AU) (BU)
                 (AG) (BG) (AU) (AU) (AU) (AG) (BG) (BU) (BU) (BG)
                 (BG) (AU) (BG) (AG) (AU) (BU) (AG) (BG) (AU) (BG)
                 (AU) (AG) (BU) (BG) (AU) (AG) (AG) (AU) (BG) (BU)
                 (BU) (BG) (BU) (AG) (AU) (AG) (BU) (BG) (AG) (BU)
                 (AG) (AU) (BG) (BU) (AU) (AG) (BU) (BG) (AU) (BG)
                 (AG) (BU) (AG) (BU) (AU) (BG) (AU) (BG) (AU) (AG)
                 (BU) (BU) (AU) (AG) (BG) (BG) (AU) (BG) (AG) (BU)
                 (AU) (AG) (BU) (AU) (BG) (AG) (BG) (AG) (AU) (BU)
                 (BU) (BG) (AG) (AU) (BU) (AG) (AU) (BG) (BG) (BU)
                 (AG) (AU) (BG) (BU) (AU) (BG) (AG) (BU) (AG) (BU)
                 (AU) (BU) (AG) (BG) (AU) (BG) (AG) (BU) (AU) (AG)
                 (BU) (BG) (AG) (BG) (AU) (AU) (BG) (BU) (AG) (AU)
                 (BG) (BU) (AG) (BU) (AU) (AG) (BG) (BU) (BU) (AU)
                 (AG) (BG) (AU) (BU) (BG) (AG) (AG) (AU) (BU) (BG)
                 (AU) (BU) (AG) (AG) (BG) (BU) (AG) (BU) (AU) (AG)
                 (BU) (BG) (AG) (BU) (AG) (BU) (AU) (AG) (BG) (BU)
                 (AU) (AU) (BG) (BG) (AU) (AG) (AU) (BG) (BU) (BG)
                 (AU) (BG) (AU) (BU) (AG) (AG) (BU) (BG) (AG) (AU)
                 (AG) (BU) (BG) (BU) (AG) (AU) (BG) (BU) (AG) (BG)
                 (AU) (BG) (AU) (AU) (BU) (BG) (AG) (BG) (AU) (BU)
                 (AG) (AU) (BG) (BU) (AG) (BU) (AU) (BG) (AG) (AU)
                 (BU) (BG) (AG) (AU) (BU) (BG) (AG) (AU) (AG) (BU)
                 (BG) (BU) (AG) (AU) (BG) (BU) (BG) (AU) (AG) (BU)
                 (AU) (BU) (AG) (BG) (BG) (AG) (BU) (AU) (BG) (AU)
                 (AU) (AG) (BU) (BG) (AG) (BU) (AU) (AG) (BU) (BG)
                 (AU) (BG) (AG) (BU) (AU) (AG) (BU) (AG) (BG) (BU)
                 (AU) (BG) (AU) (BG) (AU) (AG) (BG) (AU) (AG) (BU)
                 (AG) (BU) (BG) (BU) (AG) (AU) (BU) (AG) (BG) (AU)
                 (AG) (BU) (BU) (BG) (AG) (BU) (AG) (BU) (AU) (AU)
                 (AG) (BG) (AU) (BU) (BG) (AG) (BU) (BG) (AU) (AG)
                 (BU) (BG) (BG) (AG) (AU) (BU) (BG) (AU) (AG) (AU)
                 (BG) (BU) (AG) (AU) (BG) (BU) (BU) (AG) (AG) (BU)
                 (AG) (AU) (BG) (BU) (AG) (AU) (BG) (BU) (AU) (BG)
                 (AU) (AG) (BU) (BG) (AU) (BG) (AU) (AG) (BG) (AU)
                 (AG) (BG) (BU) (AU) (BU) (AG) (BG) (AG) (AU) (BU)
                 (BG) (AU) (BU) (AG) (AU) (BU) (BG) (AU) (BG) (AG)
                 (BG) (BU) (AU) (BG) (AU) (AG) (BU) (BG) (AG) (AU)
                 (BG) (BU) (AG) (BU) (AG) (BU) (AU) (BG) (BU) (AG)
                 (BU) (BG) (AU) (AG) (AG) (BU) (BU) (AU) (AG) (BU)
                 (AG) (BG) (AU) (BG) (AU) (AG) (BU) (AG) (BG) (BU)
                 (AG) (AU) (BG) (BU) (AU) (BG) (AG) (BU) (AG) (AU)
                 (BG) (BU) (AU) (AG) (BG) (AG) (AU) (BG) (AU) (BU)
                 (BG) (AU) (BG) (BU) (BG) (AU) (BG) (AU) (AU) (AG)
                 (BU) (BG) (BU) (AG) (AU) (AG) (BG) (BU) (BU) (AG)
                 (AG) (BU) (AU) (BG) (AU) (BU) (AU) (BG) (AG) (BU)
                 (AG) (BG) (BG) (AU) (AU) (BG) (AG) (BU) (AU) (AG)
                 (BU) (AG) (BG) (BG) (AU) (BU) (AU) (BU) (AG) (BG)
                 (BG) (AU) (AU) (BG) (AG) (BU) (BU) (AU) (AG) (BG)
                 (AG) (AU) (BG) (BU) (AG) (BU) (BU) (AG) (BG) (AG)
                 (BU) (AU) (AU) (AG) (BU) (BG) (BU) (BG) (AG) (AU)
                 (BU) (AG) (BU) (AG) (BG) (BG) (AU) (BU) (BG) (AU)
                 (AG) (BU) (AG) (AU) (BU) (AG) (BG) (BU) (AU) (AG)
                 (BU) (AG) (BG) (AU) (BU) (AG) (AG) (BU) (AU) (BG)
                 (BG) (AU) (AG) (BU) (AU) (BG) (AU) (BG) (AU) (BG)
                 (AU) (BG) (AG) (AU) (BU) (BG) (AU) (BU) (AG) (BG)
                 (BG) (AU) (BU) (AG) (AU) (BG) (AG) (BU) (AG) (BU)
                 (AG) (BU) (AG) (AU) (BG) (BU) (AU) (AG) (BU) (BG)
                 (BG) (BU) (AG) (AU) (AU) (BG) (AG) (AU) (BG) (BU)
                 (AG) (BU) (BU) (AG) (AU) (BU) (BG) (AG) (AU) (BG)
                 (AG) (BU) (AU) (BG) (AG) (AU) (BG) (BU) (AU) (AG)
                 (BU) (BG) (BU) (AG) (AU) (BG) (AG) (BU) (BG) (AG)
                 (BU) (AU) (AU) (AG) (BG) (BU) (BG) (AU) (AU) (BG)
                 (AG) (AU) (BU) (BG) (BU) (BG) (AG) (AU) (AG) (AG)
                 (BU) (AG) (BU) (BU) (AG) (AU) (BG) (BU) (BU) (AU)
                 (AG) (BG) (AU) (AG) (BU) (BG) (AU) (BG) (AU) (BG)
                 (BU) (AG) (AG) (AU) (BG) (BU) (AG) (AU) (BG) (AU)
                 (BU) (BG) (AG) (BU) (AU) (BG) (BG) (AU) (AG) (BU)
                 (AG) (BU) (BU) (AU) (BG) (AG) (BU) (AG) (AU) (AG)
                 (BU) (BG) (AG) (BU) (AU) (AG) (BG) (BG) (AU) (AU)
                 (BU) (BG) (AU) (AG) (BU) (BG) (AU) (BG) (AU) (BG)
                 (AU) (BG) (AU) (AG) (BG) (BU) (AU) (AG) (BU) (BG)
                 (AG) (BU) (AG) (AU) (BU) (BG) (AG) (BU) (AU) (BG)
                 (AG) (AG) (BU) (AU) (BG) (BU) (AU) (BG) (AG) (BU)
                 (AG) (AU) (BG) (BU) (AU) (BG) (AU) (AG) (BU) (BG)
                 (AG) (BU) (AG) (BU) (AG) (AU) (BU) (BG) (AG) (AU)
                 (BG) (BU) (AU) (BG) (AG) (BU) (AU) (BG) (AU) (AG)
                 (BU) (BG) (AG) (BU) (AU) (AG) (AG) (BU) (BU) (BG)
                 (AU) (BG) (AG) (BU) (AG) (AU) (BG) (BU) (AG) (BU)
                 (AU) (BG) (AG) (BG) (AU) (BU) (BG) (AU) (BU) (AG)
                 (BG) (AU) (BG) (AU) (AG) (BU) (AU) (AG) (BG) (BU)
                 (AU) (AG) (BG) (BU) (AG) (BU) (AU) (BG) (AG) (BU)
                 (AU) (BG) (AG) (AU) (AG) (BG) (BU) (BU) (AU) (AG)
                 (BG) (AU) (BU) (BG) (AG) (BU) (AU) (BG) (AG) (BU)
                 (AG) (BG) (AU) (BU) (BU) (AG) (AU) (BG) (AU) (AG)
                 (BU) (BG) (AG) (BU) (AU) (BG) (AG) (BG) (AU) (BU)
                 (BU) (AG) (AU) (BG) (AU) (AG) (BG) (BU) (AG) (AG)
                 (BU) (BU) (AG) (AU) (BG) (BU) (BG) (AU) (AU) (AG)
                 (AG) (BU) (BG) (BU) (AU) (BG) (BU) (BG) (AU) (AG)
                 (AU) (BG) (BU) (AG) (AU) (BG) (AG) (BG) (BU) (AU)
                 (AG) (BU) (BU) (AG) (AG) (AU) (BU) (AU) (AG) (BG)
                 (BG) (BU) (AG) (BU) (AU) (BG) (AU) (BG) (AG) (BU)
                 (AU) (AG) (BU) (BG) (AG) (BU) (AU) (BG) (AG) (AU)
                 (BG) (BU) (AG) (BU) (AU) (BG) (AU) (BG) (AU) (BG)
                 (BU) (AG) (AU) (BU) (BG) (AG) (BU) (BG) (AU) (AG)
                 (AG) (BU) (AG) (AU) (BG) (BU) (BG) (AU) (AG) (BU)
                 (AU) (BG) (BU) (AG) (AG) (BU) (AG) (AU) (BG) (BU)
                 (AU) (BU) (AG) (BG) (AG) (BG) (AU) (BU) (AG) (AU)
                 (BG) (BU) (AG) (BU) (AU) (AG) (AU) (BG) (BU) (BG)
                 (AU) (AG) (BU) (AU) (BG) (BG) (BG) (AU) (AG) (BU)
                 (AU) (AG) (BU) (BG) (AG) (BU) (AG) (AU) (BU) (BG)
                 (AG) (BU) (AG) (BU) (AU) (AG) (BG) (AU) (BU) (BG)
                 (AU) (BG) (AU) (BG) (AG) (BU) (AU) (BG) (AG) (AU)
                 (BU) (BG) (AG) (AU) (BG) (BU) (AU) (AG) (BG) (BU)
                 (AG) (AU) (BU) (AU) (AG) (BG) (BG) (BU) (AG) (BU)
                 (BU) (AU) (BG) (AG) (AG) (BU) (AU) (BG) (AU) (AG)
                 (BU) (BG) (AG) (AU) (BU) (BG) (AU) (BG) (AG) (BU)
                 (BU) (AG) (AU) (BU) (AG) (BG) (BG) (AU) (AU) (AG)
                 (BU) (BG) (AU) (BG) (AU) (AG) (AG) (BU) (BU) (BG)
                 (AG) (BU) (AU) (AG) (BG) (BU) (AU) (AG) (AU) (BG)
                 (BG) (BU) (AG) (BU) (AU) (BG) (AG) (AU) (AU) (BG)
                 (BG) (BU) (AG) (AG) (BU) (BG) (AU) (BU) (AU) (AG)
                 (AG) (BU) (AU) (BU) (BG) (BG) (BU) (AG) (BG) (AU)
                 (AU) (BU) (AG) (BG) (AU) (BG) (AU) (BG) (AG) (AU)
                 (BG) (BU) (AG) (BU) (BU) (AG) (BG) (AG) (AU) (BU)
                 (AU) (BG) (AU) (AG) (BU) (BG) (AG) (BU) (AG) (BU)
                 (AG) (BU) (AG) (AU) (BG) (BU) (AU) (AG) (BU) (BG)
                 (BU) (AU) (BG) (AG) (AU) (BG) (BU) (AG) (BU) (AG)
                 (AU) (BG) (BG) (AU) (AG) (BU) (AU) (BU) (AG) (BG)
                 (AU) (BG) (AG) (BU) (BG) (BU) (AG) (AU) (BG) (AU)
                 (AG) (AU) (BU) (BG) (AG) (BU) (AU) (BG) (AU) (AG)
                 (BU) (BG) (AU) (BG) (BG) (BU) (AG) (AU) (BU) (AG)
                 (AU) (BG) (AU) (BG) (AU) (BU) (AG) (BG) (BG) (AU)
                 (AU) (BU) (AG) (BG) (BU) (AG) (BG) (AU) (AG) (BU)
                 (BG) (AG) (AU) (BU) (AU) (AG) (BU) (BG) (BU) (AG)
                 (AU) (BG) (AG) (BU) (BG) (AU) (BU) (AG) (BU) (BG)
                 (AU) (AG) (BG) (BU) (AG) (AU) (BG) (AU) (BG) (AU)
                 (AU) (AG) (BG) (AU) (BU) (AG) (BG) (BU) (BU) (AG)
                 (AG) (BU) (AU) (AG) (BU) (BG) (AG) (AU) (BU) (BG)
                 (AU) (BG) (AU) (AG) (BU) (BG) (AG) (BU) (AU) (BG)
                 (AG) (BU) (BG) (AU) (AG) (AU) (BG) (BU) (AG) (BU)
                 (AU) (BG) (AU) (AG) (BU) (BG) (BG) (AU) (AG) (BG)
                 (AU) (BU) (AG) (BU) (AU) (BG) (BU) (AG) (AG) (BG)
                 (AU) (BU) (AG) (BU) (AU) (BG) (AU) (AG) (BU) (BG)
                 (AU) (BG) (AG) (BU) (AU) (AG) (BU) (BG) (AU) (BG)
                 (BU) (AG) (AU) (BG) (AG) (BG) (BU) (AU) (BU) (AG)
                 (AG) (BU) (AU) (BG) (AU) (AG) (BG) (BU) (AG) (AU)
                 (BG) (BU) (AG) (BU) (AG) (BU) (AU) (BG) (AU) (AG)
                 (BG) (BU) (AG) (AU) (BU) (BG) (AG) (BU) (AU) (BG)
                 (AG) (BU) (AU) (BG) (AG) (BU) (AG) (BG) (AU) (BU)
                 (AG) (BU) (AG) (BU) (AG) (BG) (AU) (BU) (AG) (AU)
                 (BG) (BU) (AU) (BG) (BG) (AU) (BU) (AU) (BG) (AG)
                 (BG) (AU) (AG) (AU) (BG) (BU) (AG) (BU) (AU) (AG)
                 (BU) (BG) (AU) (BG) (AU) (BG) (AG) (BU) (BG) (AG)
                 (AU) (BU) (AG) (BU) (BU) (AG) (AG) (BU) (AU) (BG)
                 (AG) (BU) (AG) (BU) (AU) (BG) (BU) (AU) (BG) (AG)
                 (AU) (BU) (AG) (BG) (AG) (BU) (AG) (BG) (AU) (BU)
                 (BG) (AU) (BU) (AG) (BU) (AU) (AG) (BG) (BG) (AU)
                 (BU) (AG) (BG) (AG) (BU) (AU) (BU) (AG) (BU) (AU)
                 (BG) (BG) (AU) (AG) (BG) (AU) (AG) (AU) (BU) (BG)
                 (AG) (BU) (AU) (BG) (AG) (BU) (BG) (AG) (BU) (AU)
                 (BU) (AG) (AU) (BG) (AG) (AU) (BG) (BU) (AU) (BG)
                 (BU) (AG) (BU) (AU) (AG) (BG) (AU) (BG) (BU) (AU)
                 (AG) (BG) (BU) (AG) (BG) (AU) (AG) (BG) (AU) (BU)
                 (AG) (BU) (AG) (BU)
    16 initial guesses have been made.
 Convergence on wavefunction:    0.001000000000000
 Iteration     1 Dimension    16 NMult     0 NNew     16
 CISAX will form    16 AO SS matrices at one time.
 New state      1 was old state      2
 New state      2 was old state      1
 Iteration     2 Dimension    24 NMult    16 NNew      8
 New state      1 was old state      2
 New state      2 was old state      1
 New state      3 was old state      4
 New state      4 was old state      3
 Iteration     3 Dimension    32 NMult    24 NNew      8
 Iteration     4 Dimension    40 NMult    32 NNew      8
 Iteration     5 Dimension    48 NMult    40 NNew      8
 Iteration     6 Dimension    56 NMult    48 NNew      8
 Iteration     7 Dimension    64 NMult    56 NNew      8
 ***********************************************************************
 Excited states from <AA,BB:AA,BB> singles matrix:
 ***********************************************************************
 
 Ground to excited state transition densities written to RWF  633
 Ground to excited state transition electric dipole moments (Au):
       state          X           Y           Z        Dip. S.      Osc.
         1        -0.0000     -0.0000      0.0000      0.0000      0.0000
         2         0.0557      4.8470     -0.0000     23.4962      1.0477
         3        -0.0000      0.0000     -0.0000      0.0000      0.0000
         4        -0.0000     -0.0000     -4.3778     19.1647      0.8740
 Ground to excited state transition velocity dipole moments (Au):
       state          X           Y           Z        Dip. S.      Osc.
         1         0.0000      0.0000     -0.0000      0.0000      0.0000
         2        -0.0036     -0.3253      0.0000      0.1059      1.0551
         3         0.0000     -0.0000      0.0000      0.0000      0.0000
         4        -0.0000      0.0000      0.3008      0.0905      0.8816
 Ground to excited state transition magnetic dipole moments (Au):
       state          X           Y           Z
         1         4.2954     -1.2368      0.0000
         2         0.0000     -0.0000      0.0000
         3         0.0000     -0.0000     -1.1502
         4        -0.0000      0.0000     -0.0000
 Ground to excited state transition velocity quadrupole moments (Au):
       state          XX          YY          ZZ          XY          XZ          YZ
         1        -0.0000      0.0000     -0.0000      0.0000      1.2030      4.1343
         2        -0.0000      0.0000     -0.0000      0.0000      0.0000      0.0000
         3         0.0229     -7.9515      0.0396     -1.1061      0.0000      0.0000
         4        -0.0000     -0.0000      0.0000     -0.0000     -0.0000     -0.0000
 <0|del|b> * <b|rxdel|0> + <0|del|b> * <b|delr+rdel|0>
 Rotatory Strengths (R) in cgs (10**-40 erg-esu-cm/Gauss)
       state          XX          YY          ZZ    R(velocity)    E-M Angle
         1        -0.0000      0.0000     -0.0000     -0.0000       90.00
         2         0.0000     -0.0000      0.0000      0.0000       90.00
         3        -0.0000     -0.0000      0.0000     -0.0000       90.00
         4        -0.0000      0.0000      0.0000     -0.0000       90.00
 1/2[<0|r|b>*<b|rxdel|0> + (<0|rxdel|b>*<b|r|0>)*]
 Rotatory Strengths (R) in cgs (10**-40 erg-esu-cm/Gauss)
       state          XX          YY          ZZ     R(length)
         1         0.0000     -0.0000     -0.0000     -0.0000
         2        -0.0000      0.0000      0.0000      0.0000
         3         0.0000      0.0000     -0.0000     -0.0000
         4        -0.0000      0.0000     -0.0000     -0.0000
  1/2[<0|del|b>*<b|r|0> + (<0|r|b>*<b|del|0>)*] (Au)
       state          X           Y           Z        Dip. S.   Osc.(frdel)
         1        -0.0000     -0.0000     -0.0000      0.0000      0.0000
         2        -0.0002     -1.5769     -0.0000      1.5771      1.0514
         3        -0.0000     -0.0000     -0.0000      0.0000      0.0000
         4         0.0000     -0.0000     -1.3167      1.3167      0.8778

 Excitation energies and oscillator strengths:
 
 Excited State   1:      Singlet-BG     1.8181 eV  681.94 nm  f=0.0000  <S**2>=0.000
     291 -> 297       -0.12141
     292 -> 296       -0.12140
     293 -> 298       -0.48251
     294 -> 295        0.48454
 This state for optimization and/or second-order correction.
 Total Energy, E(TD-HF/TD-KS) =  -6885.10135412    
 Copying the excited state density for this state as the 1-particle RhoCI density.
 
 Excited State   2:      Singlet-BU     1.8200 eV  681.24 nm  f=1.0477  <S**2>=0.000
     291 -> 298       -0.12114
     292 -> 295        0.12096
     293 -> 297        0.48295
     294 -> 296        0.48427
 
 Excited State   3:      Singlet-AG     1.8603 eV  666.48 nm  f=0.0000  <S**2>=0.000
     291 -> 295        0.12804
     292 -> 298       -0.12781
     293 -> 296        0.48145
     294 -> 297        0.48173
 
 Excited State   4:      Singlet-AU     1.8615 eV  666.06 nm  f=0.8740  <S**2>=0.000
     291 -> 296       -0.12769
     292 -> 297       -0.12754
     293 -> 295        0.48177
     294 -> 298       -0.48150
 SavETr:  write IOETrn=   770 NScale= 10 NData=  16 NLR=1 NState=    4 LETran=      82.
 Hyperfine terms turned off by default for NAtoms > 100.

 **********************************************************************

            Population analysis using the SCF density.

 **********************************************************************

 Orbital symmetries:
       Occupied  (AG) (BU) (AG) (BU) (BU) (AG) (AG) (BU) (BG) (AU)
                 (AU) (BG) (BU) (AG) (BG) (AU) (AG) (BU) (AU) (BG)
                 (AG) (BU) (BU) (AG) (BU) (AG) (AU) (BG) (AG) (BU)
                 (BG) (AU) (BU) (AG) (BG) (AU) (BU) (AG) (BG) (AU)
                 (BU) (AG) (BG) (AU) (BU) (AG) (BG) (AU) (AG) (BU)
                 (AU) (BG) (AG) (BU) (AU) (BG) (AG) (BU) (BG) (AU)
                 (BU) (AG) (BG) (AU) (BU) (AG) (BG) (AU) (BU) (AG)
                 (BG) (AU) (BU) (AG) (BG) (AU) (AG) (BU) (AU) (BG)
                 (AG) (BU) (BG) (AU) (BU) (AG) (AU) (BG) (AG) (BU)
                 (AG) (BU) (BU) (AG) (AG) (BU) (BG) (AU) (AG) (BU)
                 (AU) (BG) (AG) (BU) (AU) (BG) (AG) (BU) (AU) (BG)
                 (AG) (BU) (AG) (BU) (AU) (AG) (BG) (BU) (AU) (BG)
                 (AG) (BU) (AU) (BG) (AG) (BU) (AU) (BG) (AG) (BU)
                 (AG) (BU) (AU) (BG) (AU) (BG) (AG) (BU) (AU) (BG)
                 (AU) (AG) (BG) (BU) (AU) (BG) (AG) (BU) (AG) (AU)
                 (BU) (BG) (AG) (BU) (AU) (BG) (AG) (AU) (BU) (BG)
                 (AG) (BU) (AU) (BG) (AG) (BU) (AU) (AG) (BG) (BU)
                 (AU) (BG) (AU) (AG) (BG) (BU) (AU) (BG) (AG) (BU)
                 (AG) (BU) (AU) (BG) (AG) (BU) (AU) (BG) (AG) (BU)
                 (AG) (AU) (BU) (BG) (AU) (AG) (BG) (BU) (AG) (BU)
                 (AU) (BG) (AU) (BG) (AG) (BU) (AU) (BG) (AG) (BU)
                 (AG) (BU) (AU) (AG) (BU) (BG) (AG) (BU) (AU) (BG)
                 (AU) (BG) (AG) (AU) (BG) (BU) (AU) (BG) (AG) (BU)
                 (AG) (BU) (AG) (AU) (BU) (AG) (BU) (BG) (AG) (BU)
                 (AU) (AG) (BU) (BG) (AU) (BG) (AU) (BG) (AG) (AU)
                 (BU) (BG) (AG) (BU) (AU) (AG) (BG) (BU) (AU) (BG)
                 (AG) (AU) (BG) (BU) (AG) (BU) (AU) (BG) (AG) (BU)
                 (AU) (BG) (AG) (BU) (AG) (BU) (AG) (BU) (AU) (AG)
                 (BU) (BG) (AU) (BG) (AG) (AU) (BG) (BU) (AU) (BG)
                 (AG) (BU) (AU) (BG)
       Virtual   (AG) (AU) (BG) (BU) (AG) (BU) (AG) (AU) (BU) (BG)
                 (AU) (AG) (BU) (BG) (AG) (BU) (AG) (BU) (AU) (BG)
                 (AG) (AU) (BU) (BG) (AG) (AU) (BG) (BU) (AG) (BU)
                 (AU) (AG) (AG) (AU) (BG) (BG) (BU) (AU) (BG) (BU)
                 (AG) (BU) (AU) (AG) (BU) (BG) (AG) (BU) (AU) (BG)
                 (AG) (AU) (BG) (BU) (AG) (BU) (AG) (AU) (BG) (BU)
                 (AG) (BU) (AU) (AG) (BG) (BU) (AU) (AG) (BU) (AG)
                 (BG) (BU) (AU) (BG) (AU) (BU) (AG) (BG) (AU) (BU)
                 (AG) (BG) (AG) (AU) (BG) (BU) (BG) (AG) (BU) (AU)
                 (AG) (BG) (BU) (AU) (AG) (BU) (AU) (BG) (BG) (AU)
                 (AG) (AU) (AG) (BG) (BU) (AU) (BU) (BG) (AG) (AG)
                 (BU) (AU) (BU) (BG) (AG) (AU) (AG) (BU) (BG) (BU)
                 (AU) (BU) (AG) (BG) (BU) (AG) (BG) (AU) (BU) (AG)
                 (AU) (BU) (AG) (BG) (AU) (AG) (BU) (BG) (AG) (AU)
                 (BG) (BU) (AG) (AG) (BU) (BU) (AU) (AG) (BU) (BG)
                 (BG) (AU) (AU) (AG) (BG) (BU) (BG) (AU) (AU) (AG)
                 (BG) (AU) (BU) (AG) (BG) (BU) (AG) (BU) (AU) (BG)
                 (AU) (AG) (BG) (AU) (BU) (AG) (BG) (BU) (AG) (AG)
                 (AU) (BU) (BG) (BU) (BG) (AU) (AU) (BU) (BG) (AG)
                 (AG) (BU) (BU) (AU) (AG) (AG) (BG) (BU) (BG) (AU)
                 (BU) (AG) (AU) (AG) (AU) (AG) (BU) (BG) (BU) (BG)
                 (AU) (AG) (BG) (BU) (BU) (AU) (AG) (BG) (AG) (AU)
                 (AU) (BU) (BG) (AG) (AG) (BU) (BU) (AG) (BG) (BU)
                 (AU) (AG) (BG) (BU) (AG) (AU) (BG) (AU) (BG) (BU)
                 (AG) (AU) (BG) (BG) (AU) (BU) (AG) (BG) (BU) (AG)
                 (AU) (AU) (BU) (AG) (BU) (BG) (AU) (AU) (BG) (AG)
                 (BU) (AG) (BG) (AU) (BG) (BU) (AG) (AU) (BG) (BU)
                 (BU) (AG) (AU) (BU) (AG) (AG) (BG) (AU) (BG) (BU)
                 (AG) (BU) (BG) (AU) (AU) (AU) (BG) (AG) (BU) (BG)
                 (AU) (AU) (BU) (AG) (BG) (BU) (AG) (AG) (BG) (AG)
                 (BU) (BU) (BG) (AG) (AU) (BU) (AU) (BU) (AG) (BG)
                 (BG) (AU) (AG) (BG) (BU) (AU) (AG) (BU) (AG) (BU)
                 (AU) (BG) (BU) (AG) (AG) (BU) (AU) (AG) (BU) (BG)
                 (BG) (BU) (AG) (AU) (AG) (AU) (BU) (BG) (BU) (AG)
                 (AG) (AU) (BG) (AU) (BG) (BU) (BU) (AG) (BG) (AG)
                 (AU) (AU) (BG) (BU) (AU) (BG) (AG) (BU) (AU) (BG)
                 (BU) (AG) (AU) (BG) (AG) (BU) (AU) (BG) (AG) (BU)
                 (BU) (AG) (AU) (AG) (BG) (BU) (AU) (BG) (AU) (BU)
                 (AG) (BG) (AU) (AU) (AU) (AG) (BG) (BU) (BU) (BG)
                 (BG) (AU) (BG) (AG) (AU) (BU) (AG) (BG) (AU) (BG)
                 (AU) (AG) (BU) (BG) (AU) (AG) (AG) (AU) (BG) (BU)
                 (BU) (BG) (BU) (AG) (AU) (AG) (BU) (BG) (AG) (BU)
                 (AG) (AU) (BG) (BU) (AU) (AG) (BU) (BG) (AU) (BG)
                 (AG) (BU) (AG) (BU) (AU) (BG) (AU) (BG) (AU) (AG)
                 (BU) (BU) (AU) (AG) (BG) (BG) (AU) (BG) (AG) (BU)
                 (AU) (AG) (BU) (AU) (BG) (AG) (BG) (AG) (AU) (BU)
                 (BU) (BG) (AG) (AU) (BU) (AG) (AU) (BG) (BG) (BU)
                 (AG) (AU) (BG) (BU) (AU) (BG) (AG) (BU) (AG) (BU)
                 (AU) (BU) (AG) (BG) (AU) (BG) (AG) (BU) (AU) (AG)
                 (BU) (BG) (AG) (BG) (AU) (AU) (BG) (BU) (AG) (AU)
                 (BG) (BU) (AG) (BU) (AU) (AG) (BG) (BU) (BU) (AU)
                 (AG) (BG) (AU) (BU) (BG) (AG) (AG) (AU) (BU) (BG)
                 (AU) (BU) (AG) (AG) (BG) (BU) (AG) (BU) (AU) (AG)
                 (BU) (BG) (AG) (BU) (AG) (BU) (AU) (AG) (BG) (BU)
                 (AU) (AU) (BG) (BG) (AU) (AG) (AU) (BG) (BU) (BG)
                 (AU) (BG) (AU) (BU) (AG) (AG) (BU) (BG) (AG) (AU)
                 (AG) (BU) (BG) (BU) (AG) (AU) (BG) (BU) (AG) (BG)
                 (AU) (BG) (AU) (AU) (BU) (BG) (AG) (BG) (AU) (BU)
                 (AG) (AU) (BG) (BU) (AG) (BU) (AU) (BG) (AG) (AU)
                 (BU) (BG) (AG) (AU) (BU) (BG) (AG) (AU) (AG) (BU)
                 (BG) (BU) (AG) (AU) (BG) (BU) (BG) (AU) (AG) (BU)
                 (AU) (BU) (AG) (BG) (BG) (AG) (BU) (AU) (BG) (AU)
                 (AU) (AG) (BU) (BG) (AG) (BU) (AU) (AG) (BU) (BG)
                 (AU) (BG) (AG) (BU) (AU) (AG) (BU) (AG) (BG) (BU)
                 (AU) (BG) (AU) (BG) (AU) (AG) (BG) (AU) (AG) (BU)
                 (AG) (BU) (BG) (BU) (AG) (AU) (BU) (AG) (BG) (AU)
                 (AG) (BU) (BU) (BG) (AG) (BU) (AG) (BU) (AU) (AU)
                 (AG) (BG) (AU) (BU) (BG) (AG) (BU) (BG) (AU) (AG)
                 (BU) (BG) (BG) (AG) (AU) (BU) (BG) (AU) (AG) (AU)
                 (BG) (BU) (AG) (AU) (BG) (BU) (BU) (AG) (AG) (BU)
                 (AG) (AU) (BG) (BU) (AG) (AU) (BG) (BU) (AU) (BG)
                 (AU) (AG) (BU) (BG) (AU) (BG) (AU) (AG) (BG) (AU)
                 (AG) (BG) (BU) (AU) (BU) (AG) (BG) (AG) (AU) (BU)
                 (BG) (AU) (BU) (AG) (AU) (BU) (BG) (AU) (BG) (AG)
                 (BG) (BU) (AU) (BG) (AU) (AG) (BU) (BG) (AG) (AU)
                 (BG) (BU) (AG) (BU) (AG) (BU) (AU) (BG) (BU) (AG)
                 (BU) (BG) (AU) (AG) (AG) (BU) (BU) (AU) (AG) (BU)
                 (AG) (BG) (AU) (BG) (AU) (AG) (BU) (AG) (BG) (BU)
                 (AG) (AU) (BG) (BU) (AU) (BG) (AG) (BU) (AG) (AU)
                 (BG) (BU) (AU) (AG) (BG) (AG) (AU) (BG) (AU) (BU)
                 (BG) (AU) (BG) (BU) (BG) (AU) (BG) (AU) (AU) (AG)
                 (BU) (BG) (BU) (AG) (AU) (AG) (BG) (BU) (BU) (AG)
                 (AG) (BU) (AU) (BG) (AU) (BU) (AU) (BG) (AG) (BU)
                 (AG) (BG) (BG) (AU) (AU) (BG) (AG) (BU) (AU) (AG)
                 (BU) (AG) (BG) (BG) (AU) (BU) (AU) (BU) (AG) (BG)
                 (BG) (AU) (AU) (BG) (AG) (BU) (BU) (AU) (AG) (BG)
                 (AG) (AU) (BG) (BU) (AG) (BU) (BU) (AG) (BG) (AG)
                 (BU) (AU) (AU) (AG) (BU) (BG) (BU) (BG) (AG) (AU)
                 (BU) (AG) (BU) (AG) (BG) (BG) (AU) (BU) (BG) (AU)
                 (AG) (BU) (AG) (AU) (BU) (AG) (BG) (BU) (AU) (AG)
                 (BU) (AG) (BG) (AU) (BU) (AG) (AG) (BU) (AU) (BG)
                 (BG) (AU) (AG) (BU) (AU) (BG) (AU) (BG) (AU) (BG)
                 (AU) (BG) (AG) (AU) (BU) (BG) (AU) (BU) (AG) (BG)
                 (BG) (AU) (BU) (AG) (AU) (BG) (AG) (BU) (AG) (BU)
                 (AG) (BU) (AG) (AU) (BG) (BU) (AU) (AG) (BU) (BG)
                 (BG) (BU) (AG) (AU) (AU) (BG) (AG) (AU) (BG) (BU)
                 (AG) (BU) (BU) (AG) (AU) (BU) (BG) (AG) (AU) (BG)
                 (AG) (BU) (AU) (BG) (AG) (AU) (BG) (BU) (AU) (AG)
                 (BU) (BG) (BU) (AG) (AU) (BG) (AG) (BU) (BG) (AG)
                 (BU) (AU) (AU) (AG) (BG) (BU) (BG) (AU) (AU) (BG)
                 (AG) (AU) (BU) (BG) (BU) (BG) (AG) (AU) (AG) (AG)
                 (BU) (AG) (BU) (BU) (AG) (AU) (BG) (BU) (BU) (AU)
                 (AG) (BG) (AU) (AG) (BU) (BG) (AU) (BG) (AU) (BG)
                 (BU) (AG) (AG) (AU) (BG) (BU) (AG) (AU) (BG) (AU)
                 (BU) (BG) (AG) (BU) (AU) (BG) (BG) (AU) (AG) (BU)
                 (AG) (BU) (BU) (AU) (BG) (AG) (BU) (AG) (AU) (AG)
                 (BU) (BG) (AG) (BU) (AU) (AG) (BG) (BG) (AU) (AU)
                 (BU) (BG) (AU) (AG) (BU) (BG) (AU) (BG) (AU) (BG)
                 (AU) (BG) (AU) (AG) (BG) (BU) (AU) (AG) (BU) (BG)
                 (AG) (BU) (AG) (AU) (BU) (BG) (AG) (BU) (AU) (BG)
                 (AG) (AG) (BU) (AU) (BG) (BU) (AU) (BG) (AG) (BU)
                 (AG) (AU) (BG) (BU) (AU) (BG) (AU) (AG) (BU) (BG)
                 (AG) (BU) (AG) (BU) (AG) (AU) (BU) (BG) (AG) (AU)
                 (BG) (BU) (AU) (BG) (AG) (BU) (AU) (BG) (AU) (AG)
                 (BU) (BG) (AG) (BU) (AU) (AG) (AG) (BU) (BU) (BG)
                 (AU) (BG) (AG) (BU) (AG) (AU) (BG) (BU) (AG) (BU)
                 (AU) (BG) (AG) (BG) (AU) (BU) (BG) (AU) (BU) (AG)
                 (BG) (AU) (BG) (AU) (AG) (BU) (AU) (AG) (BG) (BU)
                 (AU) (AG) (BG) (BU) (AG) (BU) (AU) (BG) (AG) (BU)
                 (AU) (BG) (AG) (AU) (AG) (BG) (BU) (BU) (AU) (AG)
                 (BG) (AU) (BU) (BG) (AG) (BU) (AU) (BG) (AG) (BU)
                 (AG) (BG) (AU) (BU) (BU) (AG) (AU) (BG) (AU) (AG)
                 (BU) (BG) (AG) (BU) (AU) (BG) (AG) (BG) (AU) (BU)
                 (BU) (AG) (AU) (BG) (AU) (AG) (BG) (BU) (AG) (AG)
                 (BU) (BU) (AG) (AU) (BG) (BU) (BG) (AU) (AU) (AG)
                 (AG) (BU) (BG) (BU) (AU) (BG) (BU) (BG) (AU) (AG)
                 (AU) (BG) (BU) (AG) (AU) (BG) (AG) (BG) (BU) (AU)
                 (AG) (BU) (BU) (AG) (AG) (AU) (BU) (AU) (AG) (BG)
                 (BG) (BU) (AG) (BU) (AU) (BG) (AU) (BG) (AG) (BU)
                 (AU) (AG) (BU) (BG) (AG) (BU) (AU) (BG) (AG) (AU)
                 (BG) (BU) (AG) (BU) (AU) (BG) (AU) (BG) (AU) (BG)
                 (BU) (AG) (AU) (BU) (BG) (AG) (BU) (BG) (AU) (AG)
                 (AG) (BU) (AG) (AU) (BG) (BU) (BG) (AU) (AG) (BU)
                 (AU) (BG) (BU) (AG) (AG) (BU) (AG) (AU) (BG) (BU)
                 (AU) (BU) (AG) (BG) (AG) (BG) (AU) (BU) (AG) (AU)
                 (BG) (BU) (AG) (BU) (AU) (AG) (AU) (BG) (BU) (BG)
                 (AU) (AG) (BU) (AU) (BG) (BG) (BG) (AU) (AG) (BU)
                 (AU) (AG) (BU) (BG) (AG) (BU) (AG) (AU) (BU) (BG)
                 (AG) (BU) (AG) (BU) (AU) (AG) (BG) (AU) (BU) (BG)
                 (AU) (BG) (AU) (BG) (AG) (BU) (AU) (BG) (AG) (AU)
                 (BU) (BG) (AG) (AU) (BG) (BU) (AU) (AG) (BG) (BU)
                 (AG) (AU) (BU) (AU) (AG) (BG) (BG) (BU) (AG) (BU)
                 (BU) (AU) (BG) (AG) (AG) (BU) (AU) (BG) (AU) (AG)
                 (BU) (BG) (AG) (AU) (BU) (BG) (AU) (BG) (AG) (BU)
                 (BU) (AG) (AU) (BU) (AG) (BG) (BG) (AU) (AU) (AG)
                 (BU) (BG) (AU) (BG) (AU) (AG) (AG) (BU) (BU) (BG)
                 (AG) (BU) (AU) (AG) (BG) (BU) (AU) (AG) (AU) (BG)
                 (BG) (BU) (AG) (BU) (AU) (BG) (AG) (AU) (AU) (BG)
                 (BG) (BU) (AG) (AG) (BU) (BG) (AU) (BU) (AU) (AG)
                 (AG) (BU) (AU) (BU) (BG) (BG) (BU) (AG) (BG) (AU)
                 (AU) (BU) (AG) (BG) (AU) (BG) (AU) (BG) (AG) (AU)
                 (BG) (BU) (AG) (BU) (BU) (AG) (BG) (AG) (AU) (BU)
                 (AU) (BG) (AU) (AG) (BU) (BG) (AG) (BU) (AG) (BU)
                 (AG) (BU) (AG) (AU) (BG) (BU) (AU) (AG) (BU) (BG)
                 (BU) (AU) (BG) (AG) (AU) (BG) (BU) (AG) (BU) (AG)
                 (AU) (BG) (BG) (AU) (AG) (BU) (AU) (BU) (AG) (BG)
                 (AU) (BG) (AG) (BU) (BG) (BU) (AG) (AU) (BG) (AU)
                 (AG) (AU) (BU) (BG) (AG) (BU) (AU) (BG) (AU) (AG)
                 (BU) (BG) (AU) (BG) (BG) (BU) (AG) (AU) (BU) (AG)
                 (AU) (BG) (AU) (BG) (AU) (BU) (AG) (BG) (BG) (AU)
                 (AU) (BU) (AG) (BG) (BU) (AG) (BG) (AU) (AG) (BU)
                 (BG) (AG) (AU) (BU) (AU) (AG) (BU) (BG) (BU) (AG)
                 (AU) (BG) (AG) (BU) (BG) (AU) (BU) (AG) (BU) (BG)
                 (AU) (AG) (BG) (BU) (AG) (AU) (BG) (AU) (BG) (AU)
                 (AU) (AG) (BG) (AU) (BU) (AG) (BG) (BU) (BU) (AG)
                 (AG) (BU) (AU) (AG) (BU) (BG) (AG) (AU) (BU) (BG)
                 (AU) (BG) (AU) (AG) (BU) (BG) (AG) (BU) (AU) (BG)
                 (AG) (BU) (BG) (AU) (AG) (AU) (BG) (BU) (AG) (BU)
                 (AU) (BG) (AU) (AG) (BU) (BG) (BG) (AU) (AG) (BG)
                 (AU) (BU) (AG) (BU) (AU) (BG) (BU) (AG) (AG) (BG)
                 (AU) (BU) (AG) (BU) (AU) (BG) (AU) (AG) (BU) (BG)
                 (AU) (BG) (AG) (BU) (AU) (AG) (BU) (BG) (AU) (BG)
                 (BU) (AG) (AU) (BG) (AG) (BG) (BU) (AU) (BU) (AG)
                 (AG) (BU) (AU) (BG) (AU) (AG) (BG) (BU) (AG) (AU)
                 (BG) (BU) (AG) (BU) (AG) (BU) (AU) (BG) (AU) (AG)
                 (BG) (BU) (AG) (AU) (BU) (BG) (AG) (BU) (AU) (BG)
                 (AG) (BU) (AU) (BG) (AG) (BU) (AG) (BG) (AU) (BU)
                 (AG) (BU) (AG) (BU) (AG) (BG) (AU) (BU) (AG) (AU)
                 (BG) (BU) (AU) (BG) (BG) (AU) (BU) (AU) (BG) (AG)
                 (BG) (AU) (AG) (AU) (BG) (BU) (AG) (BU) (AU) (AG)
                 (BU) (BG) (AU) (BG) (AU) (BG) (AG) (BU) (BG) (AG)
                 (AU) (BU) (AG) (BU) (BU) (AG) (AG) (BU) (AU) (BG)
                 (AG) (BU) (AG) (BU) (AU) (BG) (BU) (AU) (BG) (AG)
                 (AU) (BU) (AG) (BG) (AG) (BU) (AG) (BG) (AU) (BU)
                 (BG) (AU) (BU) (AG) (BU) (AU) (AG) (BG) (BG) (AU)
                 (BU) (AG) (BG) (AG) (BU) (AU) (BU) (AG) (BU) (AU)
                 (BG) (BG) (AU) (AG) (BG) (AU) (AG) (AU) (BU) (BG)
                 (AG) (BU) (AU) (BG) (AG) (BU) (BG) (AG) (BU) (AU)
                 (BU) (AG) (AU) (BG) (AG) (AU) (BG) (BU) (AU) (BG)
                 (BU) (AG) (BU) (AU) (AG) (BG) (AU) (BG) (BU) (AU)
                 (AG) (BG) (BU) (AG) (BG) (AU) (AG) (BG) (AU) (BU)
                 (AG) (BU) (AG) (BU)
 The electronic state is 1-AG.
 Alpha  occ. eigenvalues -- -345.97268-345.97268 -41.84141 -41.84141 -36.92437
 Alpha  occ. eigenvalues --  -36.92437 -36.91593 -36.91593 -36.91593 -36.91593
 Alpha  occ. eigenvalues --  -14.20531 -14.20531 -14.20529 -14.20529 -14.20528
 Alpha  occ. eigenvalues --  -14.20528 -14.20528 -14.20528 -14.19680 -14.19680
 Alpha  occ. eigenvalues --  -14.19680 -14.19680 -14.19678 -14.19678 -14.19676
 Alpha  occ. eigenvalues --  -14.19676 -10.16878 -10.16878 -10.16876 -10.16876
 Alpha  occ. eigenvalues --  -10.16875 -10.16875 -10.16874 -10.16874 -10.16871
 Alpha  occ. eigenvalues --  -10.16871 -10.16869 -10.16869 -10.16869 -10.16869
 Alpha  occ. eigenvalues --  -10.16865 -10.16865 -10.09962 -10.09962 -10.09962
 Alpha  occ. eigenvalues --  -10.09962 -10.09961 -10.09961 -10.09961 -10.09961
 Alpha  occ. eigenvalues --  -10.09931 -10.09931 -10.09931 -10.09931 -10.09930
 Alpha  occ. eigenvalues --  -10.09930 -10.09930 -10.09930 -10.09775 -10.09775
 Alpha  occ. eigenvalues --  -10.09775 -10.09775 -10.09769 -10.09769 -10.09769
 Alpha  occ. eigenvalues --  -10.09769 -10.09766 -10.09766 -10.09765 -10.09765
 Alpha  occ. eigenvalues --  -10.09751 -10.09751 -10.09751 -10.09751 -10.09605
 Alpha  occ. eigenvalues --  -10.09605 -10.09605 -10.09605 -10.09604 -10.09604
 Alpha  occ. eigenvalues --  -10.09604 -10.09604 -10.09568 -10.09568 -10.09568
 Alpha  occ. eigenvalues --  -10.09568 -10.09561 -10.09561 -10.09561 -10.09561
 Alpha  occ. eigenvalues --   -4.79011  -4.79011  -3.23639  -3.23639  -3.22211
 Alpha  occ. eigenvalues --   -3.22211  -3.22211  -3.22211  -1.13265  -1.13265
 Alpha  occ. eigenvalues --   -1.11805  -1.11805  -1.11804  -1.11804  -1.08998
 Alpha  occ. eigenvalues --   -1.08998  -1.06797  -1.06797  -1.02652  -1.02652
 Alpha  occ. eigenvalues --   -1.02651  -1.02651  -0.99543  -0.99542  -0.98235
 Alpha  occ. eigenvalues --   -0.98235  -0.98235  -0.98234  -0.98189  -0.98189
 Alpha  occ. eigenvalues --   -0.98158  -0.98157  -0.90148  -0.90148  -0.88807
 Alpha  occ. eigenvalues --   -0.88806  -0.88591  -0.88591  -0.88589  -0.88587
 Alpha  occ. eigenvalues --   -0.88203  -0.88203  -0.88200  -0.88198  -0.88022
 Alpha  occ. eigenvalues --   -0.88021  -0.87883  -0.87882  -0.84383  -0.84382
 Alpha  occ. eigenvalues --   -0.81738  -0.81738  -0.81738  -0.81737  -0.76289
 Alpha  occ. eigenvalues --   -0.76288  -0.76083  -0.76081  -0.75257  -0.75257
 Alpha  occ. eigenvalues --   -0.75256  -0.75254  -0.74638  -0.74636  -0.74309
 Alpha  occ. eigenvalues --   -0.74308  -0.71797  -0.71797  -0.71795  -0.71793
 Alpha  occ. eigenvalues --   -0.71746  -0.71746  -0.70637  -0.70633  -0.68111
 Alpha  occ. eigenvalues --   -0.68107  -0.67162  -0.67162  -0.67160  -0.67158
 Alpha  occ. eigenvalues --   -0.65681  -0.65677  -0.65497  -0.65497  -0.65496
 Alpha  occ. eigenvalues --   -0.65493  -0.61917  -0.61916  -0.61827  -0.61822
 Alpha  occ. eigenvalues --   -0.61673  -0.61669  -0.61271  -0.61267  -0.59887
 Alpha  occ. eigenvalues --   -0.59887  -0.59847  -0.59847  -0.59847  -0.59846
 Alpha  occ. eigenvalues --   -0.59728  -0.59728  -0.59726  -0.59719  -0.58412
 Alpha  occ. eigenvalues --   -0.58412  -0.58408  -0.58407  -0.57669  -0.57668
 Alpha  occ. eigenvalues --   -0.57507  -0.57503  -0.56993  -0.56992  -0.56864
 Alpha  occ. eigenvalues --   -0.56864  -0.56743  -0.56743  -0.56742  -0.56742
 Alpha  occ. eigenvalues --   -0.55970  -0.55963  -0.55425  -0.55425  -0.55421
 Alpha  occ. eigenvalues --   -0.55417  -0.55345  -0.55338  -0.54867  -0.54865
 Alpha  occ. eigenvalues --   -0.54315  -0.54309  -0.54084  -0.54084  -0.54082
 Alpha  occ. eigenvalues --   -0.54073  -0.52831  -0.52822  -0.51833  -0.51831
 Alpha  occ. eigenvalues --   -0.51017  -0.51017  -0.48955  -0.48947  -0.48942
 Alpha  occ. eigenvalues --   -0.48941  -0.48939  -0.48938  -0.47935  -0.47924
 Alpha  occ. eigenvalues --   -0.47679  -0.47679  -0.47670  -0.47668  -0.46965
 Alpha  occ. eigenvalues --   -0.46955  -0.46881  -0.46875  -0.46863  -0.46862
 Alpha  occ. eigenvalues --   -0.46861  -0.46853  -0.46181  -0.46174  -0.45012
 Alpha  occ. eigenvalues --   -0.45011  -0.45010  -0.45006  -0.44852  -0.44847
 Alpha  occ. eigenvalues --   -0.43281  -0.43281  -0.43280  -0.43275  -0.42150
 Alpha  occ. eigenvalues --   -0.42149  -0.39206  -0.39206  -0.39201  -0.39200
 Alpha  occ. eigenvalues --   -0.38311  -0.38300  -0.37382  -0.37382  -0.36397
 Alpha  occ. eigenvalues --   -0.36388  -0.36064  -0.36048  -0.35833  -0.35827
 Alpha  occ. eigenvalues --   -0.35820  -0.35809  -0.35300  -0.35300  -0.35011
 Alpha  occ. eigenvalues --   -0.35007  -0.35000  -0.34992  -0.34823  -0.34810
 Alpha  occ. eigenvalues --   -0.34174  -0.34167  -0.24137  -0.24125
 Alpha virt. eigenvalues --   -0.06331  -0.06327  -0.06318  -0.06313   0.02224
 Alpha virt. eigenvalues --    0.02276   0.03279   0.03292   0.03315   0.03325
 Alpha virt. eigenvalues --    0.04282   0.04287   0.04331   0.04335   0.07725
 Alpha virt. eigenvalues --    0.07731   0.08072   0.08086   0.09265   0.09448
 Alpha virt. eigenvalues --    0.09480   0.09531   0.09619   0.09622   0.10325
 Alpha virt. eigenvalues --    0.10872   0.11131   0.11195   0.11260   0.11661
 Alpha virt. eigenvalues --    0.11771   0.12107   0.12244   0.12303   0.12328
 Alpha virt. eigenvalues --    0.12336   0.12347   0.12348   0.12732   0.12889
 Alpha virt. eigenvalues --    0.13250   0.13386   0.13516   0.13566   0.14171
 Alpha virt. eigenvalues --    0.14259   0.14290   0.14794   0.15291   0.15852
 Alpha virt. eigenvalues --    0.15854   0.16413   0.16481   0.16536   0.16580
 Alpha virt. eigenvalues --    0.16688   0.17238   0.17425   0.17474   0.17531
 Alpha virt. eigenvalues --    0.18678   0.18698   0.18969   0.19144   0.19173
 Alpha virt. eigenvalues --    0.19175   0.19444   0.19613   0.19663   0.19954
 Alpha virt. eigenvalues --    0.20018   0.20092   0.20197   0.20470   0.20618
 Alpha virt. eigenvalues --    0.20815   0.21041   0.21126   0.21455   0.21867
 Alpha virt. eigenvalues --    0.22062   0.22130   0.23528   0.23558   0.23633
 Alpha virt. eigenvalues --    0.23642   0.23865   0.23920   0.23936   0.23962
 Alpha virt. eigenvalues --    0.24182   0.24451   0.24541   0.24605   0.24956
 Alpha virt. eigenvalues --    0.25095   0.25292   0.25306   0.25527   0.25533
 Alpha virt. eigenvalues --    0.26476   0.26604   0.26675   0.26761   0.26881
 Alpha virt. eigenvalues --    0.26921   0.26926   0.26940   0.27038   0.27078
 Alpha virt. eigenvalues --    0.27166   0.27311   0.27351   0.27598   0.27763
 Alpha virt. eigenvalues --    0.27778   0.27890   0.27897   0.27918   0.27934
 Alpha virt. eigenvalues --    0.28186   0.28363   0.28414   0.28480   0.28796
 Alpha virt. eigenvalues --    0.28821   0.29057   0.29081   0.29118   0.29268
 Alpha virt. eigenvalues --    0.29347   0.29468   0.29472   0.29647   0.29650
 Alpha virt. eigenvalues --    0.29668   0.29823   0.29945   0.30029   0.30072
 Alpha virt. eigenvalues --    0.30108   0.30155   0.30265   0.30419   0.30420
 Alpha virt. eigenvalues --    0.30670   0.30798   0.30821   0.30847   0.30899
 Alpha virt. eigenvalues --    0.31104   0.31158   0.31457   0.31510   0.31912
 Alpha virt. eigenvalues --    0.32161   0.32172   0.32173   0.32332   0.32635
 Alpha virt. eigenvalues --    0.32794   0.32813   0.32988   0.33059   0.33145
 Alpha virt. eigenvalues --    0.33147   0.33266   0.33285   0.33378   0.33576
 Alpha virt. eigenvalues --    0.34578   0.34655   0.34680   0.34689   0.34706
 Alpha virt. eigenvalues --    0.34896   0.34914   0.35132   0.35297   0.35347
 Alpha virt. eigenvalues --    0.35364   0.35480   0.35660   0.35893   0.36287
 Alpha virt. eigenvalues --    0.36410   0.36583   0.36592   0.36616   0.36738
 Alpha virt. eigenvalues --    0.37577   0.37699   0.37760   0.37835   0.37872
 Alpha virt. eigenvalues --    0.37882   0.37991   0.38006   0.38201   0.38255
 Alpha virt. eigenvalues --    0.39053   0.39086   0.39166   0.39278   0.39609
 Alpha virt. eigenvalues --    0.39621   0.39649   0.39671   0.39967   0.40238
 Alpha virt. eigenvalues --    0.40322   0.40333   0.40572   0.40575   0.40704
 Alpha virt. eigenvalues --    0.40747   0.40747   0.40913   0.41070   0.41112
 Alpha virt. eigenvalues --    0.41538   0.41587   0.41638   0.41747   0.41852
 Alpha virt. eigenvalues --    0.42003   0.42260   0.42285   0.42391   0.42429
 Alpha virt. eigenvalues --    0.42440   0.42493   0.42601   0.42778   0.42804
 Alpha virt. eigenvalues --    0.42869   0.42912   0.42928   0.43202   0.43367
 Alpha virt. eigenvalues --    0.43884   0.43993   0.44077   0.44147   0.44258
 Alpha virt. eigenvalues --    0.44350   0.44826   0.44984   0.45012   0.45045
 Alpha virt. eigenvalues --    0.45090   0.45498   0.45532   0.45545   0.45783
 Alpha virt. eigenvalues --    0.46018   0.46454   0.46583   0.46673   0.46737
 Alpha virt. eigenvalues --    0.46816   0.46874   0.46898   0.46920   0.47062
 Alpha virt. eigenvalues --    0.47212   0.47451   0.47622   0.47683   0.47791
 Alpha virt. eigenvalues --    0.47973   0.47989   0.48250   0.48343   0.48449
 Alpha virt. eigenvalues --    0.48521   0.48740   0.48949   0.48973   0.49055
 Alpha virt. eigenvalues --    0.49123   0.49151   0.49173   0.49355   0.49397
 Alpha virt. eigenvalues --    0.49568   0.49607   0.49662   0.49681   0.49964
 Alpha virt. eigenvalues --    0.50254   0.50470   0.50480   0.50504   0.50622
 Alpha virt. eigenvalues --    0.50783   0.50856   0.51313   0.51367   0.51663
 Alpha virt. eigenvalues --    0.51714   0.51780   0.51847   0.51948   0.52061
 Alpha virt. eigenvalues --    0.52176   0.52857   0.52902   0.53043   0.53152
 Alpha virt. eigenvalues --    0.53225   0.53512   0.53875   0.53990   0.54090
 Alpha virt. eigenvalues --    0.54211   0.54451   0.54731   0.54804   0.55057
 Alpha virt. eigenvalues --    0.55078   0.55254   0.55472   0.55510   0.55600
 Alpha virt. eigenvalues --    0.56022   0.56395   0.56464   0.56696   0.56909
 Alpha virt. eigenvalues --    0.57194   0.57397   0.57410   0.57477   0.57608
 Alpha virt. eigenvalues --    0.57630   0.57636   0.57817   0.58111   0.58148
 Alpha virt. eigenvalues --    0.58366   0.58374   0.58389   0.58528   0.58548
 Alpha virt. eigenvalues --    0.58723   0.59017   0.59018   0.59113   0.59270
 Alpha virt. eigenvalues --    0.59290   0.59631   0.59651   0.59814   0.60010
 Alpha virt. eigenvalues --    0.60050   0.60075   0.60195   0.60456   0.60494
 Alpha virt. eigenvalues --    0.60568   0.60690   0.61377   0.61704   0.61924
 Alpha virt. eigenvalues --    0.61991   0.62157   0.62252   0.64333   0.64346
 Alpha virt. eigenvalues --    0.64380   0.64509   0.64538   0.64670   0.64786
 Alpha virt. eigenvalues --    0.64789   0.65588   0.65595   0.65966   0.66131
 Alpha virt. eigenvalues --    0.66176   0.66180   0.66505   0.66580   0.66594
 Alpha virt. eigenvalues --    0.66635   0.66661   0.66687   0.66702   0.66740
 Alpha virt. eigenvalues --    0.66823   0.66934   0.66948   0.67096   0.67308
 Alpha virt. eigenvalues --    0.67316   0.67416   0.67495   0.68450   0.68550
 Alpha virt. eigenvalues --    0.68562   0.68587   0.68603   0.68995   0.69955
 Alpha virt. eigenvalues --    0.69964   0.70058   0.70071   0.70072   0.70122
 Alpha virt. eigenvalues --    0.70249   0.70361   0.70667   0.70791   0.71393
 Alpha virt. eigenvalues --    0.71431   0.71437   0.71473   0.71527   0.71568
 Alpha virt. eigenvalues --    0.72032   0.72292   0.72422   0.72523   0.73279
 Alpha virt. eigenvalues --    0.73330   0.73538   0.73598   0.73602   0.73786
 Alpha virt. eigenvalues --    0.74272   0.74440   0.74447   0.74775   0.74848
 Alpha virt. eigenvalues --    0.75113   0.75694   0.75718   0.76800   0.76914
 Alpha virt. eigenvalues --    0.76999   0.77028   0.77034   0.77045   0.77065
 Alpha virt. eigenvalues --    0.77268   0.77346   0.77455   0.77946   0.78022
 Alpha virt. eigenvalues --    0.78095   0.78192   0.78298   0.78363   0.78370
 Alpha virt. eigenvalues --    0.78446   0.78609   0.78640   0.78644   0.78685
 Alpha virt. eigenvalues --    0.78882   0.78939   0.79518   0.79529   0.79723
 Alpha virt. eigenvalues --    0.79747   0.79747   0.79833   0.79935   0.80152
 Alpha virt. eigenvalues --    0.80185   0.80188   0.80202   0.80383   0.80881
 Alpha virt. eigenvalues --    0.81351   0.81494   0.81509   0.81529   0.81549
 Alpha virt. eigenvalues --    0.81559   0.81645   0.81673   0.81862   0.81949
 Alpha virt. eigenvalues --    0.82015   0.82271   0.82349   0.82381   0.82400
 Alpha virt. eigenvalues --    0.82434   0.82465   0.82541   0.82704   0.82710
 Alpha virt. eigenvalues --    0.82907   0.82942   0.83111   0.83235   0.83282
 Alpha virt. eigenvalues --    0.83342   0.83382   0.83469   0.84027   0.84292
 Alpha virt. eigenvalues --    0.84303   0.84349   0.84350   0.85074   0.85224
 Alpha virt. eigenvalues --    0.85263   0.85359   0.86471   0.86654   0.86743
 Alpha virt. eigenvalues --    0.86754   0.86840   0.86865   0.86969   0.87049
 Alpha virt. eigenvalues --    0.87087   0.87269   0.87271   0.87461   0.87549
 Alpha virt. eigenvalues --    0.87759   0.88384   0.88463   0.89023   0.89054
 Alpha virt. eigenvalues --    0.89089   0.89208   0.89355   0.89553   0.89704
 Alpha virt. eigenvalues --    0.89727   0.90492   0.90515   0.90563   0.90582
 Alpha virt. eigenvalues --    0.90903   0.91288   0.91319   0.91414   0.91500
 Alpha virt. eigenvalues --    0.91557   0.91612   0.91670   0.91769   0.91811
 Alpha virt. eigenvalues --    0.92099   0.92389   0.92412   0.92435   0.92452
 Alpha virt. eigenvalues --    0.93225   0.93434   0.93462   0.95760   0.95813
 Alpha virt. eigenvalues --    0.95825   0.95827   0.95839   0.96212   0.96922
 Alpha virt. eigenvalues --    0.96977   0.97113   0.97118   0.97183   0.97347
 Alpha virt. eigenvalues --    0.97351   0.97367   0.97369   0.97472   0.97493
 Alpha virt. eigenvalues --    0.97651   0.99126   0.99342   0.99457   0.99933
 Alpha virt. eigenvalues --    1.00063   1.00097   1.00165   1.00347   1.01123
 Alpha virt. eigenvalues --    1.01260   1.02066   1.02113   1.02260   1.02495
 Alpha virt. eigenvalues --    1.02726   1.02762   1.02779   1.02828   1.03035
 Alpha virt. eigenvalues --    1.03122   1.03234   1.03344   1.03353   1.03422
 Alpha virt. eigenvalues --    1.03498   1.03568   1.04197   1.04289   1.04625
 Alpha virt. eigenvalues --    1.04948   1.05030   1.05215   1.05833   1.06142
 Alpha virt. eigenvalues --    1.06407   1.06420   1.06431   1.06491   1.07116
 Alpha virt. eigenvalues --    1.07171   1.07255   1.07265   1.08764   1.08768
 Alpha virt. eigenvalues --    1.10399   1.10472   1.10646   1.10774   1.10931
 Alpha virt. eigenvalues --    1.11109   1.12410   1.12928   1.12947   1.12998
 Alpha virt. eigenvalues --    1.13403   1.13476   1.13521   1.13554   1.13628
 Alpha virt. eigenvalues --    1.13720   1.13982   1.14228   1.14304   1.14324
 Alpha virt. eigenvalues --    1.15237   1.15888   1.16087   1.16166   1.16445
 Alpha virt. eigenvalues --    1.16693   1.16695   1.16721   1.16780   1.16812
 Alpha virt. eigenvalues --    1.16987   1.17002   1.17208   1.17325   1.18526
 Alpha virt. eigenvalues --    1.18819   1.19119   1.19136   1.19399   1.20090
 Alpha virt. eigenvalues --    1.20180   1.20231   1.20349   1.20519   1.21059
 Alpha virt. eigenvalues --    1.21187   1.21209   1.21478   1.21577   1.21702
 Alpha virt. eigenvalues --    1.21805   1.21827   1.21839   1.21976   1.22192
 Alpha virt. eigenvalues --    1.22284   1.22442   1.22508   1.23317   1.23375
 Alpha virt. eigenvalues --    1.23435   1.23511   1.23982   1.24013   1.24054
 Alpha virt. eigenvalues --    1.24081   1.24294   1.24343   1.26204   1.26208
 Alpha virt. eigenvalues --    1.26244   1.26280   1.27518   1.27523   1.27591
 Alpha virt. eigenvalues --    1.27591   1.27781   1.27795   1.28216   1.28479
 Alpha virt. eigenvalues --    1.29077   1.29104   1.29213   1.29262   1.29328
 Alpha virt. eigenvalues --    1.29375   1.29378   1.29573   1.30573   1.30615
 Alpha virt. eigenvalues --    1.31092   1.31104   1.31299   1.31409   1.31890
 Alpha virt. eigenvalues --    1.32413   1.33185   1.33345   1.33355   1.33668
 Alpha virt. eigenvalues --    1.33784   1.33803   1.33810   1.33838   1.33895
 Alpha virt. eigenvalues --    1.33984   1.34115   1.34126   1.34151   1.34178
 Alpha virt. eigenvalues --    1.34332   1.35222   1.35270   1.35525   1.35653
 Alpha virt. eigenvalues --    1.35715   1.35748   1.35868   1.35896   1.36550
 Alpha virt. eigenvalues --    1.36733   1.36852   1.37650   1.37827   1.37833
 Alpha virt. eigenvalues --    1.37838   1.37849   1.38265   1.38695   1.38773
 Alpha virt. eigenvalues --    1.38791   1.38821   1.39403   1.39565   1.40373
 Alpha virt. eigenvalues --    1.40525   1.40616   1.40799   1.41349   1.41570
 Alpha virt. eigenvalues --    1.41661   1.41741   1.41795   1.41916   1.42678
 Alpha virt. eigenvalues --    1.42895   1.43808   1.43950   1.43958   1.44070
 Alpha virt. eigenvalues --    1.44101   1.44134   1.44473   1.44487   1.44769
 Alpha virt. eigenvalues --    1.44842   1.44899   1.44971   1.45066   1.45087
 Alpha virt. eigenvalues --    1.45304   1.45428   1.45431   1.45590   1.45678
 Alpha virt. eigenvalues --    1.45791   1.47046   1.47154   1.47194   1.47509
 Alpha virt. eigenvalues --    1.47547   1.47615   1.47876   1.47903   1.47967
 Alpha virt. eigenvalues --    1.48022   1.48053   1.48162   1.48196   1.48202
 Alpha virt. eigenvalues --    1.48387   1.48604   1.48620   1.49008   1.49071
 Alpha virt. eigenvalues --    1.49072   1.51030   1.51186   1.51718   1.51901
 Alpha virt. eigenvalues --    1.51902   1.51916   1.51952   1.51990   1.52070
 Alpha virt. eigenvalues --    1.52273   1.52319   1.52471   1.53516   1.53526
 Alpha virt. eigenvalues --    1.53727   1.54124   1.54138   1.54390   1.55172
 Alpha virt. eigenvalues --    1.55198   1.55292   1.55294   1.55320   1.55428
 Alpha virt. eigenvalues --    1.55458   1.55482   1.55593   1.55609   1.55748
 Alpha virt. eigenvalues --    1.55951   1.56110   1.56315   1.57328   1.57389
 Alpha virt. eigenvalues --    1.57501   1.57506   1.57538   1.57740   1.57746
 Alpha virt. eigenvalues --    1.57828   1.58038   1.58059   1.58214   1.58385
 Alpha virt. eigenvalues --    1.58927   1.58952   1.59725   1.60104   1.60307
 Alpha virt. eigenvalues --    1.60316   1.60346   1.60396   1.60412   1.60468
 Alpha virt. eigenvalues --    1.62975   1.63012   1.63114   1.63210   1.64494
 Alpha virt. eigenvalues --    1.64723   1.64796   1.64888   1.65378   1.65424
 Alpha virt. eigenvalues --    1.65473   1.65504   1.65536   1.65545   1.65558
 Alpha virt. eigenvalues --    1.65658   1.67064   1.67079   1.67181   1.67206
 Alpha virt. eigenvalues --    1.67259   1.67699   1.68751   1.68822   1.69030
 Alpha virt. eigenvalues --    1.69245   1.69249   1.69397   1.69695   1.69734
 Alpha virt. eigenvalues --    1.69803   1.70149   1.70150   1.70331   1.70499
 Alpha virt. eigenvalues --    1.70817   1.71526   1.71564   1.71677   1.71716
 Alpha virt. eigenvalues --    1.71741   1.71744   1.71905   1.71952   1.72099
 Alpha virt. eigenvalues --    1.72110   1.72157   1.72191   1.72208   1.72422
 Alpha virt. eigenvalues --    1.72580   1.72651   1.72998   1.73059   1.73639
 Alpha virt. eigenvalues --    1.73694   1.74166   1.74311   1.74516   1.74631
 Alpha virt. eigenvalues --    1.74810   1.74840   1.75142   1.75152   1.75300
 Alpha virt. eigenvalues --    1.75311   1.76122   1.76156   1.76256   1.76385
 Alpha virt. eigenvalues --    1.78442   1.78466   1.78488   1.78507   1.78537
 Alpha virt. eigenvalues --    1.78636   1.78649   1.78792   1.78996   1.79072
 Alpha virt. eigenvalues --    1.79123   1.79150   1.79318   1.79325   1.79380
 Alpha virt. eigenvalues --    1.79394   1.80284   1.80286   1.80361   1.80421
 Alpha virt. eigenvalues --    1.80956   1.80970   1.81003   1.81003   1.81323
 Alpha virt. eigenvalues --    1.81346   1.83529   1.83530   1.83570   1.83578
 Alpha virt. eigenvalues --    1.83687   1.83707   1.83816   1.83857   1.84049
 Alpha virt. eigenvalues --    1.84121   1.84132   1.84138   1.84217   1.84349
 Alpha virt. eigenvalues --    1.85938   1.85992   1.87824   1.87867   1.87922
 Alpha virt. eigenvalues --    1.87950   1.87971   1.88010   1.88109   1.88110
 Alpha virt. eigenvalues --    1.88111   1.88124   1.89107   1.89208   1.89236
 Alpha virt. eigenvalues --    1.89307   1.89956   1.90002   1.91189   1.91318
 Alpha virt. eigenvalues --    1.91326   1.91517   1.92745   1.92750   1.92762
 Alpha virt. eigenvalues --    1.92821   1.93969   1.94068   1.94254   1.94399
 Alpha virt. eigenvalues --    1.94497   1.94499   1.94678   1.94807   1.94963
 Alpha virt. eigenvalues --    1.94965   1.95045   1.95056   1.95948   1.96037
 Alpha virt. eigenvalues --    1.96043   1.96085   1.96092   1.96220   1.99138
 Alpha virt. eigenvalues --    1.99172   1.99181   1.99255   2.00035   2.00037
 Alpha virt. eigenvalues --    2.00068   2.00069   2.00838   2.00885   2.00936
 Alpha virt. eigenvalues --    2.01016   2.02057   2.02203   2.03920   2.04034
 Alpha virt. eigenvalues --    2.05015   2.05018   2.05496   2.05510   2.05551
 Alpha virt. eigenvalues --    2.05580   2.06005   2.06041   2.06067   2.06106
 Alpha virt. eigenvalues --    2.06167   2.06192   2.07337   2.07350   2.08626
 Alpha virt. eigenvalues --    2.08634   2.10096   2.10110   2.10732   2.10807
 Alpha virt. eigenvalues --    2.11887   2.11983   2.13291   2.13309   2.13330
 Alpha virt. eigenvalues --    2.13355   2.14007   2.14030   2.14558   2.14559
 Alpha virt. eigenvalues --    2.14600   2.14604   2.15963   2.16005   2.16570
 Alpha virt. eigenvalues --    2.16582   2.16608   2.16643   2.16650   2.16679
 Alpha virt. eigenvalues --    2.16688   2.16710   2.18186   2.18195   2.18213
 Alpha virt. eigenvalues --    2.18237   2.19178   2.19195   2.19675   2.19819
 Alpha virt. eigenvalues --    2.24475   2.24523   2.24936   2.24943   2.25005
 Alpha virt. eigenvalues --    2.25005   2.26229   2.26244   2.26358   2.26444
 Alpha virt. eigenvalues --    2.26628   2.26924   2.28653   2.28658   2.28698
 Alpha virt. eigenvalues --    2.28715   2.28841   2.29037   2.29512   2.29716
 Alpha virt. eigenvalues --    2.30728   2.30798   2.30858   2.30860   2.31006
 Alpha virt. eigenvalues --    2.31130   2.31834   2.32062   2.34432   2.34662
 Alpha virt. eigenvalues --    2.34792   2.34826   2.34898   2.34946   2.35176
 Alpha virt. eigenvalues --    2.35460   2.36118   2.36138   2.36334   2.36403
 Alpha virt. eigenvalues --    2.36665   2.36756   2.37830   2.37870   2.38325
 Alpha virt. eigenvalues --    2.38353   2.38360   2.38422   2.38520   2.38590
 Alpha virt. eigenvalues --    2.38707   2.38815   2.38975   2.39230   2.39288
 Alpha virt. eigenvalues --    2.39504   2.42207   2.42273   2.42736   2.42743
 Alpha virt. eigenvalues --    2.42746   2.42757   2.42909   2.42912   2.42984
 Alpha virt. eigenvalues --    2.43053   2.43081   2.43086   2.43156   2.43278
 Alpha virt. eigenvalues --    2.43301   2.43342   2.43860   2.43885   2.46365
 Alpha virt. eigenvalues --    2.46397   2.46496   2.46572   2.47484   2.47493
 Alpha virt. eigenvalues --    2.47664   2.47731   2.48222   2.48226   2.48228
 Alpha virt. eigenvalues --    2.48239   2.48459   2.48545   2.48568   2.48604
 Alpha virt. eigenvalues --    2.48619   2.48733   2.49411   2.49415   2.50454
 Alpha virt. eigenvalues --    2.50599   2.50611   2.50646   2.50668   2.50715
 Alpha virt. eigenvalues --    2.50855   2.50857   2.50864   2.50870   2.51185
 Alpha virt. eigenvalues --    2.51200   2.51452   2.51597   2.53300   2.53483
 Alpha virt. eigenvalues --    2.53968   2.54136   2.54539   2.54654   2.54659
 Alpha virt. eigenvalues --    2.54660   2.54671   2.54967   2.55081   2.55205
 Alpha virt. eigenvalues --    2.55218   2.55227   2.55327   2.55689   2.56883
 Alpha virt. eigenvalues --    2.56897   2.59236   2.59256   2.63290   2.63331
 Alpha virt. eigenvalues --    2.64453   2.64460   2.64482   2.64526   2.64840
 Alpha virt. eigenvalues --    2.64843   2.67399   2.67443   2.69823   2.69832
 Alpha virt. eigenvalues --    2.69872   2.69878   2.69949   2.69974   2.72582
 Alpha virt. eigenvalues --    2.72621   2.73975   2.73996   2.74016   2.74042
 Alpha virt. eigenvalues --    2.74325   2.74329   2.74954   2.74973   2.75320
 Alpha virt. eigenvalues --    2.75339   2.75355   2.75364   2.75562   2.75649
 Alpha virt. eigenvalues --    2.75678   2.75833   2.76516   2.76541   2.76550
 Alpha virt. eigenvalues --    2.76623   2.76634   2.76657   2.77451   2.77530
 Alpha virt. eigenvalues --    2.77622   2.77625   2.77651   2.77654   2.77811
 Alpha virt. eigenvalues --    2.78133   2.79502   2.79505   2.79513   2.79517
 Alpha virt. eigenvalues --    2.79668   2.79682   2.80837   2.80864   2.81811
 Alpha virt. eigenvalues --    2.81881   2.86066   2.86069   2.86070   2.86091
 Alpha virt. eigenvalues --    2.86297   2.86350   2.87470   2.87471   2.89241
 Alpha virt. eigenvalues --    2.89256   2.89351   2.89354   2.89354   2.89357
 Alpha virt. eigenvalues --    2.89379   2.89381   2.89433   2.89471   2.89750
 Alpha virt. eigenvalues --    2.89756   2.89989   2.90074   2.91303   2.91326
 Alpha virt. eigenvalues --    2.91423   2.91426   2.91438   2.91444   2.92033
 Alpha virt. eigenvalues --    2.92084   2.92591   2.92595   2.93110   2.93148
 Alpha virt. eigenvalues --    2.93202   2.93271   2.94590   2.94709   2.94756
 Alpha virt. eigenvalues --    2.94907   2.95319   2.95348   2.95371   2.95552
 Alpha virt. eigenvalues --    2.96522   2.96796   2.97241   2.97247   2.97298
 Alpha virt. eigenvalues --    2.97326   2.99396   2.99442   2.99461   2.99473
 Alpha virt. eigenvalues --    2.99641   2.99930   3.00695   3.00766   3.00799
 Alpha virt. eigenvalues --    3.00919   3.00953   3.01199   3.01866   3.01933
 Alpha virt. eigenvalues --    3.03136   3.03187   3.03714   3.03742   3.04311
 Alpha virt. eigenvalues --    3.04312   3.04346   3.04349   3.04517   3.04607
 Alpha virt. eigenvalues --    3.05357   3.05361   3.05380   3.05402   3.05809
 Alpha virt. eigenvalues --    3.05819   3.05823   3.05831   3.06137   3.06275
 Alpha virt. eigenvalues --    3.06292   3.06520   3.06550   3.06696   3.07158
 Alpha virt. eigenvalues --    3.07258   3.07450   3.07460   3.07615   3.07640
 Alpha virt. eigenvalues --    3.07641   3.07657   3.07914   3.08105   3.08105
 Alpha virt. eigenvalues --    3.08344   3.09294   3.09302   3.09527   3.09979
 Alpha virt. eigenvalues --    3.11299   3.11612   3.11709   3.12266   3.12516
 Alpha virt. eigenvalues --    3.12519   3.13427   3.13428   3.13428   3.13440
 Alpha virt. eigenvalues --    3.13575   3.13589   3.14760   3.14885   3.15594
 Alpha virt. eigenvalues --    3.15602   3.15787   3.15815   3.16251   3.16436
 Alpha virt. eigenvalues --    3.16477   3.16491   3.16497   3.16577   3.16799
 Alpha virt. eigenvalues --    3.16863   3.16894   3.16990   3.17897   3.18245
 Alpha virt. eigenvalues --    3.18254   3.18482   3.18553   3.18557   3.18613
 Alpha virt. eigenvalues --    3.18643   3.18755   3.18824   3.18904   3.19050
 Alpha virt. eigenvalues --    3.19260   3.19265   3.19370   3.19406   3.19420
 Alpha virt. eigenvalues --    3.19481   3.19548   3.19599   3.20477   3.20707
 Alpha virt. eigenvalues --    3.20790   3.20792   3.20878   3.20893   3.21168
 Alpha virt. eigenvalues --    3.21192   3.21981   3.22009   3.24190   3.24199
 Alpha virt. eigenvalues --    3.24206   3.24212   3.24253   3.24285   3.24522
 Alpha virt. eigenvalues --    3.24531   3.24923   3.25010   3.25424   3.25834
 Alpha virt. eigenvalues --    3.25960   3.25975   3.28366   3.28370   3.28379
 Alpha virt. eigenvalues --    3.28405   3.28653   3.28656   3.31537   3.31588
 Alpha virt. eigenvalues --    3.31635   3.31691   3.31847   3.31950   3.31997
 Alpha virt. eigenvalues --    3.32075   3.32132   3.32143   3.32286   3.32450
 Alpha virt. eigenvalues --    3.33999   3.34112   3.34148   3.34298   3.34438
 Alpha virt. eigenvalues --    3.34499   3.35521   3.35597   3.35663   3.35750
 Alpha virt. eigenvalues --    3.35847   3.35885   3.36039   3.36059   3.37380
 Alpha virt. eigenvalues --    3.37518   3.38853   3.38985   3.39013   3.39075
 Alpha virt. eigenvalues --    3.39178   3.39209   3.39336   3.39849   3.39855
 Alpha virt. eigenvalues --    3.39857   3.39870   3.39919   3.40028   3.40043
 Alpha virt. eigenvalues --    3.40127   3.40164   3.40386   3.40430   3.40440
 Alpha virt. eigenvalues --    3.40653   3.40776   3.40801   3.41307   3.41326
 Alpha virt. eigenvalues --    3.41860   3.41898   3.41906   3.41964   3.44206
 Alpha virt. eigenvalues --    3.44582   3.44817   3.44896   3.46188   3.46211
 Alpha virt. eigenvalues --    3.46290   3.46326   3.46960   3.47018   3.48755
 Alpha virt. eigenvalues --    3.48762   3.48773   3.48777   3.48811   3.48849
 Alpha virt. eigenvalues --    3.49743   3.49763   3.50073   3.50073   3.50076
 Alpha virt. eigenvalues --    3.50078   3.50411   3.50421   3.53488   3.53581
 Alpha virt. eigenvalues --    3.53740   3.53760   3.54013   3.54028   3.54096
 Alpha virt. eigenvalues --    3.54112   3.54115   3.54119   3.54150   3.54155
 Alpha virt. eigenvalues --    3.54585   3.54607   3.54609   3.54616   3.54901
 Alpha virt. eigenvalues --    3.54998   3.56198   3.56275   3.56305   3.56326
 Alpha virt. eigenvalues --    3.56490   3.56504   3.57747   3.57788   3.58484
 Alpha virt. eigenvalues --    3.58542   3.59870   3.59901   3.59911   3.59921
 Alpha virt. eigenvalues --    3.60219   3.60236   3.61935   3.61947   3.61997
 Alpha virt. eigenvalues --    3.62031   3.62060   3.62076   3.63111   3.63118
 Alpha virt. eigenvalues --    3.64291   3.64292   3.64322   3.64324   3.65087
 Alpha virt. eigenvalues --    3.65167   3.67700   3.67712   3.67975   3.67992
 Alpha virt. eigenvalues --    3.68011   3.68049   3.68380   3.68413   3.70448
 Alpha virt. eigenvalues --    3.70448   3.70449   3.70450   3.70555   3.70557
 Alpha virt. eigenvalues --    3.71351   3.71356   3.72185   3.72384   3.73329
 Alpha virt. eigenvalues --    3.73341   3.73359   3.73391   3.74185   3.74205
 Alpha virt. eigenvalues --    3.74338   3.74346   3.74411   3.74443   3.75989
 Alpha virt. eigenvalues --    3.76039   3.76925   3.76965   3.77609   3.77668
 Alpha virt. eigenvalues --    3.79749   3.79767   3.79812   3.79830   3.81488
 Alpha virt. eigenvalues --    3.81499   3.81525   3.81562   3.82832   3.82968
 Alpha virt. eigenvalues --    3.84469   3.84660   3.85845   3.85908   3.85997
 Alpha virt. eigenvalues --    3.86162   3.90251   3.90269   3.93047   3.93052
 Alpha virt. eigenvalues --    3.93061   3.93066   3.95973   3.95997   3.96021
 Alpha virt. eigenvalues --    3.96041   3.96319   3.96374   3.98831   3.98835
 Alpha virt. eigenvalues --    4.00022   4.00043   4.00046   4.00055   4.00070
 Alpha virt. eigenvalues --    4.00131   4.00137   4.00175   4.03435   4.03461
 Alpha virt. eigenvalues --    4.05292   4.05318   4.06328   4.06369   4.06436
 Alpha virt. eigenvalues --    4.06489   4.07164   4.07172   4.07179   4.07194
 Alpha virt. eigenvalues --    4.08022   4.08144   4.09871   4.09901   4.09904
 Alpha virt. eigenvalues --    4.09946   4.11097   4.11108   4.12874   4.12901
 Alpha virt. eigenvalues --    4.13649   4.13778   4.15502   4.15526   4.19613
 Alpha virt. eigenvalues --    4.19645   4.19647   4.19698   4.21926   4.21941
 Alpha virt. eigenvalues --    4.24002   4.24089   4.25117   4.25124   4.25148
 Alpha virt. eigenvalues --    4.25160   4.26801   4.26805   4.32250   4.32254
 Alpha virt. eigenvalues --    4.32256   4.32275   4.32400   4.32421   4.34481
 Alpha virt. eigenvalues --    4.34483   4.34746   4.34768   4.34953   4.34957
 Alpha virt. eigenvalues --    4.34974   4.34978   4.37052   4.37125   4.39909
 Alpha virt. eigenvalues --    4.39917   4.41498   4.41505   4.41521   4.41531
 Alpha virt. eigenvalues --    4.42240   4.42273   4.47902   4.47941   4.48497
 Alpha virt. eigenvalues --    4.48507   4.48542   4.48552   4.50427   4.50442
 Alpha virt. eigenvalues --    4.57920   4.57928   4.61635   4.61658   4.61874
 Alpha virt. eigenvalues --    4.61876   4.61876   4.61877   4.66036   4.66047
 Alpha virt. eigenvalues --    4.70405   4.70406   4.74058   4.74059   4.75248
 Alpha virt. eigenvalues --    4.75250   4.75251   4.75254   4.78363   4.78367
 Alpha virt. eigenvalues --    4.78368   4.78374   4.79936   4.79947   4.82658
 Alpha virt. eigenvalues --    4.82659   4.84837   4.84841   4.91208   4.91209
 Alpha virt. eigenvalues --    4.91210   4.91210   4.96406   4.96409   4.96411
 Alpha virt. eigenvalues --    4.96414   4.97436   4.97442   4.99284   4.99286
 Alpha virt. eigenvalues --    5.01192   5.01216   5.01546   5.01546   5.01784
 Alpha virt. eigenvalues --    5.01799   5.03070   5.03075   5.03076   5.03108
 Alpha virt. eigenvalues --    5.03394   5.03408   5.11940   5.11946   5.12739
 Alpha virt. eigenvalues --    5.12742   5.12746   5.12750   5.18303   5.18306
 Alpha virt. eigenvalues --    5.18306   5.18309   5.23551   5.23561   5.30265
 Alpha virt. eigenvalues --    5.30266   5.30630   5.30635   5.30645   5.30647
 Alpha virt. eigenvalues --    5.36662   5.36670   5.40023   5.40023   5.40026
 Alpha virt. eigenvalues --    5.40028   5.40603   5.40615   5.43286   5.43290
 Alpha virt. eigenvalues --    5.43294   5.43306   5.47418   5.47439   5.54975
 Alpha virt. eigenvalues --    5.54980   5.63839   5.63845   5.66072   5.66074
 Alpha virt. eigenvalues --    5.66084   5.66098   5.67462   5.67478   5.89408
 Alpha virt. eigenvalues --    5.89417   5.95279   5.95294   6.09703   6.09722
 Alpha virt. eigenvalues --    6.58657   6.58657   6.59368   6.59368   6.60383
 Alpha virt. eigenvalues --    6.60383   6.61733   6.61733   6.61733   6.61734
 Alpha virt. eigenvalues --    6.74975   6.74976   6.74977   6.74979  21.59560
 Alpha virt. eigenvalues --   21.59699  21.73016  21.73036  21.73047  21.73091
 Alpha virt. eigenvalues --   21.76422  21.76436  21.92608  21.92637  22.01759
 Alpha virt. eigenvalues --   22.01765  22.01773  22.01773  22.08284  22.08284
 Alpha virt. eigenvalues --   22.14903  22.14938  22.17231  22.17328  22.17347
 Alpha virt. eigenvalues --   22.17479  22.18381  22.18533  22.18739  22.18750
 Alpha virt. eigenvalues --   22.18773  22.18835  22.18967  22.18991  22.23870
 Alpha virt. eigenvalues --   22.23923  22.45062  22.45073  22.45102  22.45136
 Alpha virt. eigenvalues --   22.45468  22.45513  22.45978  22.46074  22.54561
 Alpha virt. eigenvalues --   22.54572  22.56042  22.56056  22.56057  22.56073
 Alpha virt. eigenvalues --   22.57994  22.57996  22.64418  22.64423  22.70688
 Alpha virt. eigenvalues --   22.70710  22.70713  22.70730  22.77243  22.77252
 Alpha virt. eigenvalues --   23.29466  23.29492  23.32860  23.32863  23.32898
 Alpha virt. eigenvalues --   23.32907  23.38941  23.38964  32.10538  32.10539
 Alpha virt. eigenvalues --   32.10539  32.10540  32.14233  32.14236  32.45786
 Alpha virt. eigenvalues --   32.45793  32.52764  32.52766  32.52767  32.52774
 Alpha virt. eigenvalues --   32.53900  32.53908  32.59951  32.59974
          Condensed to atoms (all electrons):
 Mulliken charges:
               1
     1  C   -0.088121
     2  C   -0.088156
     3  C   -0.201401
     4  C    0.091756
     5  C    0.091700
     6  C   -0.201324
     7  C    0.331107
     8  C    0.331178
     9  N   -0.269221
    10  N   -0.534383
    11  N   -0.534401
    12  H    0.122282
    13  H    0.122319
    14  H    0.139771
    15  H    0.139901
    16  C   -0.093929
    17  C   -0.087582
    18  C   -0.205900
    19  C    0.093724
    20  C    0.092071
    21  C   -0.201563
    22  C    0.330719
    23  C    0.331032
    24  N   -0.269166
    25  N   -0.533778
    26  H    0.126803
    27  H    0.122055
    28  H    0.142936
    29  H    0.139723
    30  C   -0.088156
    31  C   -0.088121
    32  C   -0.201324
    33  C    0.091700
    34  C    0.091756
    35  C   -0.201401
    36  C    0.331178
    37  C    0.331107
    38  N   -0.269221
    39  N   -0.534401
    40  H    0.122319
    41  H    0.122282
    42  H    0.139901
    43  H    0.139771
    44  C   -0.087582
    45  C   -0.093929
    46  C   -0.201563
    47  C    0.092071
    48  C    0.093724
    49  C   -0.205900
    50  C    0.331032
    51  C    0.330719
    52  N   -0.269166
    53  H    0.122055
    54  H    0.126803
    55  H    0.139723
    56  H    0.142936
    57  Zn   0.051535
    58  C   -0.087582
    59  C   -0.093929
    60  C   -0.201563
    61  C    0.092071
    62  C    0.093724
    63  C   -0.205900
    64  C    0.331032
    65  C    0.330719
    66  N   -0.269166
    67  N   -0.533778
    68  N   -0.534401
    69  H    0.122055
    70  H    0.126803
    71  H    0.139723
    72  H    0.142936
    73  C   -0.088156
    74  C   -0.088121
    75  C   -0.201324
    76  C    0.091700
    77  C    0.091756
    78  C   -0.201401
    79  C    0.331178
    80  C    0.331107
    81  N   -0.269221
    82  N   -0.534383
    83  H    0.122319
    84  H    0.122282
    85  H    0.139901
    86  H    0.139771
    87  C   -0.093929
    88  C   -0.087582
    89  C   -0.205900
    90  C    0.093724
    91  C    0.092071
    92  C   -0.201563
    93  C    0.330719
    94  C    0.331032
    95  N   -0.269166
    96  N   -0.534401
    97  H    0.126803
    98  H    0.122055
    99  H    0.142936
   100  H    0.139723
   101  C   -0.088121
   102  C   -0.088156
   103  C   -0.201401
   104  C    0.091756
   105  C    0.091700
   106  C   -0.201324
   107  C    0.331107
   108  C    0.331178
   109  N   -0.269221
   110  H    0.122282
   111  H    0.122319
   112  H    0.139771
   113  H    0.139901
   114  Zn   0.051535
 Sum of Mulliken charges =  -0.00000
 Mulliken charges with hydrogens summed into heavy atoms:
               1
     1  C    0.034161
     2  C    0.034163
     3  C   -0.061630
     4  C    0.091756
     5  C    0.091700
     6  C   -0.061422
     7  C    0.331107
     8  C    0.331178
     9  N   -0.269221
    10  N   -0.534383
    11  N   -0.534401
    16  C    0.032874
    17  C    0.034473
    18  C   -0.062964
    19  C    0.093724
    20  C    0.092071
    21  C   -0.061840
    22  C    0.330719
    23  C    0.331032
    24  N   -0.269166
    25  N   -0.533778
    30  C    0.034163
    31  C    0.034161
    32  C   -0.061422
    33  C    0.091700
    34  C    0.091756
    35  C   -0.061630
    36  C    0.331178
    37  C    0.331107
    38  N   -0.269221
    39  N   -0.534401
    44  C    0.034473
    45  C    0.032874
    46  C   -0.061840
    47  C    0.092071
    48  C    0.093724
    49  C   -0.062964
    50  C    0.331032
    51  C    0.330719
    52  N   -0.269166
    57  Zn   0.051535
    58  C    0.034473
    59  C    0.032874
    60  C   -0.061840
    61  C    0.092071
    62  C    0.093724
    63  C   -0.062964
    64  C    0.331032
    65  C    0.330719
    66  N   -0.269166
    67  N   -0.533778
    68  N   -0.534401
    73  C    0.034163
    74  C    0.034161
    75  C   -0.061422
    76  C    0.091700
    77  C    0.091756
    78  C   -0.061630
    79  C    0.331178
    80  C    0.331107
    81  N   -0.269221
    82  N   -0.534383
    87  C    0.032874
    88  C    0.034473
    89  C   -0.062964
    90  C    0.093724
    91  C    0.092071
    92  C   -0.061840
    93  C    0.330719
    94  C    0.331032
    95  N   -0.269166
    96  N   -0.534401
   101  C    0.034161
   102  C    0.034163
   103  C   -0.061630
   104  C    0.091756
   105  C    0.091700
   106  C   -0.061422
   107  C    0.331107
   108  C    0.331178
   109  N   -0.269221
   114  Zn   0.051535
 Electronic spatial extent (au):  <R**2>=         155342.5308
 Charge=             -0.0000 electrons
 Dipole moment (field-independent basis, Debye):
    X=              0.0000    Y=              0.0000    Z=              0.0000  Tot=              0.0000
 Quadrupole moment (field-independent basis, Debye-Ang):
   XX=           -497.4517   YY=           -419.8110   ZZ=           -420.6372
   XY=              0.3871   XZ=              0.0000   YZ=             -0.0000
 Traceless Quadrupole moment (field-independent basis, Debye-Ang):
   XX=            -51.4851   YY=             26.1556   ZZ=             25.3294
   XY=              0.3871   XZ=              0.0000   YZ=             -0.0000
 Octapole moment (field-independent basis, Debye-Ang**2):
  XXX=              0.0000  YYY=             -0.0000  ZZZ=              0.0000  XYY=              0.0000
  XXY=              0.0000  XXZ=              0.0000  XZZ=             -0.0000  YZZ=             -0.0000
  YYZ=             -0.0000  XYZ=             -0.0000
 Hexadecapole moment (field-independent basis, Debye-Ang**3):
 XXXX=         -12503.8331 YYYY=        -151206.7246 ZZZZ=         -27823.8130 XXXY=         -20909.0426
 XXXZ=              0.0000 YYYX=         -17613.5208 YYYZ=             -0.0000 ZZZX=             -0.0000
 ZZZY=              0.0000 XXYY=         -31864.7424 XXZZ=          -7469.8790 YYZZ=         -29088.5083
 XXYZ=              0.0000 YYXZ=             -0.0000 ZZXY=          -5878.9607
 N-N= 1.333966224968D+04 E-N=-4.294431625766D+04  KE= 6.867866466198D+03
 Symmetry AG   KE= 2.410879241903D+03
 Symmetry BG   KE= 1.023054233613D+03
 Symmetry AU   KE= 1.023023173438D+03
 Symmetry BU   KE= 2.410909817243D+03

 Test job not archived.
 1\1\ WCSS.PL-BEM-KETKOV-PC1\SP\RLC-BLYP TD-FC\Gen\C64H32N16Zn2\SERGEY\
 10-Apr-2026\0\\# td(nstates=4) lc-blyp/gen iop(3/107=0350000000,3/108=
 0350000000) geom=check guess=read\\def2tzvp-f, monomer geom r2scan-3c\
 \0,1\C,0,-4.138371,5.130673,0.\C,0,-5.130673,4.138371,0.\C,0,-2.787666
 ,4.799485,0.\C,0,-2.454083,3.449643,0.\C,0,-3.449643,2.454083,0.\C,0,-
 4.799485,2.787666,0.\C,0,-1.173513,2.758029,0.\C,0,-2.758029,1.173513,
 0.\N,0,-1.406507,1.406507,0.\N,0,-3.380774,0.,0.\N,0,0.,3.380774,0.\H,
 0,-4.434605,6.175603,0.\H,0,-6.175603,4.434605,0.\H,0,-2.014157,5.5610
 43,0.\H,0,-5.561043,2.014157,0.\C,0,5.130673,4.138371,0.\C,0,4.138371,
 5.130673,0.\C,0,4.799485,2.787666,0.\C,0,3.449643,2.454083,0.\C,0,2.45
 4083,3.449643,0.\C,0,2.787666,4.799485,0.\C,0,2.758029,1.173513,0.\C,0
 ,1.173513,2.758029,0.\N,0,1.406507,1.406507,0.\N,0,3.380774,0.,0.\H,0,
 6.175603,4.434605,0.\H,0,4.434605,6.175603,0.\H,0,5.561043,2.014157,0.
 \H,0,2.014157,5.561043,0.\C,0,-5.130673,-4.138371,0.\C,0,-4.138371,-5.
 130673,0.\C,0,-4.799485,-2.787666,0.\C,0,-3.449643,-2.454083,0.\C,0,-2
 .454083,-3.449643,0.\C,0,-2.787666,-4.799485,0.\C,0,-2.758029,-1.17351
 3,0.\C,0,-1.173513,-2.758029,0.\N,0,-1.406507,-1.406507,0.\N,0,0.,-3.3
 80774,0.\H,0,-6.175603,-4.434605,0.\H,0,-4.434605,-6.175603,0.\H,0,-5.
 561043,-2.014157,0.\H,0,-2.014157,-5.561043,0.\C,0,4.138371,-5.130673,
 0.\C,0,5.130673,-4.138371,0.\C,0,2.787666,-4.799485,0.\C,0,2.454083,-3
 .449643,0.\C,0,3.449643,-2.454083,0.\C,0,4.799485,-2.787666,0.\C,0,1.1
 73513,-2.758029,0.\C,0,2.758029,-1.173513,0.\N,0,1.406507,-1.406507,0.
 \H,0,4.434605,-6.175603,0.\H,0,6.175603,-4.434605,0.\H,0,2.014157,-5.5
 61043,0.\H,0,5.561043,-2.014157,0.\Zn,0,0.,0.,0.\C,0,9.861629,5.130673
 ,4.\C,0,8.869327,4.138371,4.\C,0,11.212334,4.799485,4.\C,0,11.545917,3
 .449643,4.\C,0,10.550357,2.454083,4.\C,0,9.200515,2.787666,4.\C,0,12.8
 26487,2.758029,4.\C,0,11.241971,1.173513,4.\N,0,12.593493,1.406507,4.\
 N,0,10.619226,0.,4.\N,0,14.,3.380774,4.\H,0,9.565395,6.175603,4.\H,0,7
 .824397,4.434605,4.\H,0,11.985843,5.561043,4.\H,0,8.438957,2.014157,4.
 \C,0,19.130673,4.138371,4.\C,0,18.138371,5.130673,4.\C,0,18.799485,2.7
 87666,4.\C,0,17.449643,2.454083,4.\C,0,16.454083,3.449643,4.\C,0,16.78
 7666,4.799485,4.\C,0,16.758029,1.173513,4.\C,0,15.173513,2.758029,4.\N
 ,0,15.406507,1.406507,4.\N,0,17.380774,0.,4.\H,0,20.175603,4.434605,4.
 \H,0,18.434605,6.175603,4.\H,0,19.561043,2.014157,4.\H,0,16.014157,5.5
 61043,4.\C,0,8.869327,-4.138371,4.\C,0,9.861629,-5.130673,4.\C,0,9.200
 515,-2.787666,4.\C,0,10.550357,-2.454083,4.\C,0,11.545917,-3.449643,4.
 \C,0,11.212334,-4.799485,4.\C,0,11.241971,-1.173513,4.\C,0,12.826487,-
 2.758029,4.\N,0,12.593493,-1.406507,4.\N,0,14.,-3.380774,4.\H,0,7.8243
 97,-4.434605,4.\H,0,9.565395,-6.175603,4.\H,0,8.438957,-2.014157,4.\H,
 0,11.985843,-5.561043,4.\C,0,18.138371,-5.130673,4.\C,0,19.130673,-4.1
 38371,4.\C,0,16.787666,-4.799485,4.\C,0,16.454083,-3.449643,4.\C,0,17.
 449643,-2.454083,4.\C,0,18.799485,-2.787666,4.\C,0,15.173513,-2.758029
 ,4.\C,0,16.758029,-1.173513,4.\N,0,15.406507,-1.406507,4.\H,0,18.43460
 5,-6.175603,4.\H,0,20.175603,-4.434605,4.\H,0,16.014157,-5.561043,4.\H
 ,0,19.561043,-2.014157,4.\Zn,0,14.,0.,4.\\Version=ES64L-G09RevE.01\Sta
 te=1-AG\HF=-6885.1681681\RMSD=7.952e-09\PG=C02H [SGH(N4Zn2),X(C64H32N1
 2)]\\@


 GARLIC THEN HAVE POWER TO SAVE FROM DEATH
 BEAR WITH IT THOUGH IT MAKETH UNSAVORY BREATH,
 AND SCORN NOT GARLIC LIKE SOME THAT THINK
 IT ONLY MAKETH MEN WINK AND DRINK AND STINK.
   --  SIR JOHN HARRINGTON,
       "THE ENGLISHMAN'S DOCTOR", 1609
 Job cpu time:       0 days  8 hours 54 minutes 32.5 seconds.
 File lengths (MBytes):  RWF=   6949 Int=      0 D2E=      0 Chk=    886 Scr=      1
 Normal termination of Gaussian 09 at Fri Apr 10 23:33:19 2026.
