 Entering Gaussian System, Link 0=g09
 Input=./ZnPc2_60_140.gjf
 Output=./ZnPc2_60_140.log
 Initial command:
 /home/sergey/g09/l1.exe "/home/sergey/SCRATCH/Gau-9411.inp" -scrdir="/home/sergey/SCRATCH/"
 Entering Link 1 = /home/sergey/g09/l1.exe PID=      9412.
  
 Copyright (c) 1988,1990,1992,1993,1995,1998,2003,2009,2015,
            Gaussian, Inc.  All Rights Reserved.
  
 This is part of the Gaussian(R) 09 program.  It is based on
 the Gaussian(R) 03 system (copyright 2003, Gaussian, Inc.),
 the Gaussian(R) 98 system (copyright 1998, Gaussian, Inc.),
 the Gaussian(R) 94 system (copyright 1995, Gaussian, Inc.),
 the Gaussian 92(TM) system (copyright 1992, Gaussian, Inc.),
 the Gaussian 90(TM) system (copyright 1990, Gaussian, Inc.),
 the Gaussian 88(TM) system (copyright 1988, Gaussian, Inc.),
 the Gaussian 86(TM) system (copyright 1986, Carnegie Mellon
 University), and the Gaussian 82(TM) system (copyright 1983,
 Carnegie Mellon University). Gaussian is a federally registered
 trademark of Gaussian, Inc.
  
 This software contains proprietary and confidential information,
 including trade secrets, belonging to Gaussian, Inc.
  
 This software is provided under written license and may be
 used, copied, transmitted, or stored only in accord with that
 written license.
  
 The following legend is applicable only to US Government
 contracts under FAR:
  
                    RESTRICTED RIGHTS LEGEND
  
 Use, reproduction and disclosure by the US Government is
 subject to restrictions as set forth in subparagraphs (a)
 and (c) of the Commercial Computer Software - Restricted
 Rights clause in FAR 52.227-19.
  
 Gaussian, Inc.
 340 Quinnipiac St., Bldg. 40, Wallingford CT 06492
  
  
 ---------------------------------------------------------------
 Warning -- This program may not be used in any manner that
 competes with the business of Gaussian, Inc. or will provide
 assistance to any competitor of Gaussian, Inc.  The licensee
 of this program is prohibited from giving any competitor of
 Gaussian, Inc. access to this program.  By using this program,
 the user acknowledges that Gaussian, Inc. is engaged in the
 business of creating and licensing software in the field of
 computational chemistry and represents and warrants to the
 licensee that it is not a competitor of Gaussian, Inc. and that
 it will not use this program in any manner prohibited above.
 ---------------------------------------------------------------
  

 Cite this work as:
 Gaussian 09, Revision E.01,
 M. J. Frisch, G. W. Trucks, H. B. Schlegel, G. E. Scuseria, 
 M. A. Robb, J. R. Cheeseman, G. Scalmani, V. Barone, B. Mennucci, 
 G. A. Petersson, H. Nakatsuji, M. Caricato, X. Li, H. P. Hratchian, 
 A. F. Izmaylov, J. Bloino, G. Zheng, J. L. Sonnenberg, M. Hada, 
 M. Ehara, K. Toyota, R. Fukuda, J. Hasegawa, M. Ishida, T. Nakajima, 
 Y. Honda, O. Kitao, H. Nakai, T. Vreven, J. A. Montgomery, Jr., 
 J. E. Peralta, F. Ogliaro, M. Bearpark, J. J. Heyd, E. Brothers, 
 K. N. Kudin, V. N. Staroverov, T. Keith, R. Kobayashi, J. Normand, 
 K. Raghavachari, A. Rendell, J. C. Burant, S. S. Iyengar, J. Tomasi, 
 M. Cossi, N. Rega, J. M. Millam, M. Klene, J. E. Knox, J. B. Cross, 
 V. Bakken, C. Adamo, J. Jaramillo, R. Gomperts, R. E. Stratmann, 
 O. Yazyev, A. J. Austin, R. Cammi, C. Pomelli, J. W. Ochterski, 
 R. L. Martin, K. Morokuma, V. G. Zakrzewski, G. A. Voth, 
 P. Salvador, J. J. Dannenberg, S. Dapprich, A. D. Daniels, 
 O. Farkas, J. B. Foresman, J. V. Ortiz, J. Cioslowski, 
 and D. J. Fox, Gaussian, Inc., Wallingford CT, 2013.
 
 ******************************************
 Gaussian 09:  ES64L-G09RevE.01 30-Nov-2015
                10-Apr-2026 
 ******************************************
 %chk=ZnPc_60_140.chk
 %mem=16GB
 %nproc=6
 Will use up to    6 processors via shared memory.
 Default route:  MaxDisk=477GB
 --------------------------------------------------------
 # lc-blyp/def2svp iop(3/107=0350000000,3/108=0350000000)
 --------------------------------------------------------
 1/38=1/1;
 2/12=2,17=6,18=5,40=1/2;
 3/5=43,7=101,11=2,16=1,25=1,30=1,74=1000402,107=350000000,108=350000000/1,2,3;
 4//1;
 5/5=2,38=5/2;
 6/7=2,8=2,9=2,10=2,28=1/1;
 99/5=1,9=1/99;
 ----------------------
 monomer geom r2scan-3c
 ----------------------
 Symbolic Z-matrix:
 Charge =  0 Multiplicity = 1
 C                    -4.13837   5.13067   0. 
 C                    -5.13067   4.13837   0. 
 C                    -2.78767   4.79949   0. 
 C                    -2.45408   3.44964   0. 
 C                    -3.44964   2.45408   0. 
 C                    -4.79949   2.78767   0. 
 C                    -1.17351   2.75803   0. 
 C                    -2.75803   1.17351   0. 
 N                    -1.40651   1.40651   0. 
 N                    -3.38077   0.        0. 
 N                     0.        3.38077   0. 
 H                    -4.43461   6.1756    0. 
 H                    -6.1756    4.43461   0. 
 H                    -2.01416   5.56104   0. 
 H                    -5.56104   2.01416   0. 
 C                     5.13067   4.13837   0. 
 C                     4.13837   5.13067   0. 
 C                     4.79949   2.78767   0. 
 C                     3.44964   2.45408   0. 
 C                     2.45408   3.44964   0. 
 C                     2.78767   4.79949   0. 
 C                     2.75803   1.17351   0. 
 C                     1.17351   2.75803   0. 
 N                     1.40651   1.40651   0. 
 N                     3.38077   0.        0. 
 H                     6.1756    4.43461   0. 
 H                     4.43461   6.1756    0. 
 H                     5.56104   2.01416   0. 
 H                     2.01416   5.56104   0. 
 C                    -5.13067  -4.13837   0. 
 C                    -4.13837  -5.13067   0. 
 C                    -4.79949  -2.78767   0. 
 C                    -3.44964  -2.45408   0. 
 C                    -2.45408  -3.44964   0. 
 C                    -2.78767  -4.79949   0. 
 C                    -2.75803  -1.17351   0. 
 C                    -1.17351  -2.75803   0. 
 N                    -1.40651  -1.40651   0. 
 N                     0.       -3.38077   0. 
 H                    -6.1756   -4.43461   0. 
 H                    -4.43461  -6.1756    0. 
 H                    -5.56104  -2.01416   0. 
 H                    -2.01416  -5.56104   0. 
 C                     4.13837  -5.13067   0. 
 C                     5.13067  -4.13837   0. 
 C                     2.78767  -4.79949   0. 
 C                     2.45408  -3.44964   0. 
 C                     3.44964  -2.45408   0. 
 C                     4.79949  -2.78767   0. 
 C                     1.17351  -2.75803   0. 
 C                     2.75803  -1.17351   0. 
 N                     1.40651  -1.40651   0. 
 H                     4.43461  -6.1756    0. 
 H                     6.1756   -4.43461   0. 
 H                     2.01416  -5.56104   0. 
 H                     5.56104  -2.01416   0. 
 Zn                    0.        0.        0. 
 C                     9.86163   5.13067   6. 
 C                     8.86933   4.13837   6. 
 C                     11.21233   4.79949   6. 
 C                     11.54592   3.44964   6. 
 C                     10.55036   2.45408   6. 
 C                     9.20051   2.78767   6. 
 C                     12.82649   2.75803   6. 
 C                     11.24197   1.17351   6. 
 N                     12.59349   1.40651   6. 
 N                     10.61923   0.        6. 
 N                     14.       3.38077   6. 
 H                     9.5654    6.1756    6. 
 H                     7.8244    4.43461   6. 
 H                     11.98584   5.56104   6. 
 H                     8.43896   2.01416   6. 
 C                     19.13067   4.13837   6. 
 C                     18.13837   5.13067   6. 
 C                     18.79949   2.78767   6. 
 C                     17.44964   2.45408   6. 
 C                     16.45408   3.44964   6. 
 C                     16.78767   4.79949   6. 
 C                     16.75803   1.17351   6. 
 C                     15.17351   2.75803   6. 
 N                     15.40651   1.40651   6. 
 N                     17.38077   0.        6. 
 H                     20.1756   4.43461   6. 
 H                     18.43461   6.1756    6. 
 H                     19.56104   2.01416   6. 
 H                     16.01416   5.56104   6. 
 C                     8.86933  -4.13837   6. 
 C                     9.86163  -5.13067   6. 
 C                     9.20051  -2.78767   6. 
 C                     10.55036  -2.45408   6. 
 C                     11.54592  -3.44964   6. 
 C                     11.21233  -4.79949   6. 
 C                     11.24197  -1.17351   6. 
 C                     12.82649  -2.75803   6. 
 N                     12.59349  -1.40651   6. 
 N                     14.      -3.38077   6. 
 H                     7.8244   -4.43461   6. 
 H                     9.5654   -6.1756    6. 
 H                     8.43896  -2.01416   6. 
 H                     11.98584  -5.56104   6. 
 C                     18.13837  -5.13067   6. 
 C                     19.13067  -4.13837   6. 
 C                     16.78767  -4.79949   6. 
 C                     16.45408  -3.44964   6. 
 C                     17.44964  -2.45408   6. 
 C                     18.79949  -2.78767   6. 
 C                     15.17351  -2.75803   6. 
 C                     16.75803  -1.17351   6. 
 N                     15.40651  -1.40651   6. 
 H                     18.43461  -6.1756    6. 
 H                     20.1756  -4.43461   6. 
 H                     16.01416  -5.56104   6. 
 H                     19.56104  -2.01416   6. 
 Zn                    14.       0.        6. 
 
 Stoichiometry    C64H32N16Zn2
 Framework group  C2H[SGH(N4Zn2),X(C64H32N12)]
 Deg. of freedom    86
 Full point group                 C2H     NOp   4
 Largest Abelian subgroup         C2H     NOp   4
 Largest concise Abelian subgroup C2H     NOp   4
                         Standard orientation:                         
 ---------------------------------------------------------------------
 Center     Atomic      Atomic             Coordinates (Angstroms)
 Number     Number       Type             X           Y           Z
 ---------------------------------------------------------------------
      1          6           0        3.000000   11.138371    5.130673
      2          6           0        3.000000   12.130673    4.138371
      3          6           0        3.000000    9.787666    4.799485
      4          6           0        3.000000    9.454083    3.449643
      5          6           0        3.000000   10.449643    2.454083
      6          6           0        3.000000   11.799485    2.787666
      7          6           0        3.000000    8.173513    2.758029
      8          6           0        3.000000    9.758029    1.173513
      9          7           0        3.000000    8.406507    1.406507
     10          7           0        3.000000   10.380774    0.000000
     11          7           0        3.000000    7.000000    3.380774
     12          1           0        3.000000   11.434605    6.175603
     13          1           0        3.000000   13.175603    4.434605
     14          1           0        3.000000    9.014157    5.561043
     15          1           0        3.000000   12.561043    2.014157
     16          6           0        3.000000    1.869327    4.138371
     17          6           0        3.000000    2.861629    5.130673
     18          6           0        3.000000    2.200515    2.787666
     19          6           0        3.000000    3.550357    2.454083
     20          6           0        3.000000    4.545917    3.449643
     21          6           0        3.000000    4.212334    4.799485
     22          6           0        3.000000    4.241971    1.173513
     23          6           0        3.000000    5.826487    2.758029
     24          7           0        3.000000    5.593493    1.406507
     25          7           0        3.000000    3.619226    0.000000
     26          1           0        3.000000    0.824397    4.434605
     27          1           0        3.000000    2.565395    6.175603
     28          1           0        3.000000    1.438957    2.014157
     29          1           0        3.000000    4.985843    5.561043
     30          6           0        3.000000   12.130673   -4.138371
     31          6           0        3.000000   11.138371   -5.130673
     32          6           0        3.000000   11.799485   -2.787666
     33          6           0        3.000000   10.449643   -2.454083
     34          6           0        3.000000    9.454083   -3.449643
     35          6           0        3.000000    9.787666   -4.799485
     36          6           0        3.000000    9.758029   -1.173513
     37          6           0        3.000000    8.173513   -2.758029
     38          7           0        3.000000    8.406507   -1.406507
     39          7           0        3.000000    7.000000   -3.380774
     40          1           0        3.000000   13.175603   -4.434605
     41          1           0        3.000000   11.434605   -6.175603
     42          1           0        3.000000   12.561043   -2.014157
     43          1           0        3.000000    9.014157   -5.561043
     44          6           0        3.000000    2.861629   -5.130673
     45          6           0        3.000000    1.869327   -4.138371
     46          6           0        3.000000    4.212334   -4.799485
     47          6           0        3.000000    4.545917   -3.449643
     48          6           0        3.000000    3.550357   -2.454083
     49          6           0        3.000000    2.200515   -2.787666
     50          6           0        3.000000    5.826487   -2.758029
     51          6           0        3.000000    4.241971   -1.173513
     52          7           0        3.000000    5.593493   -1.406507
     53          1           0        3.000000    2.565395   -6.175603
     54          1           0        3.000000    0.824397   -4.434605
     55          1           0        3.000000    4.985843   -5.561043
     56          1           0        3.000000    1.438957   -2.014157
     57         30           0        3.000000    7.000000    0.000000
     58          6           0       -3.000000   -2.861629    5.130673
     59          6           0       -3.000000   -1.869327    4.138371
     60          6           0       -3.000000   -4.212334    4.799485
     61          6           0       -3.000000   -4.545917    3.449643
     62          6           0       -3.000000   -3.550357    2.454083
     63          6           0       -3.000000   -2.200515    2.787666
     64          6           0       -3.000000   -5.826487    2.758029
     65          6           0       -3.000000   -4.241971    1.173513
     66          7           0       -3.000000   -5.593493    1.406507
     67          7           0       -3.000000   -3.619226    0.000000
     68          7           0       -3.000000   -7.000000    3.380774
     69          1           0       -3.000000   -2.565395    6.175603
     70          1           0       -3.000000   -0.824397    4.434605
     71          1           0       -3.000000   -4.985843    5.561043
     72          1           0       -3.000000   -1.438957    2.014157
     73          6           0       -3.000000  -12.130673    4.138371
     74          6           0       -3.000000  -11.138371    5.130673
     75          6           0       -3.000000  -11.799485    2.787666
     76          6           0       -3.000000  -10.449643    2.454083
     77          6           0       -3.000000   -9.454083    3.449643
     78          6           0       -3.000000   -9.787666    4.799485
     79          6           0       -3.000000   -9.758029    1.173513
     80          6           0       -3.000000   -8.173513    2.758029
     81          7           0       -3.000000   -8.406507    1.406507
     82          7           0       -3.000000  -10.380774    0.000000
     83          1           0       -3.000000  -13.175603    4.434605
     84          1           0       -3.000000  -11.434605    6.175603
     85          1           0       -3.000000  -12.561043    2.014157
     86          1           0       -3.000000   -9.014157    5.561043
     87          6           0       -3.000000   -1.869327   -4.138371
     88          6           0       -3.000000   -2.861629   -5.130673
     89          6           0       -3.000000   -2.200515   -2.787666
     90          6           0       -3.000000   -3.550357   -2.454083
     91          6           0       -3.000000   -4.545917   -3.449643
     92          6           0       -3.000000   -4.212334   -4.799485
     93          6           0       -3.000000   -4.241971   -1.173513
     94          6           0       -3.000000   -5.826487   -2.758029
     95          7           0       -3.000000   -5.593493   -1.406507
     96          7           0       -3.000000   -7.000000   -3.380774
     97          1           0       -3.000000   -0.824397   -4.434605
     98          1           0       -3.000000   -2.565395   -6.175603
     99          1           0       -3.000000   -1.438957   -2.014157
    100          1           0       -3.000000   -4.985843   -5.561043
    101          6           0       -3.000000  -11.138371   -5.130673
    102          6           0       -3.000000  -12.130673   -4.138371
    103          6           0       -3.000000   -9.787666   -4.799485
    104          6           0       -3.000000   -9.454083   -3.449643
    105          6           0       -3.000000  -10.449643   -2.454083
    106          6           0       -3.000000  -11.799485   -2.787666
    107          6           0       -3.000000   -8.173513   -2.758029
    108          6           0       -3.000000   -9.758029   -1.173513
    109          7           0       -3.000000   -8.406507   -1.406507
    110          1           0       -3.000000  -11.434605   -6.175603
    111          1           0       -3.000000  -13.175603   -4.434605
    112          1           0       -3.000000   -9.014157   -5.561043
    113          1           0       -3.000000  -12.561043   -2.014157
    114         30           0       -3.000000   -7.000000    0.000000
 ---------------------------------------------------------------------
 Rotational constants (GHZ):      0.0393174      0.0064671      0.0057471
 Standard basis: def2SVP (5D, 7F)
 There are   372 symmetry adapted cartesian basis functions of AG  symmetry.
 There are   344 symmetry adapted cartesian basis functions of BG  symmetry.
 There are   344 symmetry adapted cartesian basis functions of AU  symmetry.
 There are   372 symmetry adapted cartesian basis functions of BU  symmetry.
 There are   347 symmetry adapted basis functions of AG  symmetry.
 There are   324 symmetry adapted basis functions of BG  symmetry.
 There are   324 symmetry adapted basis functions of AU  symmetry.
 There are   347 symmetry adapted basis functions of BU  symmetry.
  1342 basis functions,  2386 primitive gaussians,  1432 cartesian basis functions
   294 alpha electrons      294 beta electrons
       nuclear repulsion energy     13148.3821836857 Hartrees.
 NAtoms=  114 NActive=  114 NUniq=   30 SFac= 4.00D+00 NAtFMM=   60 NAOKFM=T Big=F
 Integral buffers will be    131072 words long.
 Raffenetti 2 integral format.
 Two-electron integral symmetry is turned on.
 One-electron integrals computed using PRISM.
   4 Symmetry operations used in ECPInt.
 ECPInt:  NShTT=  179101 NPrTT=  695647 LenC2=   81489 LenP2D=  188472.
 LDataN:  DoStor=T MaxTD1= 6 Len=  172
 NBasis=  1342 RedAO= T EigKep=  1.34D-04  NBF=   347   324   324   347
 NBsUse=  1342 1.00D-06 EigRej= -1.00D+00 NBFU=   347   324   324   347
 ExpMin= 4.23D-02 ExpMax= 8.20D+04 ExpMxC= 1.23D+04 IAcc=2 IRadAn=         4 AccDes= 0.00D+00
 Harris functional with IExCor=10402 and IRadAn=       4 diagonalized for initial guess.
 HarFok:  IExCor=10402 AccDes= 0.00D+00 IRadAn=         4 IDoV= 1 UseB2=F ITyADJ=14
 ICtDFT=  3500011 ScaDFX=  1.000000  1.000000  1.000000  1.000000
 FoFCou: FMM=F IPFlag=           0 FMFlag=      100000 FMFlg1=        2000
         NFxFlg=           0 DoJE=T BraDBF=F KetDBF=T FulRan=T
         wScrn=  0.000000 ICntrl=     500 IOpCl=  0 I1Cent=   200000004 NGrid=           0
         NMat0=    1 NMatS0=      1 NMatT0=    0 NMatD0=    1 NMtDS0=    0 NMtDT0=    0
 Petite list used in FoFCou.
 Initial guess orbital symmetries:
       Occupied  (BU) (AG) (BU) (AG) (BU) (BG) (AU) (AG) (BU) (AG)
                 (BG) (BU) (AG) (AU) (BG) (AU) (BU) (AG) (BU) (AG)
                 (BU) (AU) (BG) (AG) (BU) (AG) (BG) (AU) (BG) (BU)
                 (AG) (AU) (BU) (AG) (BG) (AU) (BG) (BU) (AG) (AU)
                 (BU) (AG) (AU) (BG) (AG) (AU) (BU) (BG) (AG) (BU)
                 (AU) (BG) (AG) (AU) (BU) (BG) (AG) (BU) (AU) (BG)
                 (BG) (AU) (BG) (AG) (BU) (AU) (AU) (BU) (AG) (BG)
                 (AG) (BU) (AG) (BU) (BU) (AG) (BU) (BG) (AU) (AG)
                 (BU) (AG) (BG) (AU) (BG) (BU) (AG) (AU) (BG) (AU)
                 (BU) (AG) (BG) (AU) (BU) (AG) (BU) (AG) (AG) (BU)
                 (AG) (AU) (BG) (BU) (AU) (BG) (AG) (BU) (AU) (AG)
                 (BU) (BG) (AG) (BU) (AU) (BG) (AG) (AU) (BG) (BU)
                 (AG) (BU) (AU) (BG) (AU) (AG) (BU) (BG) (AG) (BU)
                 (AG) (BU) (AU) (AG) (BU) (BG) (AU) (BG) (AU) (BG)
                 (AG) (AU) (BG) (BU) (AG) (BU) (AU) (AG) (BU) (BG)
                 (AU) (BG) (AG) (BU) (AU) (BG) (AU) (AG) (BU) (BG)
                 (AU) (BG) (AG) (BU) (AG) (BU) (AG) (AU) (BG) (BU)
                 (AU) (BG) (AG) (AU) (BG) (BU) (AG) (BU) (AG) (AU)
                 (BG) (BU) (AU) (BG) (AG) (BU) (AU) (BG) (AU) (AG)
                 (BU) (BG) (AG) (BU) (AU) (BG) (AG) (AU) (BG) (BU)
                 (AG) (BU) (AU) (BG) (AG) (AU) (BG) (BU) (AU) (BG)
                 (AG) (BU) (AG) (AU) (BG) (BU) (AG) (BU) (AU) (BG)
                 (AG) (BU) (AU) (AG) (BU) (BG) (AU) (BG) (AU) (BG)
                 (AG) (BU) (AG) (BU) (AG) (AU) (BG) (BU) (AU) (AG)
                 (BU) (BG) (AG) (BU) (AU) (BG) (AU) (BG) (AG) (AU)
                 (BG) (BU) (AG) (AU) (BG) (BU) (AG) (BU) (AU) (BG)
                 (AG) (AU) (BG) (BU) (AG) (BU) (AG) (BU) (AU) (AG)
                 (BU) (BG) (AG) (BU) (AG) (AU) (BG) (BU) (BU) (AG)
                 (AU) (BG) (AG) (BU) (AG) (BU) (AG) (AU) (BG) (BU)
                 (AU) (BG) (AU) (BG)
       Virtual   (AG) (AU) (BG) (BU) (AG) (BU) (AU) (BG) (AG) (BU)
                 (AU) (AG) (BU) (BG) (AU) (BG) (AG) (AU) (BG) (BU)
                 (AG) (BU) (AU) (BG) (AG) (BU) (AG) (BU) (AG) (AU)
                 (BG) (BU) (AG) (BU) (AU) (BG) (AG) (BU) (AU) (AG)
                 (BU) (BG) (AU) (AG) (BU) (BG) (AG) (BU) (AU) (BG)
                 (AG) (AU) (BG) (BU) (AU) (BG) (AG) (BU) (AG) (BU)
                 (AG) (BU) (AG) (AU) (BG) (BU) (AU) (BG) (AG) (BU)
                 (AU) (AG) (BU) (BG) (AU) (BG) (AU) (AG) (BU) (BG)
                 (AG) (BU) (AG) (BU) (AU) (BG) (AG) (BG) (AU) (BU)
                 (AU) (BG) (AU) (AG) (BU) (BG) (AG) (BU) (AG) (AU)
                 (BG) (BU) (AU) (BG) (AU) (BG) (AU) (AG) (BU) (BG)
                 (AG) (BU) (AG) (BU) (AG) (BU) (AU) (AG) (BU) (BG)
                 (AU) (BG) (AG) (BU) (AU) (BG) (AU) (AG) (BU) (BG)
                 (BG) (AG) (BU) (AU) (AU) (BG) (AG) (BU) (BG) (AU)
                 (BU) (AG) (BG) (BU) (AG) (AU) (BU) (AU) (BG) (AG)
                 (AG) (BU) (AG) (BU) (BG) (AU) (AU) (BU) (AG) (BG)
                 (BG) (AU) (AG) (BU) (AU) (BU) (AG) (BG) (AU) (BG)
                 (AU) (BG) (AG) (BU) (AG) (AU) (BG) (BU) (AG) (BU)
                 (AG) (AU) (BG) (BU) (AU) (AG) (BU) (BG) (AU) (BG)
                 (AU) (BG) (AG) (BU) (AU) (BG) (AG) (AU) (BG) (BU)
                 (AU) (AG) (BU) (BG) (AG) (BU) (AG) (BU) (AU) (AG)
                 (BU) (BG) (AU) (BG) (AG) (BU) (AG) (BU) (AG) (AU)
                 (BG) (BU) (AU) (BG) (AG) (BU) (AU) (BG) (AU) (AG)
                 (BU) (BG) (AU) (BG) (AG) (AU) (BG) (BU) (AU) (BG)
                 (AG) (BU) (AG) (BU) (AG) (BU) (AG) (AU) (BG) (BU)
                 (AU) (AG) (BU) (BG) (AG) (BU) (AG) (BU) (AG) (AU)
                 (BG) (BU) (AU) (BG) (AU) (BG) (AG) (AU) (BG) (BU)
                 (AU) (BG) (AU) (AG) (BU) (BG) (AU) (BG) (AG) (BU)
                 (AG) (AU) (BU) (BG) (AG) (AG) (BU) (BU) (AG) (AG)
                 (BU) (BU) (AG) (AU) (BG) (BU) (AU) (BG) (AU) (AG)
                 (BU) (BG) (AU) (BG) (AG) (AU) (BG) (BU) (AU) (BG)
                 (AG) (BU) (AG) (BU) (AU) (BG) (AU) (BG) (AU) (AG)
                 (BU) (BG) (AU) (AG) (BU) (BG) (AU) (BG) (BU) (AG)
                 (AU) (BU) (AG) (BG) (AG) (BU) (AG) (BU) (AU) (BG)
                 (AG) (AU) (BG) (BU) (AG) (BU) (AU) (BG) (AG) (AU)
                 (BG) (BU) (AU) (BG) (AU) (BG) (AG) (AU) (BG) (BU)
                 (AG) (BU) (AU) (BU) (AG) (BG) (BG) (AU) (BU) (AG)
                 (AG) (BG) (AU) (BU) (AU) (AG) (BU) (BG) (BU) (AU)
                 (BG) (AG) (AG) (BU) (AU) (BG) (AG) (BU) (AU) (BG)
                 (BU) (AG) (AU) (AG) (BU) (BG) (AU) (BG) (AU) (BG)
                 (BU) (AG) (AU) (BG) (BG) (BU) (AG) (AU) (AG) (BU)
                 (AG) (BU) (AG) (AU) (BG) (BU) (AG) (BU) (AG) (AU)
                 (BG) (BU) (AU) (AG) (BU) (BG) (AG) (BU) (AU) (BG)
                 (AG) (BU) (AU) (BU) (AG) (BG) (BU) (AG) (BG) (AU)
                 (BG) (BU) (AG) (AU) (AU) (BG) (BU) (AG) (BG) (AU)
                 (AU) (BU) (AG) (BG) (BU) (AG) (AU) (BG) (AU) (BG)
                 (AU) (AG) (BU) (BG) (AG) (BU) (AU) (BG) (AU) (AG)
                 (BG) (BU) (AG) (BU) (AU) (BG) (AG) (BU) (AU) (AG)
                 (BU) (BG) (BG) (BU) (AG) (AU) (AG) (BU) (AG) (BU)
                 (AU) (AG) (BU) (BG) (AU) (BG) (AU) (BG) (AG) (BU)
                 (AU) (AG) (BU) (BG) (AU) (BG) (AG) (BU) (AU) (AG)
                 (BU) (BG) (AU) (BG) (AG) (BU) (AG) (BU) (AU) (BG)
                 (AG) (AU) (BG) (BU) (AG) (BU) (AG) (AU) (BG) (BU)
                 (AU) (BG) (AU) (AG) (BU) (BG) (AU) (BG) (AU) (BG)
                 (AG) (AU) (BG) (BU) (AG) (AU) (BG) (BU) (AG) (BU)
                 (AU) (BG) (AG) (BU) (AG) (BU) (AU) (BG) (AU) (AG)
                 (BU) (BG) (BG) (AU) (AG) (BU) (AU) (AG) (BG) (BU)
                 (AU) (BG) (AU) (AG) (BU) (BG) (AU) (BG) (AG) (AU)
                 (BG) (BU) (AU) (AG) (BU) (BG) (AG) (BU) (AG) (BU)
                 (AU) (BG) (AU) (BG) (AG) (AU) (BG) (BU) (BU) (AG)
                 (AG) (BU) (AG) (BU) (AG) (BU) (AU) (AG) (BG) (BU)
                 (AU) (BG) (AG) (AU) (BG) (BU) (BG) (AU) (AG) (BU)
                 (AG) (AU) (BG) (BU) (AU) (BU) (AG) (BG) (AU) (BG)
                 (AG) (BU) (AU) (BG) (AG) (BU) (AU) (AG) (BU) (BG)
                 (AU) (BG) (AU) (AG) (BU) (BG) (AG) (BU) (AU) (BG)
                 (AG) (AU) (BG) (BU) (AG) (BU) (BG) (BU) (AG) (AU)
                 (AG) (BU) (AU) (BG) (AU) (AG) (BU) (BG) (BG) (AU)
                 (AU) (BG) (AG) (BG) (AU) (BU) (BU) (AG) (BU) (AG)
                 (AG) (BU) (AU) (AG) (BU) (BG) (AG) (BU) (AU) (BG)
                 (AG) (AU) (BG) (BU) (AU) (BG) (BG) (AU) (AG) (BU)
                 (AG) (BU) (AG) (AU) (BG) (BU) (AU) (BG) (AU) (AG)
                 (BU) (BG) (AG) (BU) (AU) (AG) (BU) (BG) (AG) (BU)
                 (AG) (BU) (AG) (AU) (BG) (BU) (AU) (BG) (BG) (AU)
                 (AG) (AU) (BG) (BU) (AU) (BG) (AU) (BG) (AG) (BU)
                 (AG) (BG) (AU) (BU) (AG) (AU) (BG) (BU) (AG) (BU)
                 (AU) (BG) (AG) (BU) (AU) (AG) (BU) (BG) (AU) (BG)
                 (AG) (BU) (BG) (AG) (BU) (AU) (AU) (BG) (AU) (BG)
                 (AU) (AG) (BU) (BG) (AG) (BU) (BG) (AU) (AG) (AU)
                 (BG) (BU) (AG) (BU) (AG) (AU) (BG) (BU) (AG) (BU)
                 (AG) (BU) (AU) (BG) (AU) (AG) (BU) (BG) (AU) (BG)
                 (AU) (AG) (BU) (BG) (AU) (BG) (AG) (BU) (AG) (AU)
                 (BG) (BU) (AG) (BU) (AU) (BG) (AG) (BU) (AU) (AG)
                 (BU) (BG) (AU) (BG) (AU) (BG) (AG) (BU) (AG) (AU)
                 (BU) (BG) (AG) (BU) (AU) (AG) (BU) (BG) (AU) (BG)
                 (AU) (BG) (AU) (BG) (AU) (AG) (BU) (BG) (AG) (BU)
                 (AU) (AG) (BU) (BG) (AG) (BU) (AG) (BU) (AU) (BG)
                 (AU) (AG) (BU) (BG) (AG) (BU) (AG) (BU) (AG) (AU)
                 (BG) (BU) (AU) (BG) (AG) (AU) (BG) (BU) (AU) (BG)
                 (BG) (BU) (AG) (AU) (BU) (AG) (AU) (BG) (AU) (BG)
                 (AU) (AG) (BU) (BG) (BU) (AG) (AU) (BG) (AG) (AU)
                 (BG) (BU) (AG) (BU) (AU) (BG) (AG) (BU) (AG) (BU)
                 (AU) (BU) (AG) (BG) (AG) (BU) (AG) (AU) (BG) (BU)
                 (AG) (BU) (AG) (AU) (BG) (BU) (AU) (BG) (AG) (BU)
                 (AG) (BU) (AU) (BU) (AG) (BG) (AU) (BG) (AG) (AU)
                 (BG) (BU) (AG) (BU) (AU) (BG) (AG) (BG) (AU) (BU)
                 (AU) (BG) (AG) (BU) (AU) (BG) (AG) (AU) (BG) (BU)
                 (AU) (BG) (AU) (AG) (BU) (BG) (AU) (BG) (AG) (BU)
                 (AG) (BG) (AU) (BU) (AG) (BU) (AU) (BG) (AU) (BG)
                 (AU) (BU) (AG) (BG) (BU) (AG) (AG) (BU) (AU) (AG)
                 (BU) (BG) (AU) (AU) (BG) (BG) (AG) (AU) (BG) (BU)
                 (AG) (BU) (AU) (BG) (AU) (AG) (BU) (BG) (AG) (BU)
                 (AU) (AG) (BU) (BG) (AU) (BG) (AG) (BU) (AG) (BU)
                 (AU) (BG) (AG) (AU) (BG) (BU) (AU) (BG) (AU) (AG)
                 (BU) (BG) (AG) (BU) (AG) (BU) (AU) (BG) (AG) (BU)
                 (AU) (BU) (AG) (BG) (AU) (AG) (BU) (BG)
 The electronic state of the initial guess is 1-AG.
 Requested convergence on RMS density matrix=1.00D-08 within 128 cycles.
 Requested convergence on MAX density matrix=1.00D-06.
 Requested convergence on             energy=1.00D-06.
 No special actions if energy rises.
 SCF Done:  E(RLC-B+HF-LYP) =  -6881.15619297     A.U. after   15 cycles
            NFock= 15  Conv=0.65D-08     -V/T= 2.0056
 Hyperfine terms turned off by default for NAtoms > 100.

 **********************************************************************

            Population analysis using the SCF density.

 **********************************************************************

 Orbital symmetries:
       Occupied  (BU) (AG) (BU) (AG) (BU) (AG) (BU) (AG) (BG) (AU)
                 (BG) (AU) (BU) (AG) (BG) (AU) (BU) (AG) (BU) (AG)
                 (BU) (AG) (AU) (BG) (BU) (AG) (BU) (AG) (BG) (AU)
                 (BU) (AG) (BG) (AU) (BU) (AG) (BU) (AG) (BG) (AU)
                 (BG) (AU) (BG) (AU) (BU) (AG) (BG) (AU) (AG) (BU)
                 (BG) (AU) (AG) (BU) (BG) (AU) (BU) (AG) (BU) (AG)
                 (BG) (AU) (BG) (AU) (BU) (AG) (BG) (AU) (BU) (AG)
                 (AU) (BG) (AG) (BU) (AU) (BG) (AG) (BU) (AU) (BG)
                 (AG) (BU) (AU) (BG) (AG) (BU) (AU) (BG) (AG) (BU)
                 (BU) (AG) (BU) (AG) (AG) (BU) (BG) (AU) (AG) (BU)
                 (AU) (BG) (AG) (BU) (AU) (BG) (AG) (BU) (AU) (BG)
                 (AG) (BU) (AG) (BU) (AU) (BG) (AG) (BU) (AU) (BG)
                 (AG) (BU) (AU) (BG) (AG) (BU) (AU) (BG) (AG) (BU)
                 (AG) (BU) (AU) (BG) (AU) (BG) (AG) (BU) (AU) (BG)
                 (AG) (BU) (AU) (BG) (AU) (BG) (AG) (BU) (AG) (BU)
                 (AU) (BG) (AG) (BU) (AU) (BG) (AG) (BU) (AU) (AG)
                 (BG) (BU) (AU) (BG) (AG) (BU) (AU) (BG) (AG) (BU)
                 (AU) (BG) (AU) (BG) (AG) (BU) (AU) (BG) (AG) (BU)
                 (AG) (BU) (AU) (BG) (AG) (BU) (AG) (BU) (AU) (BG)
                 (AU) (BG) (AG) (BU) (AU) (BG) (AG) (BU) (AG) (BU)
                 (AU) (BG) (AU) (BG) (AU) (BG) (AG) (BU) (AG) (BU)
                 (AG) (BU) (AG) (BU) (AU) (BG) (AG) (BU) (AU) (BG)
                 (AU) (BG) (AU) (BG) (AG) (BU) (AU) (BG) (AG) (BU)
                 (AG) (BU) (AG) (BU) (AU) (BG) (AG) (BU) (AG) (BU)
                 (AG) (BU) (AU) (BG) (AU) (BG) (AU) (BG) (AG) (BU)
                 (AU) (BG) (AG) (BU) (AU) (BG) (AG) (BU) (AU) (BG)
                 (AU) (BG) (AG) (BU) (AG) (BU) (AU) (BG) (AG) (BU)
                 (AU) (BG) (AG) (BU) (AG) (BU) (AG) (BU) (AG) (BU)
                 (AU) (BG) (AU) (BG) (AG) (BU) (AU) (BG) (AU) (BG)
                 (AG) (BU) (AU) (BG)
       Virtual   (AU) (BG) (AG) (BU) (AG) (BU) (AU) (BG) (AG) (BU)
                 (AG) (BU) (AU) (BG) (AG) (BU) (AU) (BG) (AU) (BG)
                 (AG) (BU) (AU) (BG) (AG) (BU) (AU) (BG) (AG) (BU)
                 (AG) (BU) (AG) (BU) (AU) (BG) (AG) (BU) (AU) (AG)
                 (BU) (BG) (AG) (BU) (AU) (BG) (AG) (BU) (AU) (BG)
                 (AU) (AG) (BG) (BU) (AG) (BU) (AG) (BU) (AU) (BG)
                 (AG) (BU) (AU) (BG) (AU) (BG) (AU) (AG) (BG) (BU)
                 (AG) (BU) (AU) (BG) (AG) (BU) (AU) (BG) (AG) (BU)
                 (AU) (BG) (AG) (BU) (AG) (BU) (AU) (BG) (AG) (BU)
                 (AG) (BU) (AU) (BG) (AG) (BU) (AU) (BG) (AG) (BU)
                 (AG) (AU) (BU) (BG) (AU) (BG) (AU) (BG) (AU) (BG)
                 (AG) (BU) (AG) (BU) (AU) (AG) (BU) (BG) (AG) (BU)
                 (AU) (BG) (AU) (BG) (BG) (AU) (AG) (BU) (AU) (BG)
                 (BU) (AG) (BG) (AG) (BU) (AU) (AU) (BG) (BU) (AG)
                 (BU) (AG) (AU) (BU) (BG) (AG) (BU) (AU) (AG) (BG)
                 (AG) (BU) (AU) (BG) (AG) (BU) (AG) (BU) (AG) (BU)
                 (BG) (AU) (BG) (AU) (BU) (BG) (AG) (AU) (AU) (BG)
                 (AG) (BU) (AU) (BG) (AG) (BU) (AG) (BG) (AU) (BU)
                 (AU) (BG) (AG) (BU) (AU) (AG) (BU) (BG) (AU) (BG)
                 (AU) (BG) (AU) (BG) (AG) (BU) (AG) (BU) (AU) (BG)
                 (AG) (BU) (AG) (BU) (AU) (BG) (AG) (BU) (AG) (BU)
                 (AU) (AG) (BG) (BU) (AG) (BU) (AG) (BU) (AG) (AU)
                 (BU) (BG) (AU) (BG) (AU) (BG) (AU) (BG) (AU) (BG)
                 (AU) (BG) (AG) (BU) (AU) (AG) (BG) (BU) (AU) (BG)
                 (AG) (BU) (AG) (BU) (AG) (BU) (AU) (BG) (AG) (BU)
                 (AG) (BU) (AU) (BG) (AG) (BU) (AG) (BU) (AU) (BG)
                 (AG) (BU) (AU) (BG) (AU) (BG) (AU) (AG) (BU) (BG)
                 (AG) (BU) (AG) (BU) (AU) (BG) (AU) (BG) (AG) (BU)
                 (AU) (BG) (AG) (BU) (AU) (BG) (AG) (BU) (AG) (BU)
                 (AG) (BU) (AU) (BG) (AG) (BU) (AU) (BG) (AU) (BG)
                 (AU) (BG) (AG) (BU) (AU) (BG) (AU) (BG) (AG) (BU)
                 (AU) (AG) (BG) (BU) (AG) (BU) (AU) (BG) (AU) (BG)
                 (BU) (AG) (AG) (BU) (AU) (BG) (AG) (AU) (BG) (BU)
                 (AG) (BU) (AU) (BU) (AG) (BG) (AG) (BU) (BG) (AU)
                 (AG) (BU) (AU) (BG) (AG) (BU) (AU) (BG) (AG) (BU)
                 (AU) (BG) (AG) (AU) (BG) (BU) (AU) (BG) (AU) (BU)
                 (AG) (BG) (AU) (BG) (AU) (BG) (BU) (AG) (AG) (BU)
                 (AU) (BG) (AG) (BU) (AG) (AU) (BG) (BU) (AU) (BG)
                 (BG) (AU) (AG) (BU) (AG) (BU) (AG) (BU) (AU) (BG)
                 (AG) (BU) (AU) (BG) (AU) (AG) (BU) (BG) (AU) (BG)
                 (AG) (BU) (AG) (BU) (AU) (BG) (AG) (BU) (AU) (BG)
                 (AG) (BU) (AU) (BG) (AG) (BU) (AU) (BG) (AG) (BU)
                 (AG) (BU) (AU) (BG) (AU) (BG) (AG) (BU) (AG) (BU)
                 (AG) (BU) (BU) (AG) (AU) (BG) (BU) (AG) (BG) (AU)
                 (AG) (BU) (BG) (AU) (AU) (BG) (AG) (BU) (AU) (BG)
                 (AU) (BU) (BG) (AG) (BU) (AG) (AU) (BG) (AU) (BG)
                 (AG) (BU) (AG) (AU) (BU) (BG) (AG) (BU) (AU) (BG)
                 (AU) (BG) (AG) (BU) (AG) (AU) (BU) (BG) (AG) (BU)
                 (AU) (BG) (AG) (BU) (AG) (BU) (AU) (BG) (AG) (AU)
                 (BU) (BG) (AU) (BG) (AG) (BU) (AG) (BU) (AG) (BU)
                 (AG) (BU) (AU) (BG) (AU) (BG) (AG) (BU) (AU) (BG)
                 (AU) (BG) (AG) (BU) (AU) (BG) (AU) (BG) (AU) (AG)
                 (BG) (BU) (AG) (BU) (AU) (BG) (AG) (BU) (AG) (BU)
                 (AG) (BU) (AU) (BG) (AU) (BG) (AU) (BG) (AU) (BG)
                 (AG) (AU) (BG) (BU) (AG) (BU) (AU) (BG) (AU) (BG)
                 (AG) (BU) (AG) (BU) (AG) (BU) (AU) (BG) (AU) (AG)
                 (BU) (BG) (BG) (AU) (AG) (BU) (AU) (AG) (BG) (BU)
                 (AU) (BG) (AU) (AG) (BU) (BG) (AU) (BG) (AU) (BG)
                 (AG) (BU) (AG) (AU) (BU) (BG) (AG) (BU) (AG) (BU)
                 (AU) (BG) (AG) (BU) (AG) (BU) (AU) (BG) (AG) (BU)
                 (AU) (BG) (AG) (BU) (AU) (BG) (AG) (BU) (AU) (BG)
                 (AU) (BG) (AG) (BU) (AG) (BU) (AU) (BG) (AG) (BU)
                 (AU) (BG) (AG) (BU) (BU) (AG) (AU) (BG) (AU) (BG)
                 (AU) (BG) (AG) (BU) (AG) (BU) (AU) (BG) (AG) (BU)
                 (AU) (BG) (AG) (BU) (AU) (BG) (AG) (BU) (AG) (BU)
                 (AU) (BG) (AG) (AU) (BU) (BG) (AU) (BG) (AG) (BU)
                 (BG) (AU) (AG) (BU) (AG) (AU) (BU) (BG) (BG) (AU)
                 (AU) (BG) (AG) (BU) (BG) (AU) (AG) (BU) (BU) (AG)
                 (AG) (BU) (AU) (BG) (AG) (BU) (AG) (BU) (AU) (BG)
                 (AU) (BG) (AG) (BU) (AU) (BG) (AG) (BU) (AU) (BG)
                 (AG) (BU) (AG) (BU) (AU) (BG) (BG) (AU) (AU) (AG)
                 (BU) (BG) (AG) (BU) (AU) (BG) (AG) (BU) (AG) (BU)
                 (AG) (BU) (AU) (BG) (AG) (BU) (AU) (BG) (BG) (AU)
                 (AG) (BU) (AU) (BG) (AU) (BG) (AU) (BG) (AG) (BU)
                 (AG) (BU) (BG) (AU) (AU) (BG) (AG) (BU) (AG) (BU)
                 (AG) (BU) (AU) (BG) (AU) (BG) (AG) (BU) (AG) (BU)
                 (AU) (BG) (AU) (BG) (AG) (BU) (AU) (BG) (AU) (BG)
                 (BU) (AG) (AU) (BG) (AG) (BU) (BG) (AU) (AG) (BU)
                 (BG) (AU) (AG) (BU) (AG) (BU) (AU) (BG) (AG) (BU)
                 (AU) (BG) (AG) (BU) (AU) (BG) (AG) (BU) (AU) (BG)
                 (AU) (BG) (AG) (BU) (AU) (BG) (AG) (BU) (AG) (BU)
                 (AU) (BG) (AG) (BU) (AG) (BU) (AU) (BG) (AG) (BU)
                 (AU) (BG) (AU) (BG) (AU) (BG) (AG) (BU) (AU) (BG)
                 (AG) (BU) (AG) (BU) (AU) (AG) (BG) (BU) (AU) (BG)
                 (AU) (BG) (AU) (BG) (AU) (BG) (AG) (BU) (AG) (BU)
                 (AG) (BU) (AU) (BG) (AG) (BU) (AG) (BU) (AU) (BG)
                 (AG) (BU) (AU) (BG) (AG) (BU) (AG) (BU) (AG) (BU)
                 (AU) (BG) (AU) (BG) (AG) (BU) (AU) (BG) (AU) (BG)
                 (BG) (BU) (AG) (AU) (BU) (AG) (AU) (BG) (BG) (AU)
                 (AU) (BG) (AG) (BU) (AG) (BU) (AU) (BG) (AU) (BG)
                 (AG) (BU) (BU) (AG) (AG) (BU) (AG) (BU) (AU) (BG)
                 (AU) (BG) (BU) (AG) (AG) (BU) (AU) (BG) (AG) (BU)
                 (AG) (BU) (AG) (BU) (AG) (AU) (BU) (BG) (AU) (BG)
                 (AG) (BU) (AU) (BG) (BU) (AG) (AU) (BG) (AG) (AU)
                 (BG) (BU) (AG) (BU) (AU) (BG) (BG) (AU) (AG) (AU)
                 (BU) (BG) (AG) (BU) (AU) (BG) (AG) (BU) (AU) (BG)
                 (AU) (BG) (AG) (BU) (AU) (BG) (BG) (AU) (BU) (AG)
                 (BG) (AU) (AG) (BU) (AG) (BG) (AU) (BU) (AU) (BG)
                 (BU) (AG) (AU) (BG) (BU) (AG) (AG) (BU) (AU) (BG)
                 (AG) (BU) (AU) (BG) (AU) (BG) (AG) (AU) (BU) (BG)
                 (AG) (BU) (AU) (BG) (AU) (BG) (AG) (BU) (AG) (BU)
                 (AG) (BU) (AU) (BG) (AU) (BG) (AG) (BU) (AG) (BU)
                 (AU) (BG) (AG) (AU) (BU) (BG) (AU) (BG) (AU) (AG)
                 (BG) (BU) (AG) (BU) (AG) (BU) (AG) (BU) (AU) (BG)
                 (BU) (AG) (AU) (BG) (AU) (AG) (BU) (BG)
 The electronic state is 1-AG.
 Alpha  occ. eigenvalues -- -345.98428-345.98428 -41.86357 -41.86357 -36.96064
 Alpha  occ. eigenvalues --  -36.96064 -36.95282 -36.95282 -36.95282 -36.95282
 Alpha  occ. eigenvalues --  -14.21324 -14.21324 -14.21323 -14.21323 -14.21320
 Alpha  occ. eigenvalues --  -14.21320 -14.21317 -14.21317 -14.20479 -14.20479
 Alpha  occ. eigenvalues --  -14.20477 -14.20477 -14.20477 -14.20477 -14.20469
 Alpha  occ. eigenvalues --  -14.20469 -10.17882 -10.17882 -10.17880 -10.17880
 Alpha  occ. eigenvalues --  -10.17878 -10.17878 -10.17873 -10.17873 -10.17871
 Alpha  occ. eigenvalues --  -10.17871 -10.17865 -10.17865 -10.17864 -10.17864
 Alpha  occ. eigenvalues --  -10.17861 -10.17861 -10.11029 -10.11029 -10.11028
 Alpha  occ. eigenvalues --  -10.11028 -10.11015 -10.11015 -10.11014 -10.11014
 Alpha  occ. eigenvalues --  -10.11013 -10.11013 -10.11013 -10.11013 -10.10991
 Alpha  occ. eigenvalues --  -10.10991 -10.10989 -10.10989 -10.10858 -10.10858
 Alpha  occ. eigenvalues --  -10.10858 -10.10858 -10.10846 -10.10846 -10.10846
 Alpha  occ. eigenvalues --  -10.10846 -10.10842 -10.10842 -10.10842 -10.10842
 Alpha  occ. eigenvalues --  -10.10821 -10.10821 -10.10821 -10.10821 -10.10796
 Alpha  occ. eigenvalues --  -10.10796 -10.10794 -10.10794 -10.10787 -10.10787
 Alpha  occ. eigenvalues --  -10.10785 -10.10785 -10.10785 -10.10785 -10.10783
 Alpha  occ. eigenvalues --  -10.10783 -10.10775 -10.10775 -10.10773 -10.10773
 Alpha  occ. eigenvalues --   -4.78153  -4.78153  -3.22844  -3.22844  -3.21542
 Alpha  occ. eigenvalues --   -3.21542  -3.21542  -3.21542  -1.12001  -1.12001
 Alpha  occ. eigenvalues --   -1.10553  -1.10553  -1.10551  -1.10551  -1.07825
 Alpha  occ. eigenvalues --   -1.07825  -1.05433  -1.05433  -1.01377  -1.01377
 Alpha  occ. eigenvalues --   -1.01376  -1.01376  -0.98340  -0.98340  -0.97070
 Alpha  occ. eigenvalues --   -0.97070  -0.97068  -0.97068  -0.97032  -0.97032
 Alpha  occ. eigenvalues --   -0.96909  -0.96909  -0.88980  -0.88980  -0.87667
 Alpha  occ. eigenvalues --   -0.87667  -0.87392  -0.87392  -0.87390  -0.87390
 Alpha  occ. eigenvalues --   -0.87044  -0.87044  -0.87041  -0.87041  -0.86825
 Alpha  occ. eigenvalues --   -0.86825  -0.86705  -0.86705  -0.83267  -0.83267
 Alpha  occ. eigenvalues --   -0.80686  -0.80686  -0.80686  -0.80686  -0.75350
 Alpha  occ. eigenvalues --   -0.75350  -0.75150  -0.75150  -0.74321  -0.74320
 Alpha  occ. eigenvalues --   -0.74320  -0.74320  -0.73621  -0.73621  -0.73490
 Alpha  occ. eigenvalues --   -0.73490  -0.70955  -0.70955  -0.70935  -0.70935
 Alpha  occ. eigenvalues --   -0.70935  -0.70935  -0.69743  -0.69743  -0.67398
 Alpha  occ. eigenvalues --   -0.67397  -0.66482  -0.66482  -0.66481  -0.66481
 Alpha  occ. eigenvalues --   -0.65076  -0.65075  -0.64927  -0.64927  -0.64927
 Alpha  occ. eigenvalues --   -0.64927  -0.61491  -0.61491  -0.61084  -0.61084
 Alpha  occ. eigenvalues --   -0.60881  -0.60881  -0.60524  -0.60524  -0.59527
 Alpha  occ. eigenvalues --   -0.59527  -0.59066  -0.59066  -0.59064  -0.59064
 Alpha  occ. eigenvalues --   -0.59061  -0.59061  -0.59061  -0.59061  -0.57856
 Alpha  occ. eigenvalues --   -0.57856  -0.57856  -0.57856  -0.56964  -0.56964
 Alpha  occ. eigenvalues --   -0.56789  -0.56789  -0.56502  -0.56502  -0.56055
 Alpha  occ. eigenvalues --   -0.56055  -0.56054  -0.56054  -0.55967  -0.55967
 Alpha  occ. eigenvalues --   -0.55477  -0.55477  -0.54923  -0.54922  -0.54920
 Alpha  occ. eigenvalues --   -0.54920  -0.54847  -0.54847  -0.54506  -0.54506
 Alpha  occ. eigenvalues --   -0.53933  -0.53933  -0.53682  -0.53682  -0.53680
 Alpha  occ. eigenvalues --   -0.53679  -0.52396  -0.52396  -0.51312  -0.51312
 Alpha  occ. eigenvalues --   -0.50616  -0.50616  -0.48590  -0.48590  -0.48578
 Alpha  occ. eigenvalues --   -0.48578  -0.48575  -0.48575  -0.47488  -0.47487
 Alpha  occ. eigenvalues --   -0.47231  -0.47230  -0.47230  -0.47230  -0.46628
 Alpha  occ. eigenvalues --   -0.46628  -0.46493  -0.46493  -0.46340  -0.46340
 Alpha  occ. eigenvalues --   -0.46339  -0.46339  -0.45764  -0.45764  -0.44576
 Alpha  occ. eigenvalues --   -0.44576  -0.44574  -0.44574  -0.44451  -0.44451
 Alpha  occ. eigenvalues --   -0.42890  -0.42890  -0.42887  -0.42887  -0.41094
 Alpha  occ. eigenvalues --   -0.41094  -0.38359  -0.38358  -0.38353  -0.38353
 Alpha  occ. eigenvalues --   -0.38008  -0.38008  -0.36595  -0.36595  -0.35971
 Alpha  occ. eigenvalues --   -0.35971  -0.35735  -0.35735  -0.35476  -0.35475
 Alpha  occ. eigenvalues --   -0.35474  -0.35474  -0.34703  -0.34703  -0.34701
 Alpha  occ. eigenvalues --   -0.34701  -0.34666  -0.34666  -0.34562  -0.34562
 Alpha  occ. eigenvalues --   -0.33590  -0.33590  -0.23918  -0.23917
 Alpha virt. eigenvalues --   -0.05794  -0.05794  -0.05794  -0.05793   0.02867
 Alpha virt. eigenvalues --    0.02867   0.04003   0.04004   0.04942   0.04942
 Alpha virt. eigenvalues --    0.05333   0.05333   0.05333   0.05333   0.08644
 Alpha virt. eigenvalues --    0.08645   0.10338   0.10338   0.10753   0.10754
 Alpha virt. eigenvalues --    0.10755   0.10755   0.13637   0.13637   0.14132
 Alpha virt. eigenvalues --    0.14147   0.14512   0.14525   0.14527   0.14555
 Alpha virt. eigenvalues --    0.14776   0.14776   0.15136   0.15136   0.15185
 Alpha virt. eigenvalues --    0.15208   0.16370   0.16385   0.17514   0.17522
 Alpha virt. eigenvalues --    0.17536   0.17537   0.18706   0.18722   0.19488
 Alpha virt. eigenvalues --    0.19512   0.20711   0.20711   0.20712   0.20712
 Alpha virt. eigenvalues --    0.20789   0.20796   0.20799   0.20830   0.21693
 Alpha virt. eigenvalues --    0.21717   0.21760   0.21766   0.23807   0.23818
 Alpha virt. eigenvalues --    0.24311   0.24312   0.24338   0.24367   0.24941
 Alpha virt. eigenvalues --    0.24961   0.25543   0.25545   0.25546   0.25547
 Alpha virt. eigenvalues --    0.26460   0.26460   0.27281   0.27281   0.27799
 Alpha virt. eigenvalues --    0.27799   0.27875   0.27876   0.27877   0.27878
 Alpha virt. eigenvalues --    0.28721   0.28721   0.29257   0.29259   0.31280
 Alpha virt. eigenvalues --    0.31281   0.31471   0.31471   0.31472   0.31475
 Alpha virt. eigenvalues --    0.32078   0.32078   0.33470   0.33474   0.33813
 Alpha virt. eigenvalues --    0.33814   0.33815   0.33818   0.34712   0.34713
 Alpha virt. eigenvalues --    0.35034   0.35040   0.35040   0.35042   0.35420
 Alpha virt. eigenvalues --    0.35425   0.35712   0.35714   0.35776   0.35778
 Alpha virt. eigenvalues --    0.35781   0.35782   0.36065   0.36071   0.37242
 Alpha virt. eigenvalues --    0.37245   0.37246   0.37247   0.38345   0.38349
 Alpha virt. eigenvalues --    0.39299   0.39304   0.39786   0.39786   0.40208
 Alpha virt. eigenvalues --    0.40209   0.40271   0.40271   0.40272   0.40273
 Alpha virt. eigenvalues --    0.40578   0.40579   0.41180   0.41180   0.41181
 Alpha virt. eigenvalues --    0.41183   0.41420   0.41420   0.41456   0.41456
 Alpha virt. eigenvalues --    0.41715   0.41717   0.43244   0.43244   0.43244
 Alpha virt. eigenvalues --    0.43244   0.44883   0.44883   0.44884   0.44885
 Alpha virt. eigenvalues --    0.45764   0.45764   0.45765   0.45769   0.46337
 Alpha virt. eigenvalues --    0.46337   0.46344   0.46345   0.46787   0.46788
 Alpha virt. eigenvalues --    0.46807   0.46808   0.46892   0.46892   0.47744
 Alpha virt. eigenvalues --    0.47744   0.47744   0.47745   0.49473   0.49474
 Alpha virt. eigenvalues --    0.49892   0.49893   0.52164   0.52171   0.52779
 Alpha virt. eigenvalues --    0.52779   0.52907   0.52908   0.52909   0.52917
 Alpha virt. eigenvalues --    0.53086   0.53086   0.53089   0.53089   0.53888
 Alpha virt. eigenvalues --    0.53897   0.53900   0.53901   0.54068   0.54072
 Alpha virt. eigenvalues --    0.54268   0.54272   0.54630   0.54631   0.55589
 Alpha virt. eigenvalues --    0.55591   0.55809   0.55809   0.55813   0.55816
 Alpha virt. eigenvalues --    0.55852   0.55871   0.56561   0.56562   0.56563
 Alpha virt. eigenvalues --    0.56564   0.56934   0.56935   0.56960   0.56960
 Alpha virt. eigenvalues --    0.57107   0.57109   0.57116   0.57118   0.57782
 Alpha virt. eigenvalues --    0.57784   0.57941   0.57946   0.58320   0.58321
 Alpha virt. eigenvalues --    0.58325   0.58326   0.58559   0.58561   0.59027
 Alpha virt. eigenvalues --    0.59048   0.59772   0.59773   0.59982   0.59984
 Alpha virt. eigenvalues --    0.60782   0.60782   0.60783   0.60784   0.61048
 Alpha virt. eigenvalues --    0.61050   0.61056   0.61057   0.61169   0.61170
 Alpha virt. eigenvalues --    0.63869   0.63870   0.63984   0.63986   0.64296
 Alpha virt. eigenvalues --    0.64299   0.65047   0.65048   0.65049   0.65053
 Alpha virt. eigenvalues --    0.65129   0.65129   0.65130   0.65133   0.66463
 Alpha virt. eigenvalues --    0.66464   0.67872   0.67874   0.68268   0.68269
 Alpha virt. eigenvalues --    0.68270   0.68274   0.68562   0.68566   0.68604
 Alpha virt. eigenvalues --    0.68606   0.70842   0.70843   0.70846   0.70849
 Alpha virt. eigenvalues --    0.71001   0.71005   0.71262   0.71264   0.71264
 Alpha virt. eigenvalues --    0.71266   0.71474   0.71484   0.71674   0.71674
 Alpha virt. eigenvalues --    0.72184   0.72193   0.72194   0.72203   0.72221
 Alpha virt. eigenvalues --    0.72226   0.72270   0.72282   0.73294   0.73308
 Alpha virt. eigenvalues --    0.74157   0.74162   0.74902   0.74904   0.74907
 Alpha virt. eigenvalues --    0.74918   0.75950   0.75957   0.76128   0.76128
 Alpha virt. eigenvalues --    0.76647   0.76649   0.76732   0.76736   0.76743
 Alpha virt. eigenvalues --    0.76753   0.76876   0.76881   0.76885   0.76893
 Alpha virt. eigenvalues --    0.77132   0.77135   0.77135   0.77137   0.77366
 Alpha virt. eigenvalues --    0.77370   0.77728   0.77731   0.78462   0.78474
 Alpha virt. eigenvalues --    0.79336   0.79344   0.79497   0.79505   0.79510
 Alpha virt. eigenvalues --    0.79523   0.79529   0.79533   0.79537   0.79545
 Alpha virt. eigenvalues --    0.79892   0.79894   0.81844   0.81846   0.81849
 Alpha virt. eigenvalues --    0.81867   0.82223   0.82233   0.84148   0.84149
 Alpha virt. eigenvalues --    0.84209   0.84210   0.84212   0.84212   0.84742
 Alpha virt. eigenvalues --    0.84743   0.84748   0.84755   0.85000   0.85002
 Alpha virt. eigenvalues --    0.85020   0.85024   0.85425   0.85431   0.85432
 Alpha virt. eigenvalues --    0.85433   0.85776   0.85778   0.86670   0.86670
 Alpha virt. eigenvalues --    0.86671   0.86677   0.86825   0.86831   0.87153
 Alpha virt. eigenvalues --    0.87163   0.88694   0.88695   0.89063   0.89067
 Alpha virt. eigenvalues --    0.90343   0.90343   0.90344   0.90344   0.91638
 Alpha virt. eigenvalues --    0.91642   0.91642   0.91643   0.91932   0.91933
 Alpha virt. eigenvalues --    0.92027   0.92027   0.92027   0.92029   0.92170
 Alpha virt. eigenvalues --    0.92172   0.93040   0.93041   0.93542   0.93542
 Alpha virt. eigenvalues --    0.95440   0.95442   0.99065   0.99066   0.99444
 Alpha virt. eigenvalues --    0.99445   0.99445   0.99445   1.00760   1.00760
 Alpha virt. eigenvalues --    1.01377   1.01377   1.02166   1.02167   1.02582
 Alpha virt. eigenvalues --    1.02582   1.02583   1.02583   1.02873   1.02874
 Alpha virt. eigenvalues --    1.03610   1.03610   1.03750   1.03750   1.03755
 Alpha virt. eigenvalues --    1.03755   1.05663   1.05663   1.05665   1.05672
 Alpha virt. eigenvalues --    1.06469   1.06473   1.07569   1.07574   1.08010
 Alpha virt. eigenvalues --    1.08013   1.08016   1.08017   1.08037   1.08038
 Alpha virt. eigenvalues --    1.10749   1.10749   1.11722   1.11722   1.11723
 Alpha virt. eigenvalues --    1.11725   1.12926   1.12926   1.13550   1.13550
 Alpha virt. eigenvalues --    1.15001   1.15001   1.15002   1.15005   1.15516
 Alpha virt. eigenvalues --    1.15517   1.17563   1.17563   1.17737   1.17737
 Alpha virt. eigenvalues --    1.20576   1.20579   1.20581   1.20582   1.21142
 Alpha virt. eigenvalues --    1.21143   1.24160   1.24161   1.25694   1.25697
 Alpha virt. eigenvalues --    1.27335   1.27338   1.27794   1.27794   1.27795
 Alpha virt. eigenvalues --    1.27796   1.29005   1.29006   1.30124   1.30124
 Alpha virt. eigenvalues --    1.30540   1.30540   1.30541   1.30541   1.30969
 Alpha virt. eigenvalues --    1.30970   1.30970   1.30970   1.31712   1.31712
 Alpha virt. eigenvalues --    1.33557   1.33557   1.33814   1.33820   1.33956
 Alpha virt. eigenvalues --    1.33956   1.33956   1.33956   1.34016   1.34018
 Alpha virt. eigenvalues --    1.34020   1.34024   1.34371   1.34371   1.34895
 Alpha virt. eigenvalues --    1.34895   1.35190   1.35190   1.35372   1.35372
 Alpha virt. eigenvalues --    1.35552   1.35552   1.35552   1.35552   1.35848
 Alpha virt. eigenvalues --    1.35849   1.37573   1.37576   1.37740   1.37743
 Alpha virt. eigenvalues --    1.38138   1.38138   1.38549   1.38549   1.38549
 Alpha virt. eigenvalues --    1.38549   1.38606   1.38616   1.38685   1.38687
 Alpha virt. eigenvalues --    1.38693   1.38695   1.40092   1.40092   1.41885
 Alpha virt. eigenvalues --    1.41885   1.41887   1.41887   1.42960   1.42960
 Alpha virt. eigenvalues --    1.43357   1.43357   1.43358   1.43358   1.43515
 Alpha virt. eigenvalues --    1.43515   1.46396   1.46398   1.46576   1.46576
 Alpha virt. eigenvalues --    1.47083   1.47083   1.47097   1.47100   1.47134
 Alpha virt. eigenvalues --    1.47134   1.47136   1.47136   1.48810   1.48810
 Alpha virt. eigenvalues --    1.49328   1.49328   1.51017   1.51017   1.51585
 Alpha virt. eigenvalues --    1.51605   1.52831   1.52881   1.53290   1.53291
 Alpha virt. eigenvalues --    1.53306   1.53311   1.53653   1.53653   1.57442
 Alpha virt. eigenvalues --    1.57508   1.58501   1.58502   1.58540   1.58544
 Alpha virt. eigenvalues --    1.60810   1.60810   1.62225   1.62227   1.62236
 Alpha virt. eigenvalues --    1.62240   1.63562   1.63605   1.65126   1.65126
 Alpha virt. eigenvalues --    1.65127   1.65127   1.69703   1.69705   1.69711
 Alpha virt. eigenvalues --    1.69715   1.70468   1.70468   1.71822   1.71822
 Alpha virt. eigenvalues --    1.75212   1.75213   1.75239   1.75240   1.77664
 Alpha virt. eigenvalues --    1.77665   1.77668   1.77670   1.77777   1.77780
 Alpha virt. eigenvalues --    1.77782   1.77782   1.77859   1.77859   1.77897
 Alpha virt. eigenvalues --    1.77900   1.78095   1.78095   1.78096   1.78096
 Alpha virt. eigenvalues --    1.78565   1.78565   1.78569   1.78570   1.79135
 Alpha virt. eigenvalues --    1.79135   1.82750   1.82750   1.83534   1.83536
 Alpha virt. eigenvalues --    1.84205   1.84205   1.84213   1.84216   1.85059
 Alpha virt. eigenvalues --    1.85059   1.85063   1.85067   1.85133   1.85134
 Alpha virt. eigenvalues --    1.85302   1.85304   1.85408   1.85409   1.86149
 Alpha virt. eigenvalues --    1.86150   1.86199   1.86200   1.86200   1.86200
 Alpha virt. eigenvalues --    1.87395   1.87397   1.87398   1.87398   1.87815
 Alpha virt. eigenvalues --    1.87817   1.88229   1.88230   1.88315   1.88315
 Alpha virt. eigenvalues --    1.88422   1.88423   1.88599   1.88599   1.88600
 Alpha virt. eigenvalues --    1.88600   1.88840   1.88841   1.89116   1.89116
 Alpha virt. eigenvalues --    1.89119   1.89119   1.90091   1.90092   1.91257
 Alpha virt. eigenvalues --    1.91257   1.91257   1.91259   1.91312   1.91312
 Alpha virt. eigenvalues --    1.92661   1.92674   1.95732   1.95733   1.95734
 Alpha virt. eigenvalues --    1.95734   1.96600   1.96601   1.98550   1.98551
 Alpha virt. eigenvalues --    2.00410   2.00410   2.00927   2.00929   2.00932
 Alpha virt. eigenvalues --    2.00933   2.01898   2.01901   2.02817   2.02819
 Alpha virt. eigenvalues --    2.03749   2.03750   2.03751   2.03752   2.04099
 Alpha virt. eigenvalues --    2.04100   2.04328   2.04328   2.05172   2.05172
 Alpha virt. eigenvalues --    2.05178   2.05179   2.05257   2.05258   2.05608
 Alpha virt. eigenvalues --    2.05608   2.05810   2.05811   2.07005   2.07005
 Alpha virt. eigenvalues --    2.07005   2.07007   2.07856   2.07856   2.07869
 Alpha virt. eigenvalues --    2.07869   2.07870   2.07870   2.08214   2.08214
 Alpha virt. eigenvalues --    2.08648   2.08649   2.08829   2.08829   2.09098
 Alpha virt. eigenvalues --    2.09098   2.09100   2.09101   2.10853   2.10854
 Alpha virt. eigenvalues --    2.11303   2.11303   2.11304   2.11304   2.13012
 Alpha virt. eigenvalues --    2.13013   2.13244   2.13244   2.13836   2.13836
 Alpha virt. eigenvalues --    2.14610   2.14612   2.14614   2.14614   2.19254
 Alpha virt. eigenvalues --    2.19255   2.19260   2.19262   2.19768   2.19770
 Alpha virt. eigenvalues --    2.23350   2.23351   2.23388   2.23390   2.23405
 Alpha virt. eigenvalues --    2.23406   2.23408   2.23411   2.23682   2.23683
 Alpha virt. eigenvalues --    2.23818   2.23820   2.24057   2.24059   2.24599
 Alpha virt. eigenvalues --    2.24599   2.24602   2.24603   2.24720   2.24721
 Alpha virt. eigenvalues --    2.25418   2.25418   2.25420   2.25426   2.26869
 Alpha virt. eigenvalues --    2.26870   2.28160   2.28160   2.28160   2.28163
 Alpha virt. eigenvalues --    2.28246   2.28246   2.29895   2.29896   2.29971
 Alpha virt. eigenvalues --    2.29972   2.29972   2.29973   2.31006   2.31007
 Alpha virt. eigenvalues --    2.33076   2.33076   2.34080   2.34080   2.34768
 Alpha virt. eigenvalues --    2.34768   2.34769   2.34769   2.35162   2.35162
 Alpha virt. eigenvalues --    2.35220   2.35220   2.35225   2.35226   2.35226
 Alpha virt. eigenvalues --    2.35229   2.35984   2.35985   2.38235   2.38235
 Alpha virt. eigenvalues --    2.38571   2.38571   2.38572   2.38572   2.39278
 Alpha virt. eigenvalues --    2.39278   2.39433   2.39433   2.40786   2.40786
 Alpha virt. eigenvalues --    2.40786   2.40787   2.41001   2.41001   2.41195
 Alpha virt. eigenvalues --    2.41195   2.43365   2.43365   2.43365   2.43365
 Alpha virt. eigenvalues --    2.43801   2.43801   2.44351   2.44353   2.45250
 Alpha virt. eigenvalues --    2.45251   2.45253   2.45253   2.47401   2.47403
 Alpha virt. eigenvalues --    2.47984   2.47986   2.48664   2.48664   2.49380
 Alpha virt. eigenvalues --    2.49380   2.49381   2.49381   2.50391   2.50393
 Alpha virt. eigenvalues --    2.55369   2.55369   2.56430   2.56433   2.56435
 Alpha virt. eigenvalues --    2.56435   2.57106   2.57106   2.57544   2.57544
 Alpha virt. eigenvalues --    2.59721   2.59721   2.59723   2.59723   2.61286
 Alpha virt. eigenvalues --    2.61287   2.63838   2.63838   2.65811   2.65813
 Alpha virt. eigenvalues --    2.65814   2.65814   2.66444   2.66444   2.66445
 Alpha virt. eigenvalues --    2.66445   2.66937   2.66938   2.68287   2.68291
 Alpha virt. eigenvalues --    2.69351   2.69351   2.69351   2.69351   2.69602
 Alpha virt. eigenvalues --    2.69602   2.69638   2.69638   2.70304   2.70305
 Alpha virt. eigenvalues --    2.74677   2.74677   2.74677   2.74677   2.74932
 Alpha virt. eigenvalues --    2.74932   2.75459   2.75459   2.75923   2.75924
 Alpha virt. eigenvalues --    2.75926   2.75928   2.76801   2.76801   2.77147
 Alpha virt. eigenvalues --    2.77148   2.77773   2.77773   2.78059   2.78060
 Alpha virt. eigenvalues --    2.79622   2.79624   2.79624   2.79625   2.80251
 Alpha virt. eigenvalues --    2.80251   2.80599   2.80599   2.80601   2.80601
 Alpha virt. eigenvalues --    2.82749   2.82749   2.83602   2.83606   2.83957
 Alpha virt. eigenvalues --    2.83960   2.83962   2.83963   2.84143   2.84147
 Alpha virt. eigenvalues --    2.87897   2.87897   2.89014   2.89015   2.89017
 Alpha virt. eigenvalues --    2.89017   2.92154   2.92154   2.94060   2.94061
 Alpha virt. eigenvalues --    2.94063   2.94064   2.94326   2.94331   2.94895
 Alpha virt. eigenvalues --    2.94899   2.95161   2.95161   2.95226   2.95227
 Alpha virt. eigenvalues --    2.95227   2.95228   2.97837   2.97837   2.98021
 Alpha virt. eigenvalues --    2.98021   2.99791   2.99791   2.99793   2.99793
 Alpha virt. eigenvalues --    3.00752   3.00752   3.01322   3.01323   3.01324
 Alpha virt. eigenvalues --    3.01325   3.02584   3.02584   3.05711   3.05712
 Alpha virt. eigenvalues --    3.07963   3.07964   3.08845   3.08846   3.09164
 Alpha virt. eigenvalues --    3.09164   3.09165   3.09165   3.10423   3.10423
 Alpha virt. eigenvalues --    3.12446   3.12447   3.12450   3.12451   3.13498
 Alpha virt. eigenvalues --    3.13498   3.16677   3.16678   3.20620   3.20622
 Alpha virt. eigenvalues --    3.20624   3.20625   3.23153   3.23153   3.23373
 Alpha virt. eigenvalues --    3.23376   3.24708   3.24708   3.24708   3.24709
 Alpha virt. eigenvalues --    3.27700   3.27701   3.33250   3.33251   3.34134
 Alpha virt. eigenvalues --    3.34134   3.34137   3.34137   3.35440   3.35440
 Alpha virt. eigenvalues --    3.47343   3.47344   3.47345   3.47346   3.54342
 Alpha virt. eigenvalues --    3.54342   3.56599   3.56599   3.58599   3.58602
 Alpha virt. eigenvalues --    3.62495   3.62495   3.64540   3.64541   3.64542
 Alpha virt. eigenvalues --    3.64542   3.72066   3.72070   3.76264   3.76265
 Alpha virt. eigenvalues --    3.76266   3.76267   3.78671   3.78672   6.59903
 Alpha virt. eigenvalues --    6.59903   6.60164   6.60164   6.60556   6.60556
 Alpha virt. eigenvalues --    6.60802   6.60802   6.60802   6.60802   6.64756
 Alpha virt. eigenvalues --    6.64756   6.64756   6.64756
          Condensed to atoms (all electrons):
 Mulliken charges:
               1
     1  C    0.024019
     2  C    0.024027
     3  C   -0.068038
     4  C    0.100277
     5  C    0.100307
     6  C   -0.068005
     7  C   -0.068801
     8  C   -0.068820
     9  N   -0.208861
    10  N    0.104246
    11  N    0.104167
    12  H   -0.006988
    13  H   -0.006956
    14  H   -0.012609
    15  H   -0.012538
    16  C    0.023717
    17  C    0.023732
    18  C   -0.068223
    19  C    0.100141
    20  C    0.100276
    21  C   -0.068272
    22  C   -0.068762
    23  C   -0.068787
    24  N   -0.208904
    25  N    0.104563
    26  H   -0.005756
    27  H   -0.007131
    28  H   -0.011341
    29  H   -0.012737
    30  C    0.024027
    31  C    0.024019
    32  C   -0.068005
    33  C    0.100307
    34  C    0.100277
    35  C   -0.068038
    36  C   -0.068820
    37  C   -0.068801
    38  N   -0.208861
    39  N    0.104167
    40  H   -0.006956
    41  H   -0.006988
    42  H   -0.012538
    43  H   -0.012609
    44  C    0.023732
    45  C    0.023717
    46  C   -0.068272
    47  C    0.100276
    48  C    0.100141
    49  C   -0.068223
    50  C   -0.068787
    51  C   -0.068762
    52  N   -0.208904
    53  H   -0.007131
    54  H   -0.005756
    55  H   -0.012737
    56  H   -0.011341
    57  Zn   0.672920
    58  C    0.023732
    59  C    0.023717
    60  C   -0.068272
    61  C    0.100276
    62  C    0.100141
    63  C   -0.068223
    64  C   -0.068787
    65  C   -0.068762
    66  N   -0.208904
    67  N    0.104563
    68  N    0.104167
    69  H   -0.007131
    70  H   -0.005756
    71  H   -0.012737
    72  H   -0.011341
    73  C    0.024027
    74  C    0.024019
    75  C   -0.068005
    76  C    0.100307
    77  C    0.100277
    78  C   -0.068038
    79  C   -0.068820
    80  C   -0.068801
    81  N   -0.208861
    82  N    0.104246
    83  H   -0.006956
    84  H   -0.006988
    85  H   -0.012538
    86  H   -0.012609
    87  C    0.023717
    88  C    0.023732
    89  C   -0.068223
    90  C    0.100141
    91  C    0.100276
    92  C   -0.068272
    93  C   -0.068762
    94  C   -0.068787
    95  N   -0.208904
    96  N    0.104167
    97  H   -0.005756
    98  H   -0.007131
    99  H   -0.011341
   100  H   -0.012737
   101  C    0.024019
   102  C    0.024027
   103  C   -0.068038
   104  C    0.100277
   105  C    0.100307
   106  C   -0.068005
   107  C   -0.068801
   108  C   -0.068820
   109  N   -0.208861
   110  H   -0.006988
   111  H   -0.006956
   112  H   -0.012609
   113  H   -0.012538
   114  Zn   0.672920
 Sum of Mulliken charges =  -0.00000
 Mulliken charges with hydrogens summed into heavy atoms:
               1
     1  C    0.017031
     2  C    0.017071
     3  C   -0.080647
     4  C    0.100277
     5  C    0.100307
     6  C   -0.080542
     7  C   -0.068801
     8  C   -0.068820
     9  N   -0.208861
    10  N    0.104246
    11  N    0.104167
    16  C    0.017961
    17  C    0.016601
    18  C   -0.079564
    19  C    0.100141
    20  C    0.100276
    21  C   -0.081008
    22  C   -0.068762
    23  C   -0.068787
    24  N   -0.208904
    25  N    0.104563
    30  C    0.017071
    31  C    0.017031
    32  C   -0.080542
    33  C    0.100307
    34  C    0.100277
    35  C   -0.080647
    36  C   -0.068820
    37  C   -0.068801
    38  N   -0.208861
    39  N    0.104167
    44  C    0.016601
    45  C    0.017961
    46  C   -0.081008
    47  C    0.100276
    48  C    0.100141
    49  C   -0.079564
    50  C   -0.068787
    51  C   -0.068762
    52  N   -0.208904
    57  Zn   0.672920
    58  C    0.016601
    59  C    0.017961
    60  C   -0.081008
    61  C    0.100276
    62  C    0.100141
    63  C   -0.079564
    64  C   -0.068787
    65  C   -0.068762
    66  N   -0.208904
    67  N    0.104563
    68  N    0.104167
    73  C    0.017071
    74  C    0.017031
    75  C   -0.080542
    76  C    0.100307
    77  C    0.100277
    78  C   -0.080647
    79  C   -0.068820
    80  C   -0.068801
    81  N   -0.208861
    82  N    0.104246
    87  C    0.017961
    88  C    0.016601
    89  C   -0.079564
    90  C    0.100141
    91  C    0.100276
    92  C   -0.081008
    93  C   -0.068762
    94  C   -0.068787
    95  N   -0.208904
    96  N    0.104167
   101  C    0.017031
   102  C    0.017071
   103  C   -0.080647
   104  C    0.100277
   105  C    0.100307
   106  C   -0.080542
   107  C   -0.068801
   108  C   -0.068820
   109  N   -0.208861
   114  Zn   0.672920
 Electronic spatial extent (au):  <R**2>=         165840.0251
 Charge=              0.0000 electrons
 Dipole moment (field-independent basis, Debye):
    X=             -0.0000    Y=              0.0000    Z=             -0.0000  Tot=              0.0000
 Quadrupole moment (field-independent basis, Debye-Ang):
   XX=           -488.7612   YY=           -424.1349   ZZ=           -423.0718
   XY=             -0.2604   XZ=             -0.0000   YZ=             -0.0000
 Traceless Quadrupole moment (field-independent basis, Debye-Ang):
   XX=            -43.4386   YY=             21.1878   ZZ=             22.2508
   XY=             -0.2604   XZ=             -0.0000   YZ=             -0.0000
 Octapole moment (field-independent basis, Debye-Ang**2):
  XXX=             -0.0000  YYY=             -0.0000  ZZZ=              0.0000  XYY=             -0.0000
  XXY=             -0.0000  XXZ=              0.0000  XZZ=              0.0000  YZZ=              0.0000
  YYZ=             -0.0000  XYZ=              0.0000
 Hexadecapole moment (field-independent basis, Debye-Ang**3):
 XXXX=         -26908.2674 YYYY=        -152317.5902 ZZZZ=         -27917.7600 XXXY=         -30806.0485
 XXXZ=              0.0000 YYYX=         -26660.0353 YYYZ=             -0.0000 ZZZX=             -0.0000
 ZZZY=              0.0000 XXYY=         -33424.9487 XXZZ=          -9458.9244 YYZZ=         -29329.1281
 XXYZ=              0.0000 YYXZ=              0.0000 ZZXY=          -8885.1320
 N-N= 1.314838218369D+04 E-N=-4.253065733782D+04  KE= 6.843172584251D+03
 Symmetry AG   KE= 2.404452244269D+03
 Symmetry BG   KE= 1.017134040244D+03
 Symmetry AU   KE= 1.017133605675D+03
 Symmetry BU   KE= 2.404452694063D+03

 Test job not archived.
 1\1\ WCSS.PL-BEM-KETKOV-PC1\SP\RLC-BLYP\def2SVP\C64H32N16Zn2\SERGEY\10
 -Apr-2026\0\\# lc-blyp/def2svp iop(3/107=0350000000,3/108=0350000000)\
 \monomer geom r2scan-3c\\0,1\C,0,-4.138371,5.130673,0.\C,0,-5.130673,4
 .138371,0.\C,0,-2.787666,4.799485,0.\C,0,-2.454083,3.449643,0.\C,0,-3.
 449643,2.454083,0.\C,0,-4.799485,2.787666,0.\C,0,-1.173513,2.758029,0.
 \C,0,-2.758029,1.173513,0.\N,0,-1.406507,1.406507,0.\N,0,-3.380774,0.,
 0.\N,0,0.,3.380774,0.\H,0,-4.434605,6.175603,0.\H,0,-6.175603,4.434605
 ,0.\H,0,-2.014157,5.561043,0.\H,0,-5.561043,2.014157,0.\C,0,5.130673,4
 .138371,0.\C,0,4.138371,5.130673,0.\C,0,4.799485,2.787666,0.\C,0,3.449
 643,2.454083,0.\C,0,2.454083,3.449643,0.\C,0,2.787666,4.799485,0.\C,0,
 2.758029,1.173513,0.\C,0,1.173513,2.758029,0.\N,0,1.406507,1.406507,0.
 \N,0,3.380774,0.,0.\H,0,6.175603,4.434605,0.\H,0,4.434605,6.175603,0.\
 H,0,5.561043,2.014157,0.\H,0,2.014157,5.561043,0.\C,0,-5.130673,-4.138
 371,0.\C,0,-4.138371,-5.130673,0.\C,0,-4.799485,-2.787666,0.\C,0,-3.44
 9643,-2.454083,0.\C,0,-2.454083,-3.449643,0.\C,0,-2.787666,-4.799485,0
 .\C,0,-2.758029,-1.173513,0.\C,0,-1.173513,-2.758029,0.\N,0,-1.406507,
 -1.406507,0.\N,0,0.,-3.380774,0.\H,0,-6.175603,-4.434605,0.\H,0,-4.434
 605,-6.175603,0.\H,0,-5.561043,-2.014157,0.\H,0,-2.014157,-5.561043,0.
 \C,0,4.138371,-5.130673,0.\C,0,5.130673,-4.138371,0.\C,0,2.787666,-4.7
 99485,0.\C,0,2.454083,-3.449643,0.\C,0,3.449643,-2.454083,0.\C,0,4.799
 485,-2.787666,0.\C,0,1.173513,-2.758029,0.\C,0,2.758029,-1.173513,0.\N
 ,0,1.406507,-1.406507,0.\H,0,4.434605,-6.175603,0.\H,0,6.175603,-4.434
 605,0.\H,0,2.014157,-5.561043,0.\H,0,5.561043,-2.014157,0.\Zn,0,0.,0.,
 0.\C,0,9.861629,5.130673,6.\C,0,8.869327,4.138371,6.\C,0,11.212334,4.7
 99485,6.\C,0,11.545917,3.449643,6.\C,0,10.550357,2.454083,6.\C,0,9.200
 515,2.787666,6.\C,0,12.826487,2.758029,6.\C,0,11.241971,1.173513,6.\N,
 0,12.593493,1.406507,6.\N,0,10.619226,0.,6.\N,0,14.,3.380774,6.\H,0,9.
 565395,6.175603,6.\H,0,7.824397,4.434605,6.\H,0,11.985843,5.561043,6.\
 H,0,8.438957,2.014157,6.\C,0,19.130673,4.138371,6.\C,0,18.138371,5.130
 673,6.\C,0,18.799485,2.787666,6.\C,0,17.449643,2.454083,6.\C,0,16.4540
 83,3.449643,6.\C,0,16.787666,4.799485,6.\C,0,16.758029,1.173513,6.\C,0
 ,15.173513,2.758029,6.\N,0,15.406507,1.406507,6.\N,0,17.380774,0.,6.\H
 ,0,20.175603,4.434605,6.\H,0,18.434605,6.175603,6.\H,0,19.561043,2.014
 157,6.\H,0,16.014157,5.561043,6.\C,0,8.869327,-4.138371,6.\C,0,9.86162
 9,-5.130673,6.\C,0,9.200515,-2.787666,6.\C,0,10.550357,-2.454083,6.\C,
 0,11.545917,-3.449643,6.\C,0,11.212334,-4.799485,6.\C,0,11.241971,-1.1
 73513,6.\C,0,12.826487,-2.758029,6.\N,0,12.593493,-1.406507,6.\N,0,14.
 ,-3.380774,6.\H,0,7.824397,-4.434605,6.\H,0,9.565395,-6.175603,6.\H,0,
 8.438957,-2.014157,6.\H,0,11.985843,-5.561043,6.\C,0,18.138371,-5.1306
 73,6.\C,0,19.130673,-4.138371,6.\C,0,16.787666,-4.799485,6.\C,0,16.454
 083,-3.449643,6.\C,0,17.449643,-2.454083,6.\C,0,18.799485,-2.787666,6.
 \C,0,15.173513,-2.758029,6.\C,0,16.758029,-1.173513,6.\N,0,15.406507,-
 1.406507,6.\H,0,18.434605,-6.175603,6.\H,0,20.175603,-4.434605,6.\H,0,
 16.014157,-5.561043,6.\H,0,19.561043,-2.014157,6.\Zn,0,14.,0.,6.\\Vers
 ion=ES64L-G09RevE.01\State=1-AG\HF=-6881.156193\RMSD=6.541e-09\Dipole=
 0.,0.,0.\Quadrupole=15.7525759,16.5429369,-32.2955127,0.,-0.1936102,0.
 \PG=C02H [SGH(N4Zn2),X(C64H32N12)]\\@


 THE VALUE OF PHILOSOPHY IS, IN FACT, TO BE SOUGHT LARGELY IN ITS
 VERY UNCERTAINTY.  THE MAN WHO HAS NO TINCTURE OF PHILOSOPHY GOES
 THROUGH LIFE IMPRISONED IN THE PREJUDICES DERIVED FROM COMMON SENSE,
 FROM THE HABITUAL BELIEFS OF HIS AGE OR HIS NATION, AND FROM
 CONVICTIONS WHICH HAVE GROWN UP IN HIS MIND WITHOUT THE CO-OPERATION
 OR CONSENT OF HIS DELIBERATE REASON.  TO SUCH A MAN THE WORLD TENDS
 TO BE DEFINITE, FINITE, OBVIOUS; COMMON OBJECTS ROUSE NO QUESTIONS,
 AND UNFAMILIAR POSSIBILITIES ARE CONTEMPTUOUSLY REJECTED.

                             -- BERTRAND RUSSELL
 Job cpu time:       0 days  0 hours 29 minutes 40.1 seconds.
 File lengths (MBytes):  RWF=    939 Int=      0 D2E=      0 Chk=     91 Scr=      1
 Normal termination of Gaussian 09 at Fri Apr 10 23:38:16 2026.
 Initial command:
 /home/sergey/g09/l1.exe "/home/sergey/SCRATCH/Gau-9411.inp" -scrdir="/home/sergey/SCRATCH/"
 Entering Link 1 = /home/sergey/g09/l1.exe PID=      9648.
  
 Copyright (c) 1988,1990,1992,1993,1995,1998,2003,2009,2015,
            Gaussian, Inc.  All Rights Reserved.
  
 This is part of the Gaussian(R) 09 program.  It is based on
 the Gaussian(R) 03 system (copyright 2003, Gaussian, Inc.),
 the Gaussian(R) 98 system (copyright 1998, Gaussian, Inc.),
 the Gaussian(R) 94 system (copyright 1995, Gaussian, Inc.),
 the Gaussian 92(TM) system (copyright 1992, Gaussian, Inc.),
 the Gaussian 90(TM) system (copyright 1990, Gaussian, Inc.),
 the Gaussian 88(TM) system (copyright 1988, Gaussian, Inc.),
 the Gaussian 86(TM) system (copyright 1986, Carnegie Mellon
 University), and the Gaussian 82(TM) system (copyright 1983,
 Carnegie Mellon University). Gaussian is a federally registered
 trademark of Gaussian, Inc.
  
 This software contains proprietary and confidential information,
 including trade secrets, belonging to Gaussian, Inc.
  
 This software is provided under written license and may be
 used, copied, transmitted, or stored only in accord with that
 written license.
  
 The following legend is applicable only to US Government
 contracts under FAR:
  
                    RESTRICTED RIGHTS LEGEND
  
 Use, reproduction and disclosure by the US Government is
 subject to restrictions as set forth in subparagraphs (a)
 and (c) of the Commercial Computer Software - Restricted
 Rights clause in FAR 52.227-19.
  
 Gaussian, Inc.
 340 Quinnipiac St., Bldg. 40, Wallingford CT 06492
  
  
 ---------------------------------------------------------------
 Warning -- This program may not be used in any manner that
 competes with the business of Gaussian, Inc. or will provide
 assistance to any competitor of Gaussian, Inc.  The licensee
 of this program is prohibited from giving any competitor of
 Gaussian, Inc. access to this program.  By using this program,
 the user acknowledges that Gaussian, Inc. is engaged in the
 business of creating and licensing software in the field of
 computational chemistry and represents and warrants to the
 licensee that it is not a competitor of Gaussian, Inc. and that
 it will not use this program in any manner prohibited above.
 ---------------------------------------------------------------
  

 Cite this work as:
 Gaussian 09, Revision E.01,
 M. J. Frisch, G. W. Trucks, H. B. Schlegel, G. E. Scuseria, 
 M. A. Robb, J. R. Cheeseman, G. Scalmani, V. Barone, B. Mennucci, 
 G. A. Petersson, H. Nakatsuji, M. Caricato, X. Li, H. P. Hratchian, 
 A. F. Izmaylov, J. Bloino, G. Zheng, J. L. Sonnenberg, M. Hada, 
 M. Ehara, K. Toyota, R. Fukuda, J. Hasegawa, M. Ishida, T. Nakajima, 
 Y. Honda, O. Kitao, H. Nakai, T. Vreven, J. A. Montgomery, Jr., 
 J. E. Peralta, F. Ogliaro, M. Bearpark, J. J. Heyd, E. Brothers, 
 K. N. Kudin, V. N. Staroverov, T. Keith, R. Kobayashi, J. Normand, 
 K. Raghavachari, A. Rendell, J. C. Burant, S. S. Iyengar, J. Tomasi, 
 M. Cossi, N. Rega, J. M. Millam, M. Klene, J. E. Knox, J. B. Cross, 
 V. Bakken, C. Adamo, J. Jaramillo, R. Gomperts, R. E. Stratmann, 
 O. Yazyev, A. J. Austin, R. Cammi, C. Pomelli, J. W. Ochterski, 
 R. L. Martin, K. Morokuma, V. G. Zakrzewski, G. A. Voth, 
 P. Salvador, J. J. Dannenberg, S. Dapprich, A. D. Daniels, 
 O. Farkas, J. B. Foresman, J. V. Ortiz, J. Cioslowski, 
 and D. J. Fox, Gaussian, Inc., Wallingford CT, 2013.
 
 ******************************************
 Gaussian 09:  ES64L-G09RevE.01 30-Nov-2015
                10-Apr-2026 
 ******************************************
 %chk=ZnPc_60_140.chk
 %mem=60GB
 %nproc=6
 Will use up to    6 processors via shared memory.
 Default route:  MaxDisk=477GB
 ----------------------------------------------------------------------
 # td(nstates=4) lc-blyp/gen iop(3/107=0350000000,3/108=0350000000) geo
 m=check guess=read
 ----------------------------------------------------------------------
 1/29=2,38=1/1;
 2/12=2,40=1/2;
 3/5=7,11=9,14=-4,16=1,25=1,30=1,74=1000402,107=350000000,108=350000000,116=-2/1,2,8,3;
 4/5=1/1;
 5/5=2,38=6/2;
 8/6=1,10=1,108=4/1;
 9/41=4,42=1,70=2/14;
 6/7=2,8=2,9=2,10=2/1;
 99/5=1,9=1/99;
 ----------------------------------
 def2tzvp-f, monomer geom r2scan-3c
 ----------------------------------
 Structure from the checkpoint file:  "ZnPc_60_140.chk"
 Charge =  0 Multiplicity = 1
 Z-Matrix found in file.
 C,0,-4.138371,5.130673,0.
 C,0,-5.130673,4.138371,0.
 C,0,-2.787666,4.799485,0.
 C,0,-2.454083,3.449643,0.
 C,0,-3.449643,2.454083,0.
 C,0,-4.799485,2.787666,0.
 C,0,-1.173513,2.758029,0.
 C,0,-2.758029,1.173513,0.
 N,0,-1.406507,1.406507,0.
 N,0,-3.380774,0.,0.
 N,0,0.,3.380774,0.
 H,0,-4.434605,6.175603,0.
 H,0,-6.175603,4.434605,0.
 H,0,-2.014157,5.561043,0.
 H,0,-5.561043,2.014157,0.
 C,0,5.130673,4.138371,0.
 C,0,4.138371,5.130673,0.
 C,0,4.799485,2.787666,0.
 C,0,3.449643,2.454083,0.
 C,0,2.454083,3.449643,0.
 C,0,2.787666,4.799485,0.
 C,0,2.758029,1.173513,0.
 C,0,1.173513,2.758029,0.
 N,0,1.406507,1.406507,0.
 N,0,3.380774,0.,0.
 H,0,6.175603,4.434605,0.
 H,0,4.434605,6.175603,0.
 H,0,5.561043,2.014157,0.
 H,0,2.014157,5.561043,0.
 C,0,-5.130673,-4.138371,0.
 C,0,-4.138371,-5.130673,0.
 C,0,-4.799485,-2.787666,0.
 C,0,-3.449643,-2.454083,0.
 C,0,-2.454083,-3.449643,0.
 C,0,-2.787666,-4.799485,0.
 C,0,-2.758029,-1.173513,0.
 C,0,-1.173513,-2.758029,0.
 N,0,-1.406507,-1.406507,0.
 N,0,0.,-3.380774,0.
 H,0,-6.175603,-4.434605,0.
 H,0,-4.434605,-6.175603,0.
 H,0,-5.561043,-2.014157,0.
 H,0,-2.014157,-5.561043,0.
 C,0,4.138371,-5.130673,0.
 C,0,5.130673,-4.138371,0.
 C,0,2.787666,-4.799485,0.
 C,0,2.454083,-3.449643,0.
 C,0,3.449643,-2.454083,0.
 C,0,4.799485,-2.787666,0.
 C,0,1.173513,-2.758029,0.
 C,0,2.758029,-1.173513,0.
 N,0,1.406507,-1.406507,0.
 H,0,4.434605,-6.175603,0.
 H,0,6.175603,-4.434605,0.
 H,0,2.014157,-5.561043,0.
 H,0,5.561043,-2.014157,0.
 Zn,0,0.,0.,0.
 C,0,9.861629,5.130673,6.
 C,0,8.869327,4.138371,6.
 C,0,11.212334,4.799485,6.
 C,0,11.545917,3.449643,6.
 C,0,10.550357,2.454083,6.
 C,0,9.200515,2.787666,6.
 C,0,12.826487,2.758029,6.
 C,0,11.241971,1.173513,6.
 N,0,12.593493,1.406507,6.
 N,0,10.619226,0.,6.
 N,0,14.,3.380774,6.
 H,0,9.565395,6.175603,6.
 H,0,7.824397,4.434605,6.
 H,0,11.985843,5.561043,6.
 H,0,8.438957,2.014157,6.
 C,0,19.130673,4.138371,6.
 C,0,18.138371,5.130673,6.
 C,0,18.799485,2.787666,6.
 C,0,17.449643,2.454083,6.
 C,0,16.454083,3.449643,6.
 C,0,16.787666,4.799485,6.
 C,0,16.758029,1.173513,6.
 C,0,15.173513,2.758029,6.
 N,0,15.406507,1.406507,6.
 N,0,17.380774,0.,6.
 H,0,20.175603,4.434605,6.
 H,0,18.434605,6.175603,6.
 H,0,19.561043,2.014157,6.
 H,0,16.014157,5.561043,6.
 C,0,8.869327,-4.138371,6.
 C,0,9.861629,-5.130673,6.
 C,0,9.200515,-2.787666,6.
 C,0,10.550357,-2.454083,6.
 C,0,11.545917,-3.449643,6.
 C,0,11.212334,-4.799485,6.
 C,0,11.241971,-1.173513,6.
 C,0,12.826487,-2.758029,6.
 N,0,12.593493,-1.406507,6.
 N,0,14.,-3.380774,6.
 H,0,7.824397,-4.434605,6.
 H,0,9.565395,-6.175603,6.
 H,0,8.438957,-2.014157,6.
 H,0,11.985843,-5.561043,6.
 C,0,18.138371,-5.130673,6.
 C,0,19.130673,-4.138371,6.
 C,0,16.787666,-4.799485,6.
 C,0,16.454083,-3.449643,6.
 C,0,17.449643,-2.454083,6.
 C,0,18.799485,-2.787666,6.
 C,0,15.173513,-2.758029,6.
 C,0,16.758029,-1.173513,6.
 N,0,15.406507,-1.406507,6.
 H,0,18.434605,-6.175603,6.
 H,0,20.175603,-4.434605,6.
 H,0,16.014157,-5.561043,6.
 H,0,19.561043,-2.014157,6.
 Zn,0,14.,0.,6.
 Recover connectivity data from disk.
 Stoichiometry    C64H32N16Zn2
 Framework group  C2H[SGH(N4Zn2),X(C64H32N12)]
 Deg. of freedom    86
 Full point group                 C2H     NOp   4
 Largest Abelian subgroup         C2H     NOp   4
 Largest concise Abelian subgroup C2H     NOp   4
                         Standard orientation:                         
 ---------------------------------------------------------------------
 Center     Atomic      Atomic             Coordinates (Angstroms)
 Number     Number       Type             X           Y           Z
 ---------------------------------------------------------------------
      1          6           0        3.000000   11.138371    5.130673
      2          6           0        3.000000   12.130673    4.138371
      3          6           0        3.000000    9.787666    4.799485
      4          6           0        3.000000    9.454083    3.449643
      5          6           0        3.000000   10.449643    2.454083
      6          6           0        3.000000   11.799485    2.787666
      7          6           0        3.000000    8.173513    2.758029
      8          6           0        3.000000    9.758029    1.173513
      9          7           0        3.000000    8.406507    1.406507
     10          7           0        3.000000   10.380774    0.000000
     11          7           0        3.000000    7.000000    3.380774
     12          1           0        3.000000   11.434605    6.175603
     13          1           0        3.000000   13.175603    4.434605
     14          1           0        3.000000    9.014157    5.561043
     15          1           0        3.000000   12.561043    2.014157
     16          6           0        3.000000    1.869327    4.138371
     17          6           0        3.000000    2.861629    5.130673
     18          6           0        3.000000    2.200515    2.787666
     19          6           0        3.000000    3.550357    2.454083
     20          6           0        3.000000    4.545917    3.449643
     21          6           0        3.000000    4.212334    4.799485
     22          6           0        3.000000    4.241971    1.173513
     23          6           0        3.000000    5.826487    2.758029
     24          7           0        3.000000    5.593493    1.406507
     25          7           0        3.000000    3.619226    0.000000
     26          1           0        3.000000    0.824397    4.434605
     27          1           0        3.000000    2.565395    6.175603
     28          1           0        3.000000    1.438957    2.014157
     29          1           0        3.000000    4.985843    5.561043
     30          6           0        3.000000   12.130673   -4.138371
     31          6           0        3.000000   11.138371   -5.130673
     32          6           0        3.000000   11.799485   -2.787666
     33          6           0        3.000000   10.449643   -2.454083
     34          6           0        3.000000    9.454083   -3.449643
     35          6           0        3.000000    9.787666   -4.799485
     36          6           0        3.000000    9.758029   -1.173513
     37          6           0        3.000000    8.173513   -2.758029
     38          7           0        3.000000    8.406507   -1.406507
     39          7           0        3.000000    7.000000   -3.380774
     40          1           0        3.000000   13.175603   -4.434605
     41          1           0        3.000000   11.434605   -6.175603
     42          1           0        3.000000   12.561043   -2.014157
     43          1           0        3.000000    9.014157   -5.561043
     44          6           0        3.000000    2.861629   -5.130673
     45          6           0        3.000000    1.869327   -4.138371
     46          6           0        3.000000    4.212334   -4.799485
     47          6           0        3.000000    4.545917   -3.449643
     48          6           0        3.000000    3.550357   -2.454083
     49          6           0        3.000000    2.200515   -2.787666
     50          6           0        3.000000    5.826487   -2.758029
     51          6           0        3.000000    4.241971   -1.173513
     52          7           0        3.000000    5.593493   -1.406507
     53          1           0        3.000000    2.565395   -6.175603
     54          1           0        3.000000    0.824397   -4.434605
     55          1           0        3.000000    4.985843   -5.561043
     56          1           0        3.000000    1.438957   -2.014157
     57         30           0        3.000000    7.000000    0.000000
     58          6           0       -3.000000   -2.861629    5.130673
     59          6           0       -3.000000   -1.869327    4.138371
     60          6           0       -3.000000   -4.212334    4.799485
     61          6           0       -3.000000   -4.545917    3.449643
     62          6           0       -3.000000   -3.550357    2.454083
     63          6           0       -3.000000   -2.200515    2.787666
     64          6           0       -3.000000   -5.826487    2.758029
     65          6           0       -3.000000   -4.241971    1.173513
     66          7           0       -3.000000   -5.593493    1.406507
     67          7           0       -3.000000   -3.619226    0.000000
     68          7           0       -3.000000   -7.000000    3.380774
     69          1           0       -3.000000   -2.565395    6.175603
     70          1           0       -3.000000   -0.824397    4.434605
     71          1           0       -3.000000   -4.985843    5.561043
     72          1           0       -3.000000   -1.438957    2.014157
     73          6           0       -3.000000  -12.130673    4.138371
     74          6           0       -3.000000  -11.138371    5.130673
     75          6           0       -3.000000  -11.799485    2.787666
     76          6           0       -3.000000  -10.449643    2.454083
     77          6           0       -3.000000   -9.454083    3.449643
     78          6           0       -3.000000   -9.787666    4.799485
     79          6           0       -3.000000   -9.758029    1.173513
     80          6           0       -3.000000   -8.173513    2.758029
     81          7           0       -3.000000   -8.406507    1.406507
     82          7           0       -3.000000  -10.380774    0.000000
     83          1           0       -3.000000  -13.175603    4.434605
     84          1           0       -3.000000  -11.434605    6.175603
     85          1           0       -3.000000  -12.561043    2.014157
     86          1           0       -3.000000   -9.014157    5.561043
     87          6           0       -3.000000   -1.869327   -4.138371
     88          6           0       -3.000000   -2.861629   -5.130673
     89          6           0       -3.000000   -2.200515   -2.787666
     90          6           0       -3.000000   -3.550357   -2.454083
     91          6           0       -3.000000   -4.545917   -3.449643
     92          6           0       -3.000000   -4.212334   -4.799485
     93          6           0       -3.000000   -4.241971   -1.173513
     94          6           0       -3.000000   -5.826487   -2.758029
     95          7           0       -3.000000   -5.593493   -1.406507
     96          7           0       -3.000000   -7.000000   -3.380774
     97          1           0       -3.000000   -0.824397   -4.434605
     98          1           0       -3.000000   -2.565395   -6.175603
     99          1           0       -3.000000   -1.438957   -2.014157
    100          1           0       -3.000000   -4.985843   -5.561043
    101          6           0       -3.000000  -11.138371   -5.130673
    102          6           0       -3.000000  -12.130673   -4.138371
    103          6           0       -3.000000   -9.787666   -4.799485
    104          6           0       -3.000000   -9.454083   -3.449643
    105          6           0       -3.000000  -10.449643   -2.454083
    106          6           0       -3.000000  -11.799485   -2.787666
    107          6           0       -3.000000   -8.173513   -2.758029
    108          6           0       -3.000000   -9.758029   -1.173513
    109          7           0       -3.000000   -8.406507   -1.406507
    110          1           0       -3.000000  -11.434605   -6.175603
    111          1           0       -3.000000  -13.175603   -4.434605
    112          1           0       -3.000000   -9.014157   -5.561043
    113          1           0       -3.000000  -12.561043   -2.014157
    114         30           0       -3.000000   -7.000000    0.000000
 ---------------------------------------------------------------------
 Rotational constants (GHZ):      0.0393174      0.0064671      0.0057471
 General basis read from cards:  (5D, 7F)
 There are   618 symmetry adapted cartesian basis functions of AG  symmetry.
 There are   573 symmetry adapted cartesian basis functions of BG  symmetry.
 There are   573 symmetry adapted cartesian basis functions of AU  symmetry.
 There are   618 symmetry adapted cartesian basis functions of BU  symmetry.
 There are   570 symmetry adapted basis functions of AG  symmetry.
 There are   534 symmetry adapted basis functions of BG  symmetry.
 There are   534 symmetry adapted basis functions of AU  symmetry.
 There are   570 symmetry adapted basis functions of BU  symmetry.
  2208 basis functions,  3746 primitive gaussians,  2382 cartesian basis functions
   294 alpha electrons      294 beta electrons
       nuclear repulsion energy     13148.3821836857 Hartrees.
 NAtoms=  114 NActive=  114 NUniq=   30 SFac= 4.00D+00 NAtFMM=   60 NAOKFM=T Big=F
 Integral buffers will be    131072 words long.
 Raffenetti 1 integral format.
 Two-electron integral symmetry is turned on.
 One-electron integrals computed using PRISM.
 NBasis=  2208 RedAO= T EigKep=  1.25D-06  NBF=   570   534   534   570
 NBsUse=  2208 1.00D-06 EigRej= -1.00D+00 NBFU=   570   534   534   570
 Initial guess from the checkpoint file:  "ZnPc_60_140.chk"
 B after Tr=     0.000000   -0.000000   -0.000000
         Rot=    1.000000    0.000000    0.000000    0.000000 Ang=   0.00 deg.
 Initial guess orbital symmetries:
       Occupied  (BU) (AG) (BU) (AG) (BU) (AG) (BU) (AG) (BG) (AU)
                 (BG) (AU) (BU) (AG) (BG) (AU) (BU) (AG) (BU) (AG)
                 (BU) (AG) (AU) (BG) (BU) (AG) (BU) (AG) (BG) (AU)
                 (BU) (AG) (BG) (AU) (BU) (AG) (BU) (AG) (BG) (AU)
                 (BG) (AU) (BG) (AU) (BU) (AG) (BG) (AU) (AG) (BU)
                 (BG) (AU) (AG) (BU) (BG) (AU) (BU) (AG) (BU) (AG)
                 (BG) (AU) (BG) (AU) (BU) (AG) (BG) (AU) (BU) (AG)
                 (AU) (BG) (AG) (BU) (AU) (BG) (AG) (BU) (AU) (BG)
                 (AG) (BU) (AU) (BG) (AG) (BU) (AU) (BG) (AG) (BU)
                 (BU) (AG) (BU) (AG) (AG) (BU) (BG) (AU) (AG) (BU)
                 (AU) (BG) (AG) (BU) (AU) (BG) (AG) (BU) (AU) (BG)
                 (AG) (BU) (AG) (BU) (AU) (BG) (AG) (BU) (AU) (BG)
                 (AG) (BU) (AU) (BG) (AG) (BU) (AU) (BG) (AG) (BU)
                 (AG) (BU) (AU) (BG) (AU) (BG) (AG) (BU) (AU) (BG)
                 (AG) (BU) (AU) (BG) (AU) (BG) (AG) (BU) (AG) (BU)
                 (AU) (BG) (AG) (BU) (AU) (BG) (AG) (BU) (AU) (AG)
                 (BG) (BU) (AU) (BG) (AG) (BU) (AU) (BG) (AG) (BU)
                 (AU) (BG) (AU) (BG) (AG) (BU) (AU) (BG) (AG) (BU)
                 (AG) (BU) (AU) (BG) (AG) (BU) (AG) (BU) (AU) (BG)
                 (AU) (BG) (AG) (BU) (AU) (BG) (AG) (BU) (AG) (BU)
                 (AU) (BG) (AU) (BG) (AU) (BG) (AG) (BU) (AG) (BU)
                 (AG) (BU) (AG) (BU) (AU) (BG) (AG) (BU) (AU) (BG)
                 (AU) (BG) (AU) (BG) (AG) (BU) (AU) (BG) (AG) (BU)
                 (AG) (BU) (AG) (BU) (AU) (BG) (AG) (BU) (AG) (BU)
                 (AG) (BU) (AU) (BG) (AU) (BG) (AU) (BG) (AG) (BU)
                 (AU) (BG) (AG) (BU) (AU) (BG) (AG) (BU) (AU) (BG)
                 (AU) (BG) (AG) (BU) (AG) (BU) (AU) (BG) (AG) (BU)
                 (AU) (BG) (AG) (BU) (AG) (BU) (AG) (BU) (AG) (BU)
                 (AU) (BG) (AU) (BG) (AG) (BU) (AU) (BG) (AU) (BG)
                 (AG) (BU) (AU) (BG)
       Virtual   (AU) (BG) (AG) (BU) (AG) (BU) (AU) (BG) (AG) (BU)
                 (AG) (BU) (AU) (BG) (AG) (BU) (AU) (BG) (AU) (BG)
                 (AG) (BU) (AU) (BG) (AG) (BU) (AU) (BG) (AG) (BU)
                 (AG) (BU) (AG) (BU) (AU) (BG) (AG) (BU) (AU) (AG)
                 (BU) (BG) (AG) (BU) (AU) (BG) (AG) (BU) (AU) (BG)
                 (AU) (AG) (BG) (BU) (AG) (BU) (AG) (BU) (AU) (BG)
                 (AG) (BU) (AU) (BG) (AU) (BG) (AU) (AG) (BG) (BU)
                 (AG) (BU) (AU) (BG) (AG) (BU) (AU) (BG) (AG) (BU)
                 (AU) (BG) (AG) (BU) (AG) (BU) (AU) (BG) (AG) (BU)
                 (AG) (BU) (AU) (BG) (AG) (BU) (AU) (BG) (AG) (BU)
                 (AG) (AU) (BU) (BG) (AU) (BG) (AU) (BG) (AU) (BG)
                 (AG) (BU) (AG) (BU) (AU) (AG) (BU) (BG) (AG) (BU)
                 (AU) (BG) (AU) (BG) (BG) (AU) (AG) (BU) (AU) (BG)
                 (BU) (AG) (BG) (AG) (BU) (AU) (AU) (BG) (BU) (AG)
                 (BU) (AG) (AU) (BU) (BG) (AG) (BU) (AU) (AG) (BG)
                 (AG) (BU) (AU) (BG) (AG) (BU) (AG) (BU) (AG) (BU)
                 (BG) (AU) (BG) (AU) (BU) (BG) (AG) (AU) (AU) (BG)
                 (AG) (BU) (AU) (BG) (AG) (BU) (AG) (BG) (AU) (BU)
                 (AU) (BG) (AG) (BU) (AU) (AG) (BU) (BG) (AU) (BG)
                 (AU) (BG) (AU) (BG) (AG) (BU) (AG) (BU) (AU) (BG)
                 (AG) (BU) (AG) (BU) (AU) (BG) (AG) (BU) (AG) (BU)
                 (AU) (AG) (BG) (BU) (AG) (BU) (AG) (BU) (AG) (AU)
                 (BU) (BG) (AU) (BG) (AU) (BG) (AU) (BG) (AU) (BG)
                 (AU) (BG) (AG) (BU) (AU) (AG) (BG) (BU) (AU) (BG)
                 (AG) (BU) (AG) (BU) (AG) (BU) (AU) (BG) (AG) (BU)
                 (AG) (BU) (AU) (BG) (AG) (BU) (AG) (BU) (AU) (BG)
                 (AG) (BU) (AU) (BG) (AU) (BG) (AU) (AG) (BU) (BG)
                 (AG) (BU) (AG) (BU) (AU) (BG) (AU) (BG) (AG) (BU)
                 (AU) (BG) (AG) (BU) (AU) (BG) (AG) (BU) (AG) (BU)
                 (AG) (BU) (AU) (BG) (AG) (BU) (AU) (BG) (AU) (BG)
                 (AU) (BG) (AG) (BU) (AU) (BG) (AU) (BG) (AG) (BU)
                 (AU) (AG) (BG) (BU) (AG) (BU) (AU) (BG) (AU) (BG)
                 (BU) (AG) (AG) (BU) (AU) (BG) (AG) (AU) (BG) (BU)
                 (AG) (BU) (AU) (BU) (AG) (BG) (AG) (BU) (BG) (AU)
                 (AG) (BU) (AU) (BG) (AG) (BU) (AU) (BG) (AG) (BU)
                 (AU) (BG) (AG) (AU) (BG) (BU) (AU) (BG) (AU) (BU)
                 (AG) (BG) (AU) (BG) (AU) (BG) (BU) (AG) (AG) (BU)
                 (AU) (BG) (AG) (BU) (AG) (AU) (BG) (BU) (AU) (BG)
                 (BG) (AU) (AG) (BU) (AG) (BU) (AG) (BU) (AU) (BG)
                 (AG) (BU) (AU) (BG) (AU) (AG) (BU) (BG) (AU) (BG)
                 (AG) (BU) (AG) (BU) (AU) (BG) (AG) (BU) (AU) (BG)
                 (AG) (BU) (AU) (BG) (AG) (BU) (AU) (BG) (AG) (BU)
                 (AG) (BU) (AU) (BG) (AU) (BG) (AG) (BU) (AG) (BU)
                 (AG) (BU) (BU) (AG) (AU) (BG) (BU) (AG) (BG) (AU)
                 (AG) (BU) (BG) (AU) (AU) (BG) (AG) (BU) (AU) (BG)
                 (AU) (BU) (BG) (AG) (BU) (AG) (AU) (BG) (AU) (BG)
                 (AG) (BU) (AG) (AU) (BU) (BG) (AG) (BU) (AU) (BG)
                 (AU) (BG) (AG) (BU) (AG) (AU) (BU) (BG) (AG) (BU)
                 (AU) (BG) (AG) (BU) (AG) (BU) (AU) (BG) (AG) (AU)
                 (BU) (BG) (AU) (BG) (AG) (BU) (AG) (BU) (AG) (BU)
                 (AG) (BU) (AU) (BG) (AU) (BG) (AG) (BU) (AU) (BG)
                 (AU) (BG) (AG) (BU) (AU) (BG) (AU) (BG) (AU) (AG)
                 (BG) (BU) (AG) (BU) (AU) (BG) (AG) (BU) (AG) (BU)
                 (AG) (BU) (AU) (BG) (AU) (BG) (AU) (BG) (AU) (BG)
                 (AG) (AU) (BG) (BU) (AG) (BU) (AU) (BG) (AU) (BG)
                 (AG) (BU) (AG) (BU) (AG) (BU) (AU) (BG) (AU) (AG)
                 (BU) (BG) (BG) (AU) (AG) (BU) (AU) (AG) (BG) (BU)
                 (AU) (BG) (AU) (AG) (BU) (BG) (AU) (BG) (AU) (BG)
                 (AG) (BU) (AG) (AU) (BU) (BG) (AG) (BU) (AG) (BU)
                 (AU) (BG) (AG) (BU) (AG) (BU) (AU) (BG) (AG) (BU)
                 (AU) (BG) (AG) (BU) (AU) (BG) (AG) (BU) (AU) (BG)
                 (AU) (BG) (AG) (BU) (AG) (BU) (AU) (BG) (AG) (BU)
                 (AU) (BG) (AG) (BU) (BU) (AG) (AU) (BG) (AU) (BG)
                 (AU) (BG) (AG) (BU) (AG) (BU) (AU) (BG) (AG) (BU)
                 (AU) (BG) (AG) (BU) (AU) (BG) (AG) (BU) (AG) (BU)
                 (AU) (BG) (AG) (AU) (BU) (BG) (AU) (BG) (AG) (BU)
                 (BG) (AU) (AG) (BU) (AG) (AU) (BU) (BG) (BG) (AU)
                 (AU) (BG) (AG) (BU) (BG) (AU) (AG) (BU) (BU) (AG)
                 (AG) (BU) (AU) (BG) (AG) (BU) (AG) (BU) (AU) (BG)
                 (AU) (BG) (AG) (BU) (AU) (BG) (AG) (BU) (AU) (BG)
                 (AG) (BU) (AG) (BU) (AU) (BG) (BG) (AU) (AU) (AG)
                 (BU) (BG) (AG) (BU) (AU) (BG) (AG) (BU) (AG) (BU)
                 (AG) (BU) (AU) (BG) (AG) (BU) (AU) (BG) (BG) (AU)
                 (AG) (BU) (AU) (BG) (AU) (BG) (AU) (BG) (AG) (BU)
                 (AG) (BU) (BG) (AU) (AU) (BG) (AG) (BU) (AG) (BU)
                 (AG) (BU) (AU) (BG) (AU) (BG) (AG) (BU) (AG) (BU)
                 (AU) (BG) (AU) (BG) (AG) (BU) (AU) (BG) (AU) (BG)
                 (BU) (AG) (AU) (BG) (AG) (BU) (BG) (AU) (AG) (BU)
                 (BG) (AU) (AG) (BU) (AG) (BU) (AU) (BG) (AG) (BU)
                 (AU) (BG) (AG) (BU) (AU) (BG) (AG) (BU) (AU) (BG)
                 (AU) (BG) (AG) (BU) (AU) (BG) (AG) (BU) (AG) (BU)
                 (AU) (BG) (AG) (BU) (AG) (BU) (AU) (BG) (AG) (BU)
                 (AU) (BG) (AU) (BG) (AU) (BG) (AG) (BU) (AU) (BG)
                 (AG) (BU) (AG) (BU) (AU) (AG) (BG) (BU) (AU) (BG)
                 (AU) (BG) (AU) (BG) (AU) (BG) (AG) (BU) (AG) (BU)
                 (AG) (BU) (AU) (BG) (AG) (BU) (AG) (BU) (AU) (BG)
                 (AG) (BU) (AU) (BG) (AG) (BU) (AG) (BU) (AG) (BU)
                 (AU) (BG) (AU) (BG) (AG) (BU) (AU) (BG) (AU) (BG)
                 (BG) (BU) (AG) (AU) (BU) (AG) (AU) (BG) (BG) (AU)
                 (AU) (BG) (AG) (BU) (AG) (BU) (AU) (BG) (AU) (BG)
                 (AG) (BU) (BU) (AG) (AG) (BU) (AG) (BU) (AU) (BG)
                 (AU) (BG) (BU) (AG) (AG) (BU) (AU) (BG) (AG) (BU)
                 (AG) (BU) (AG) (BU) (AG) (AU) (BU) (BG) (AU) (BG)
                 (AG) (BU) (AU) (BG) (BU) (AG) (AU) (BG) (AG) (AU)
                 (BG) (BU) (AG) (BU) (AU) (BG) (BG) (AU) (AG) (AU)
                 (BU) (BG) (AG) (BU) (AU) (BG) (AG) (BU) (AU) (BG)
                 (AU) (BG) (AG) (BU) (AU) (BG) (BG) (AU) (BU) (AG)
                 (BG) (AU) (AG) (BU) (AG) (BG) (AU) (BU) (AU) (BG)
                 (BU) (AG) (AU) (BG) (BU) (AG) (AG) (BU) (AU) (BG)
                 (AG) (BU) (AU) (BG) (AU) (BG) (AG) (AU) (BU) (BG)
                 (AG) (BU) (AU) (BG) (AU) (BG) (AG) (BU) (AG) (BU)
                 (AG) (BU) (AU) (BG) (AU) (BG) (AG) (BU) (AG) (BU)
                 (AU) (BG) (AG) (AU) (BU) (BG) (AU) (BG) (AU) (AG)
                 (BG) (BU) (AG) (BU) (AG) (BU) (AG) (BU) (AU) (BG)
                 (BU) (AG) (AU) (BG) (AU) (AG) (BU) (BG) (AG) (AG)
                 (AG) (AG) (AG) (AG) (AG) (AG) (AG) (AG) (AG) (AG)
                 (AG) (AG) (AG) (AG) (AG) (AG) (AG) (AG) (AG) (AG)
                 (AG) (AG) (AG) (AG) (AG) (AG) (AG) (AG) (AG) (AG)
                 (AG) (AG) (AG) (AG) (AG) (AG) (AG) (AG) (AG) (AG)
                 (AG) (AG) (AG) (AG) (AG) (AG) (AG) (AG) (AG) (AG)
                 (AG) (AG) (AG) (AG) (AG) (AG) (AG) (AG) (AG) (AG)
                 (AG) (AG) (AG) (AG) (AG) (AG) (AG) (AG) (AG) (AG)
                 (AG) (AG) (AG) (AG) (AG) (AG) (AG) (AG) (AG) (AG)
                 (AG) (AG) (AG) (AG) (AG) (AG) (AG) (AG) (AG) (AG)
                 (AG) (AG) (AG) (AG) (AG) (AG) (AG) (AG) (AG) (AG)
                 (AG) (AG) (AG) (AG) (AG) (AG) (AG) (AG) (AG) (AG)
                 (AG) (AG) (AG) (AG) (AG) (AG) (AG) (AG) (AG) (AG)
                 (AG) (AG) (AG) (AG) (AG) (AG) (AG) (AG) (AG) (AG)
                 (AG) (AG) (AG) (AG) (AG) (AG) (AG) (AG) (AG) (AG)
                 (AG) (AG) (AG) (AG) (AG) (AG) (AG) (AG) (AG) (AG)
                 (AG) (AG) (AG) (AG) (AG) (AG) (AG) (AG) (AG) (AG)
                 (AG) (AG) (AG) (AG) (AG) (AG) (AG) (AG) (AG) (AG)
                 (AG) (AG) (AG) (AG) (AG) (AG) (AG) (AG) (AG) (AG)
                 (AG) (AG) (AG) (AG) (AG) (AG) (AG) (AG) (AG) (AG)
                 (AG) (AG) (AG) (AG) (AG) (AG) (AG) (AG) (AG) (AG)
                 (AG) (AG) (AG) (AG) (AG) (AG) (AG) (AG) (AG) (AG)
                 (AG) (AG) (AG) (AG) (AG) (AG) (AG) (AG) (AG) (AG)
                 (AG) (BG) (BG) (BG) (BG) (BG) (BG) (BG) (BG) (BG)
                 (BG) (BG) (BG) (BG) (BG) (BG) (BG) (BG) (BG) (BG)
                 (BG) (BG) (BG) (BG) (BG) (BG) (BG) (BG) (BG) (BG)
                 (BG) (BG) (BG) (BG) (BG) (BG) (BG) (BG) (BG) (BG)
                 (BG) (BG) (BG) (BG) (BG) (BG) (BG) (BG) (BG) (BG)
                 (BG) (BG) (BG) (BG) (BG) (BG) (BG) (BG) (BG) (BG)
                 (BG) (BG) (BG) (BG) (BG) (BG) (BG) (BG) (BG) (BG)
                 (BG) (BG) (BG) (BG) (BG) (BG) (BG) (BG) (BG) (BG)
                 (BG) (BG) (BG) (BG) (BG) (BG) (BG) (BG) (BG) (BG)
                 (BG) (BG) (BG) (BG) (BG) (BG) (BG) (BG) (BG) (BG)
                 (BG) (BG) (BG) (BG) (BG) (BG) (BG) (BG) (BG) (BG)
                 (BG) (BG) (BG) (BG) (BG) (BG) (BG) (BG) (BG) (BG)
                 (BG) (BG) (BG) (BG) (BG) (BG) (BG) (BG) (BG) (BG)
                 (BG) (BG) (BG) (BG) (BG) (BG) (BG) (BG) (BG) (BG)
                 (BG) (BG) (BG) (BG) (BG) (BG) (BG) (BG) (BG) (BG)
                 (BG) (BG) (BG) (BG) (BG) (BG) (BG) (BG) (BG) (BG)
                 (BG) (BG) (BG) (BG) (BG) (BG) (BG) (BG) (BG) (BG)
                 (BG) (BG) (BG) (BG) (BG) (BG) (BG) (BG) (BG) (BG)
                 (BG) (BG) (BG) (BG) (BG) (BG) (BG) (BG) (BG) (BG)
                 (BG) (BG) (BG) (BG) (BG) (BG) (BG) (BG) (BG) (BG)
                 (BG) (BG) (BG) (BG) (BG) (BG) (BG) (BG) (BG) (BG)
                 (BG) (AU) (AU) (AU) (AU) (AU) (AU) (AU) (AU) (AU)
                 (AU) (AU) (AU) (AU) (AU) (AU) (AU) (AU) (AU) (AU)
                 (AU) (AU) (AU) (AU) (AU) (AU) (AU) (AU) (AU) (AU)
                 (AU) (AU) (AU) (AU) (AU) (AU) (AU) (AU) (AU) (AU)
                 (AU) (AU) (AU) (AU) (AU) (AU) (AU) (AU) (AU) (AU)
                 (AU) (AU) (AU) (AU) (AU) (AU) (AU) (AU) (AU) (AU)
                 (AU) (AU) (AU) (AU) (AU) (AU) (AU) (AU) (AU) (AU)
                 (AU) (AU) (AU) (AU) (AU) (AU) (AU) (AU) (AU) (AU)
                 (AU) (AU) (AU) (AU) (AU) (AU) (AU) (AU) (AU) (AU)
                 (AU) (AU) (AU) (AU) (AU) (AU) (AU) (AU) (AU) (AU)
                 (AU) (AU) (AU) (AU) (AU) (AU) (AU) (AU) (AU) (AU)
                 (AU) (AU) (AU) (AU) (AU) (AU) (AU) (AU) (AU) (AU)
                 (AU) (AU) (AU) (AU) (AU) (AU) (AU) (AU) (AU) (AU)
                 (AU) (AU) (AU) (AU) (AU) (AU) (AU) (AU) (AU) (AU)
                 (AU) (AU) (AU) (AU) (AU) (AU) (AU) (AU) (AU) (AU)
                 (AU) (AU) (AU) (AU) (AU) (AU) (AU) (AU) (AU) (AU)
                 (AU) (AU) (AU) (AU) (AU) (AU) (AU) (AU) (AU) (AU)
                 (AU) (AU) (AU) (AU) (AU) (AU) (AU) (AU) (AU) (AU)
                 (AU) (AU) (AU) (AU) (AU) (AU) (AU) (AU) (AU) (AU)
                 (AU) (AU) (AU) (AU) (AU) (AU) (AU) (AU) (AU) (AU)
                 (AU) (AU) (AU) (AU) (AU) (AU) (AU) (AU) (AU) (AU)
                 (AU) (BU) (BU) (BU) (BU) (BU) (BU) (BU) (BU) (BU)
                 (BU) (BU) (BU) (BU) (BU) (BU) (BU) (BU) (BU) (BU)
                 (BU) (BU) (BU) (BU) (BU) (BU) (BU) (BU) (BU) (BU)
                 (BU) (BU) (BU) (BU) (BU) (BU) (BU) (BU) (BU) (BU)
                 (BU) (BU) (BU) (BU) (BU) (BU) (BU) (BU) (BU) (BU)
                 (BU) (BU) (BU) (BU) (BU) (BU) (BU) (BU) (BU) (BU)
                 (BU) (BU) (BU) (BU) (BU) (BU) (BU) (BU) (BU) (BU)
                 (BU) (BU) (BU) (BU) (BU) (BU) (BU) (BU) (BU) (BU)
                 (BU) (BU) (BU) (BU) (BU) (BU) (BU) (BU) (BU) (BU)
                 (BU) (BU) (BU) (BU) (BU) (BU) (BU) (BU) (BU) (BU)
                 (BU) (BU) (BU) (BU) (BU) (BU) (BU) (BU) (BU) (BU)
                 (BU) (BU) (BU) (BU) (BU) (BU) (BU) (BU) (BU) (BU)
                 (BU) (BU) (BU) (BU) (BU) (BU) (BU) (BU) (BU) (BU)
                 (BU) (BU) (BU) (BU) (BU) (BU) (BU) (BU) (BU) (BU)
                 (BU) (BU) (BU) (BU) (BU) (BU) (BU) (BU) (BU) (BU)
                 (BU) (BU) (BU) (BU) (BU) (BU) (BU) (BU) (BU) (BU)
                 (BU) (BU) (BU) (BU) (BU) (BU) (BU) (BU) (BU) (BU)
                 (BU) (BU) (BU) (BU) (BU) (BU) (BU) (BU) (BU) (BU)
                 (BU) (BU) (BU) (BU) (BU) (BU) (BU) (BU) (BU) (BU)
                 (BU) (BU) (BU) (BU) (BU) (BU) (BU) (BU) (BU) (BU)
                 (BU) (BU) (BU) (BU) (BU) (BU) (BU) (BU) (BU) (BU)
                 (BU) (BU) (BU) (BU) (BU) (BU) (BU) (BU) (BU) (BU)
                 (BU) (BU) (BU) (BU)
 Requested convergence on RMS density matrix=1.00D-08 within 128 cycles.
 Requested convergence on MAX density matrix=1.00D-06.
 Requested convergence on             energy=1.00D-06.
 No special actions if energy rises.
 SCF Done:  E(RLC-B+HF-LYP) =  -6885.16784632     A.U. after   14 cycles
            NFock= 14  Conv=0.82D-08     -V/T= 2.0025
 ExpMin= 4.78D-02 ExpMax= 4.06D+05 ExpMxC= 3.92D+03 IAcc=3 IRadAn=         5 AccDes= 0.00D+00
 HarFok:  IExCor=  205 AccDes= 0.00D+00 IRadAn=         5 IDoV=-2 UseB2=F ITyADJ=14
 ICtDFT= 12500011 ScaDFX=  1.000000  1.000000  1.000000  1.000000
 Range of M.O.s used for correlation:    99  2208
 NBasis=  2208 NAE=   294 NBE=   294 NFC=    98 NFV=     0
 NROrb=   2110 NOA=   196 NOB=   196 NVA=  1914 NVB=  1914

 **** Warning!!: The largest alpha MO coefficient is  0.36610503D+02

 Would need an additional       7426252400000 words for in-memory AO integral storage.
 Orbital symmetries:
       Occupied  (BU) (AG) (BU) (AG) (BU) (AG) (BU) (AG) (BG) (AU)
                 (BG) (AU) (BU) (AG) (BG) (AU) (BU) (AG) (BU) (AG)
                 (BG) (AU) (BU) (AG) (BU) (AG) (BG) (AU) (BU) (AG)
                 (BG) (AU) (AG) (BU) (BG) (AU) (BU) (AG) (AU) (BG)
                 (AG) (BU) (BG) (AU) (BU) (AG) (BG) (AU) (BU) (AG)
                 (BG) (AU) (BU) (AG) (AU) (BG) (AG) (BU) (BG) (AU)
                 (BU) (AG) (BG) (AU) (BU) (AG) (BG) (AU) (BU) (AG)
                 (BG) (AU) (BU) (AG) (BG) (AU) (BU) (AG) (AU) (BG)
                 (AG) (BU) (BG) (AU) (BU) (AG) (BG) (AU) (BU) (AG)
                 (BU) (AG) (BU) (AG) (BU) (AG) (BG) (AU) (AG) (BU)
                 (AU) (BG) (AG) (BU) (AU) (BG) (AG) (BU) (AU) (BG)
                 (AG) (BU) (AG) (BU) (AU) (BG) (AG) (BU) (AU) (BG)
                 (AG) (BU) (AU) (BG) (AG) (BU) (AU) (BG) (AG) (BU)
                 (AG) (BU) (AU) (BG) (AU) (BG) (AG) (BU) (AU) (BG)
                 (AG) (BU) (AU) (BG) (AU) (BG) (AG) (BU) (AG) (BU)
                 (AU) (BG) (AG) (BU) (AU) (BG) (AG) (BU) (AU) (BG)
                 (AG) (BU) (AU) (BG) (AG) (BU) (AU) (BG) (AG) (BU)
                 (AU) (BG) (AU) (BG) (AG) (BU) (AU) (BG) (AG) (BU)
                 (AG) (BU) (AU) (BG) (AG) (BU) (AU) (BG) (AG) (BU)
                 (AG) (BU) (AU) (BG) (AU) (BG) (AG) (BU) (AG) (BU)
                 (AU) (BG) (AU) (BG) (AG) (BU) (AU) (BG) (AG) (BU)
                 (AG) (BU) (AG) (BU) (AU) (BG) (AG) (BU) (AU) (BG)
                 (AU) (BG) (AU) (BG) (AG) (BU) (AU) (BG) (AG) (BU)
                 (AG) (BU) (AG) (BU) (AU) (BG) (AG) (BU) (AG) (BU)
                 (AU) (BG) (AG) (BU) (AU) (BG) (AU) (BG) (AG) (BU)
                 (AU) (BG) (AG) (BU) (AU) (BG) (AG) (BU) (AU) (BG)
                 (AU) (BG) (AG) (BU) (AG) (BU) (AU) (BG) (AG) (BU)
                 (AU) (BG) (AG) (BU) (AG) (BU) (AG) (BU) (AG) (AU)
                 (BU) (BG) (AU) (BG) (AU) (BG) (AG) (BU) (AU) (BG)
                 (AG) (BU) (AU) (BG)
       Virtual   (AU) (AG) (BG) (BU) (AG) (BU) (AG) (BU) (AU) (BG)
                 (AU) (AG) (BU) (BG) (AG) (BU) (AG) (BU) (AU) (BG)
                 (AU) (AG) (BG) (BU) (AU) (AG) (BG) (BU) (AG) (BU)
                 (BG) (AU) (BU) (AU) (BG) (AG) (AG) (BU) (AU) (BG)
                 (AG) (BU) (AU) (AG) (BU) (BG) (AG) (BU) (AU) (BG)
                 (AG) (AU) (BU) (BG) (AG) (BU) (AG) (BU) (BG) (AU)
                 (AG) (BU) (AU) (AG) (BU) (BG) (AG) (BU) (AG) (BU)
                 (AU) (BG) (AU) (BG) (BU) (AU) (AG) (BG) (AU) (BG)
                 (BU) (AG) (AU) (AG) (BG) (BU) (AG) (AU) (BG) (BU)
                 (AG) (BU) (BG) (AU) (AG) (BU) (AU) (BG) (AU) (BG)
                 (AG) (AU) (BG) (BU) (AG) (BG) (AU) (BU) (BU) (AG)
                 (AG) (BU) (AU) (BG) (AG) (BU) (BU) (AU) (AG) (BG)
                 (AU) (BG) (BU) (AG) (AG) (BU) (BU) (BG) (AU) (AG)
                 (AG) (BU) (AU) (BG) (AU) (AG) (BU) (BG) (AG) (BU)
                 (AU) (BG) (AG) (BU) (AG) (BU) (AU) (AG) (BU) (BG)
                 (BG) (AU) (AG) (AU) (BG) (BU) (BG) (AU) (AU) (BG)
                 (AG) (BU) (AU) (BG) (AG) (BU) (AG) (BG) (AU) (BU)
                 (AU) (BG) (AU) (AG) (BU) (BG) (AG) (BU) (AG) (BU)
                 (AG) (AU) (BG) (BU) (AU) (BG) (AU) (BU) (BG) (AG)
                 (AG) (BU) (BU) (AG) (AU) (AG) (BG) (BU) (AU) (BG)
                 (BU) (AG) (AU) (AG) (AU) (BU) (AG) (BG) (BU) (BG)
                 (AG) (BU) (AU) (BU) (BG) (AG) (AU) (BG) (AU) (AG)
                 (BU) (BG) (AU) (AG) (BU) (BG) (AG) (AG) (BU) (BU)
                 (BG) (AU) (AG) (BU) (AG) (BG) (AU) (BU) (AU) (BG)
                 (AU) (BG) (AG) (BU) (BG) (AU) (AG) (BU) (BG) (AU)
                 (AG) (BU) (AU) (AG) (BU) (BG) (AU) (BG) (AU) (BG)
                 (BU) (AG) (AG) (AU) (BG) (BU) (AG) (BG) (AU) (BU)
                 (BU) (AG) (BU) (AG) (AU) (AG) (BU) (BG) (BG) (AU)
                 (BU) (AU) (BG) (AG) (AU) (BG) (AG) (BU) (AU) (BG)
                 (AU) (BU) (AU) (BG) (AG) (BG) (AG) (BU) (AG) (AG)
                 (BU) (BU) (BU) (AG) (BG) (AU) (AU) (AG) (BU) (BG)
                 (BG) (AU) (AG) (BG) (AU) (BU) (AG) (BU) (AG) (BU)
                 (AU) (BG) (BU) (AG) (AG) (BU) (AU) (AG) (BU) (BG)
                 (AU) (AG) (BU) (BG) (AU) (AG) (BU) (BG) (AG) (BU)
                 (AU) (BG) (AG) (AU) (BG) (BU) (AG) (BU) (AG) (BG)
                 (AU) (BU) (AU) (BG) (BG) (AU) (AU) (AG) (BU) (BG)
                 (BU) (AG) (AU) (BG) (AG) (BU) (AU) (BG) (AG) (BU)
                 (BU) (AG) (AU) (AG) (BU) (BG) (AU) (BG) (AG) (AU)
                 (BU) (BG) (AU) (BG) (AU) (AG) (BU) (BG) (AU) (BG)
                 (BG) (BU) (AU) (AG) (AG) (BU) (AU) (BG) (AU) (BG)
                 (AU) (AG) (BU) (BG) (AU) (BG) (AG) (AU) (BU) (AG)
                 (BU) (BG) (AG) (BU) (AU) (AG) (BU) (BG) (AG) (BU)
                 (AG) (BU) (AU) (BG) (AU) (AG) (BU) (BG) (AU) (BG)
                 (AG) (BU) (AG) (BU) (AU) (BG) (BG) (AU) (AG) (BU)
                 (AU) (AG) (BU) (AU) (BG) (BG) (AU) (BG) (AG) (BU)
                 (AU) (AG) (BU) (BG) (AU) (BG) (AG) (BU) (AU) (AG)
                 (BU) (BG) (AG) (AU) (AU) (BU) (AG) (BG) (BG) (BU)
                 (AU) (AG) (BU) (BG) (AU) (BG) (AG) (BU) (AG) (BU)
                 (AU) (AG) (BU) (BG) (AU) (BG) (AG) (BU) (AU) (AG)
                 (BU) (BG) (AU) (BG) (AG) (BG) (AU) (BU) (AG) (AU)
                 (BG) (BU) (AG) (BU) (AG) (AU) (BG) (BU) (BU) (AG)
                 (AU) (BG) (AU) (BU) (AG) (BG) (AU) (BG) (AG) (BU)
                 (AG) (AU) (BG) (BU) (AG) (BU) (AG) (BU) (AU) (AG)
                 (BU) (BG) (AG) (BU) (AG) (BU) (AU) (AG) (BU) (BG)
                 (AU) (BG) (AU) (BG) (AU) (AG) (AU) (BG) (BU) (BG)
                 (AU) (BG) (AU) (BU) (AG) (BG) (AG) (BU) (AU) (AG)
                 (BU) (BG) (AG) (BU) (AU) (AG) (BU) (BG) (AG) (AU)
                 (BU) (BG) (BG) (AU) (AU) (BG) (AG) (AU) (BG) (BU)
                 (AG) (AU) (BG) (BU) (AG) (BU) (AU) (BG) (AG) (BU)
                 (AU) (BG) (AG) (AU) (BG) (BU) (AG) (BU) (AU) (AG)
                 (BG) (BU) (AG) (AU) (BG) (BU) (AU) (BG) (AG) (BU)
                 (AG) (BU) (AU) (BG) (AG) (BG) (AU) (BU) (AU) (BG)
                 (AU) (AG) (BU) (BG) (AG) (BU) (AU) (BG) (AG) (BU)
                 (AU) (BG) (AG) (BU) (AU) (AG) (BU) (BG) (AG) (BU)
                 (AU) (BG) (AU) (BG) (AU) (BG) (AG) (BU) (AU) (BU)
                 (AG) (BG) (BU) (AG) (AG) (AU) (BU) (BG) (AG) (BU)
                 (AU) (AG) (BU) (BG) (AG) (BU) (AG) (BU) (AU) (BG)
                 (AU) (AG) (BU) (BG) (AU) (BG) (AG) (BU) (AU) (AG)
                 (BU) (BG) (AG) (BG) (AU) (BU) (AU) (BG) (AG) (AU)
                 (BG) (BU) (AG) (AU) (BG) (BU) (AG) (BU) (AG) (BU)
                 (AU) (BG) (AG) (BU) (AG) (AU) (BG) (BU) (AU) (BG)
                 (AU) (AG) (BU) (BG) (AU) (BG) (AU) (BG) (AG) (BU)
                 (AU) (BG) (AG) (AU) (BU) (BG) (AG) (BU) (AG) (AU)
                 (BG) (BU) (AU) (BU) (AG) (BG) (AU) (BG) (AU) (BG)
                 (AG) (BU) (AU) (BG) (AU) (AG) (BU) (BG) (AG) (BG)
                 (BU) (AU) (AG) (BU) (AG) (BU) (BG) (AU) (BU) (AG)
                 (AU) (BU) (AG) (BG) (AG) (BU) (AG) (BU) (AU) (AG)
                 (BU) (BG) (AU) (BG) (AU) (BU) (AG) (BG) (AG) (BU)
                 (AG) (AU) (BG) (BU) (AU) (BG) (AG) (BU) (AG) (BU)
                 (AU) (BG) (AG) (AU) (BG) (BU) (AG) (AU) (BG) (BU)
                 (AU) (BG) (BG) (AU) (AU) (BG) (BG) (AU) (AU) (BG)
                 (AG) (BU) (AG) (BG) (BU) (AU) (AG) (BU) (BU) (AG)
                 (AG) (BU) (AU) (BG) (AU) (BG) (AU) (AG) (BU) (BG)
                 (BU) (BG) (AU) (AG) (AU) (AG) (BG) (BU) (AU) (AG)
                 (BU) (BG) (AG) (BU) (BG) (AU) (BU) (AG) (AU) (BG)
                 (BG) (AU) (AU) (BG) (AG) (BU) (BG) (BU) (AG) (AU)
                 (AG) (AU) (BG) (BU) (AG) (BU) (BU) (AG) (BG) (AG)
                 (AU) (BU) (AU) (AG) (BU) (BG) (BG) (AG) (AU) (BU)
                 (BU) (AG) (BU) (AG) (BG) (AU) (BU) (AU) (BG) (BG)
                 (AG) (AU) (AG) (BU) (BU) (AG) (BU) (BG) (AG) (AU)
                 (AG) (BU) (AU) (AG) (BG) (BU) (AU) (BG) (AG) (BU)
                 (BG) (AU) (AG) (BU) (AU) (BG) (AU) (BG) (AU) (BG)
                 (BG) (AU) (AU) (AG) (BG) (BU) (AU) (BU) (AG) (BG)
                 (BG) (BU) (AU) (AG) (AU) (BG) (AG) (BU) (AG) (BU)
                 (AG) (BU) (AU) (AG) (BG) (BU) (AG) (AU) (BU) (BG)
                 (AU) (AG) (BG) (BU) (AU) (BG) (AG) (AU) (BG) (BU)
                 (BU) (AG) (BU) (AG) (AU) (AG) (BU) (BG) (AU) (BG)
                 (AG) (BU) (BG) (AU) (BG) (AG) (BU) (AU) (AG) (BU)
                 (AU) (BG) (BU) (AG) (BG) (AU) (AG) (BU) (AG) (BG)
                 (BU) (AU) (AU) (BG) (AG) (BU) (BG) (AU) (AU) (BG)
                 (AU) (AG) (BU) (BG) (BG) (AU) (BU) (AG) (AG) (BU)
                 (AG) (BU) (AG) (BU) (AU) (AG) (BG) (BU) (BU) (BG)
                 (AG) (AU) (AU) (AG) (BU) (BG) (AU) (BG) (AU) (BG)
                 (AG) (BU) (AU) (AG) (BG) (BU) (AG) (AU) (BG) (BU)
                 (AU) (BG) (AG) (BU) (BG) (AU) (BG) (AU) (AG) (BU)
                 (AG) (BU) (AU) (BG) (BU) (AG) (BU) (AG) (AG) (AU)
                 (BU) (BG) (AG) (BU) (AU) (BG) (AU) (AG) (BU) (BG)
                 (AU) (BG) (AU) (AG) (BU) (BG) (AU) (BG) (AU) (BG)
                 (AU) (BG) (AG) (AU) (BG) (BU) (BU) (AU) (AG) (BG)
                 (AG) (BU) (AG) (AU) (BU) (BG) (AG) (BU) (AU) (BG)
                 (AG) (BU) (AG) (AU) (BG) (BU) (AU) (BG) (AG) (BU)
                 (AG) (BG) (AU) (BU) (AU) (BG) (AU) (AG) (BU) (BG)
                 (AG) (BU) (AG) (BU) (BU) (AG) (AU) (BG) (AU) (AG)
                 (BG) (BU) (AU) (BG) (AG) (BU) (AU) (BG) (AU) (AG)
                 (BU) (BG) (AG) (BU) (AU) (AG) (BU) (AG) (BU) (BG)
                 (AU) (BG) (AG) (BU) (AG) (AU) (BG) (BU) (AG) (BU)
                 (AU) (BG) (AU) (BG) (AG) (BU) (AU) (BG) (BG) (AG)
                 (BU) (AU) (AU) (BG) (AG) (BU) (AG) (AU) (BG) (BU)
                 (AU) (BG) (AG) (BU) (AG) (BU) (AU) (BG) (AG) (BU)
                 (AU) (BG) (AG) (AU) (AG) (BU) (BG) (BU) (AU) (BG)
                 (AU) (AG) (BU) (BG) (AG) (BU) (AU) (BG) (AG) (BU)
                 (AG) (BG) (AU) (BU) (AG) (BU) (AU) (BG) (AU) (AG)
                 (BG) (BU) (AG) (BU) (AU) (BG) (AG) (BG) (AU) (BU)
                 (AG) (BU) (AU) (BG) (AU) (BG) (AG) (BU) (AG) (BU)
                 (AG) (BU) (AG) (AU) (BG) (BU) (BG) (AU) (AU) (AG)
                 (BU) (BG) (BU) (AG) (AU) (BG) (BU) (BG) (AG) (AU)
                 (BG) (AU) (BU) (AG) (AU) (BG) (AG) (BG) (BU) (AU)
                 (AG) (BU) (AG) (BU) (AG) (AU) (BU) (BG) (AU) (AG)
                 (BG) (BU) (BU) (AG) (AU) (BG) (AU) (BG) (AG) (BU)
                 (AU) (AG) (BG) (BU) (BU) (AG) (AU) (BG) (AU) (AG)
                 (BG) (BU) (AG) (BU) (AU) (BG) (BG) (AU) (AU) (BG)
                 (BU) (AG) (BU) (AU) (BG) (AG) (AG) (BG) (BU) (AU)
                 (AG) (BU) (AG) (BG) (AU) (BU) (BG) (AU) (AG) (BU)
                 (BG) (AU) (AG) (BU) (AG) (BU) (AU) (AG) (BG) (BU)
                 (AU) (BU) (BG) (AG) (AG) (BU) (BG) (AU) (AU) (BG)
                 (AG) (BU) (AG) (BU) (AG) (AU) (BG) (BU) (AU) (BG)
                 (AU) (BG) (AG) (BU) (AU) (BG) (AU) (BG) (AG) (BU)
                 (AU) (AG) (BU) (BG) (AG) (BU) (AG) (BU) (AU) (BG)
                 (AG) (BU) (AG) (BU) (AG) (BG) (AU) (BU) (AU) (BG)
                 (AU) (BG) (AU) (BG) (AG) (BU) (AU) (BG) (AG) (BU)
                 (AU) (BG) (AU) (AG) (BG) (BU) (AU) (BG) (AG) (BU)
                 (AU) (BU) (AG) (BG) (AG) (AU) (BG) (BU) (AG) (BU)
                 (BU) (BG) (AG) (AU) (AG) (BU) (AU) (BG) (AU) (BG)
                 (AG) (BU) (BG) (BU) (AG) (AU) (BG) (AU) (BU) (AG)
                 (BU) (AG) (BG) (BU) (AG) (AU) (BG) (AU) (AU) (AG)
                 (BU) (BG) (AU) (BG) (AG) (BU) (AU) (BU) (AG) (BG)
                 (AG) (BU) (AU) (BG) (AG) (BU) (AU) (BG) (AG) (BG)
                 (AU) (BU) (AG) (BU) (AU) (BG) (AG) (BG) (AU) (AU)
                 (BG) (BU) (AG) (BU) (BU) (AG) (BG) (AU) (AG) (BU)
                 (AU) (AG) (BU) (BG) (BG) (AU) (BU) (AG) (BG) (AU)
                 (BU) (AU) (BG) (AG) (AU) (BG) (AU) (BG) (AG) (AU)
                 (BG) (BU) (AG) (BU) (AG) (BU) (AU) (BG) (AG) (BU)
                 (AU) (BG) (AG) (AU) (BU) (BG) (AG) (BU) (AG) (BU)
                 (AG) (BU) (AG) (AU) (BU) (BG) (AU) (AG) (BG) (BU)
                 (AU) (AG) (BU) (BG) (AU) (BG) (BU) (AG) (AG) (BU)
                 (AU) (BG) (BG) (AU) (AG) (BU) (AG) (AU) (BG) (BU)
                 (AU) (BG) (BU) (AG) (AG) (AU) (BG) (BU) (AU) (BG)
                 (AG) (AU) (BU) (BG) (AG) (BU) (AU) (BG) (AU) (AG)
                 (BU) (BG) (AU) (BG) (AG) (BU) (AU) (BG) (AG) (BU)
                 (AU) (BG) (AU) (BG) (AU) (BU) (AG) (BG) (BG) (AU)
                 (AU) (AG) (BU) (BG) (BU) (AG) (BG) (AU) (AG) (BU)
                 (AG) (BG) (AU) (BU) (AU) (AG) (BU) (BG) (AG) (BU)
                 (AU) (BG) (AG) (BU) (BG) (AU) (AG) (BU) (AU) (AG)
                 (BU) (BG) (AG) (BG) (AU) (BU) (AU) (BG) (BG) (AU)
                 (AG) (BG) (AU) (BU) (AU) (BG) (AG) (BU) (AG) (BU)
                 (AG) (BU) (AU) (BU) (AG) (BG) (AU) (AG) (BU) (BG)
                 (AU) (BG) (AU) (BU) (AG) (BG) (AG) (BU) (AU) (BG)
                 (AG) (BU) (BG) (AU) (AG) (AU) (BG) (BU) (AG) (BU)
                 (AU) (BG) (AG) (AU) (BU) (BG) (AU) (BG) (AU) (BG)
                 (AG) (BU) (AG) (BU) (BG) (AU) (BU) (AG) (AG) (BG)
                 (BU) (AU) (AG) (BU) (BG) (AU) (BU) (AU) (BG) (AG)
                 (AU) (BG) (BU) (AG) (BU) (AU) (AG) (BG) (AU) (BG)
                 (AG) (BU) (AU) (BG) (BU) (AG) (BG) (AU) (BU) (AG)
                 (AG) (BU) (AU) (BG) (AU) (BG) (AG) (BU) (AG) (AU)
                 (BG) (BU) (AG) (BU) (AG) (BU) (AU) (BG) (AU) (BG)
                 (AG) (BU) (AG) (BU) (AU) (BG) (AG) (BU) (AU) (BG)
                 (AG) (BU) (AU) (BG) (AG) (BU) (AU) (BG) (AG) (BU)
                 (AG) (BU) (AG) (BU) (AU) (AG) (BG) (BU) (AG) (BU)
                 (AU) (BG) (AU) (BG) (AU) (BG) (BU) (AG) (AU) (BG)
                 (AU) (BG) (AG) (BG) (AU) (BU) (AG) (BU) (AG) (BU)
                 (AU) (BG) (AU) (BG) (AU) (BG) (AG) (BU) (BG) (AU)
                 (AG) (BU) (AG) (BU) (AG) (BU) (AG) (BU) (AU) (BG)
                 (AG) (BU) (AG) (BU) (AU) (BG) (AG) (AU) (BG) (BU)
                 (AU) (AG) (BU) (BG) (AG) (BU) (AG) (AU) (BG) (BU)
                 (AU) (BG) (AG) (BU) (AU) (AG) (BU) (BG) (AU) (BG)
                 (AG) (BU) (AG) (AU) (BG) (BU) (AG) (BU) (AU) (AG)
                 (BU) (BG) (AU) (BG) (BG) (AU) (AU) (AG) (BU) (BG)
                 (AG) (BU) (AU) (BG) (BU) (AG) (BG) (AG) (AU) (BU)
                 (AG) (BU) (AU) (BG) (AU) (AG) (BU) (BG) (AU) (BG)
                 (AG) (BU) (AU) (AG) (BU) (BG) (AU) (BG) (AU) (AG)
                 (BU) (BG) (AG) (BU) (AU) (BG) (AU) (BG) (AG) (BU)
                 (AG) (BU) (AG) (BU)
    16 initial guesses have been made.
 Convergence on wavefunction:    0.001000000000000
 Iteration     1 Dimension    16 NMult     0 NNew     16
 CISAX will form    16 AO SS matrices at one time.
 New state      3 was old state      5
 New state      4 was old state      3
 Iteration     2 Dimension    24 NMult    16 NNew      8
 New state      1 was old state      2
 New state      2 was old state      1
 New state      3 was old state      4
 New state      4 was old state      3
 Iteration     3 Dimension    32 NMult    24 NNew      8
 Iteration     4 Dimension    40 NMult    32 NNew      8
 Iteration     5 Dimension    48 NMult    40 NNew      8
 Iteration     6 Dimension    56 NMult    48 NNew      8
 Iteration     7 Dimension    64 NMult    56 NNew      8
 ***********************************************************************
 Excited states from <AA,BB:AA,BB> singles matrix:
 ***********************************************************************
 
 Ground to excited state transition densities written to RWF  633
 Ground to excited state transition electric dipole moments (Au):
       state          X           Y           Z        Dip. S.      Osc.
         1        -0.0000     -0.0000      0.0000      0.0000      0.0000
         2        -0.0510     -4.7460     -0.0000     22.5268      1.0085
         3        -0.0000     -0.0000     -0.0000      0.0000      0.0000
         4        -0.0000     -0.0000      4.4170     19.5095      0.8876
 Ground to excited state transition velocity dipole moments (Au):
       state          X           Y           Z        Dip. S.      Osc.
         1         0.0000      0.0000      0.0000      0.0000      0.0000
         2         0.0034      0.3199      0.0000      0.1023      1.0161
         3         0.0000      0.0000      0.0000      0.0000      0.0000
         4         0.0000      0.0000     -0.3027      0.0917      0.8954
 Ground to excited state transition magnetic dipole moments (Au):
       state          X           Y           Z
         1        -4.2508      1.8267      0.0000
         2         0.0000     -0.0000     -0.0000
         3         0.0000     -0.0000      1.7421
         4         0.0000     -0.0000      0.0000
 Ground to excited state transition velocity quadrupole moments (Au):
       state          XX          YY          ZZ          XY          XZ          YZ
         1        -0.0000      0.0000     -0.0000      0.0000     -1.8010     -4.1501
         2         0.0000     -0.0000      0.0000     -0.0000      0.0000      0.0000
         3        -0.0352      8.0321     -0.0311      1.6912      0.0000      0.0000
         4        -0.0000      0.0000     -0.0000      0.0000      0.0000      0.0000
 <0|del|b> * <b|rxdel|0> + <0|del|b> * <b|delr+rdel|0>
 Rotatory Strengths (R) in cgs (10**-40 erg-esu-cm/Gauss)
       state          XX          YY          ZZ    R(velocity)    E-M Angle
         1         0.0000     -0.0000      0.0000      0.0000       90.00
         2        -0.0000      0.0000     -0.0000     -0.0000       90.00
         3         0.0000      0.0000     -0.0000      0.0000       90.00
         4        -0.0000     -0.0000      0.0000     -0.0000       90.00
 1/2[<0|r|b>*<b|rxdel|0> + (<0|rxdel|b>*<b|r|0>)*]
 Rotatory Strengths (R) in cgs (10**-40 erg-esu-cm/Gauss)
       state          XX          YY          ZZ     R(length)
         1        -0.0000      0.0000     -0.0000      0.0000
         2         0.0000     -0.0000     -0.0000     -0.0000
         3         0.0000     -0.0000      0.0000      0.0000
         4         0.0000     -0.0000     -0.0000     -0.0000
  1/2[<0|del|b>*<b|r|0> + (<0|r|b>*<b|del|0>)*] (Au)
       state          X           Y           Z        Dip. S.   Osc.(frdel)
         1        -0.0000     -0.0000      0.0000      0.0000      0.0000
         2        -0.0002     -1.5182     -0.0000      1.5184      1.0123
         3        -0.0000     -0.0000     -0.0000      0.0000      0.0000
         4        -0.0000     -0.0000     -1.3372      1.3372      0.8915

 Excitation energies and oscillator strengths:
 
 Excited State   1:      Singlet-BG     1.8249 eV  679.41 nm  f=0.0000  <S**2>=0.000
     291 -> 297        0.12221
     292 -> 295        0.12220
     293 -> 298        0.48319
     294 -> 296        0.48340
 This state for optimization and/or second-order correction.
 Total Energy, E(TD-HF/TD-KS) =  -6885.10078339    
 Copying the excited state density for this state as the 1-particle RhoCI density.
 
 Excited State   2:      Singlet-BU     1.8273 eV  678.52 nm  f=1.0085  <S**2>=0.000
     291 -> 298       -0.12227
     292 -> 296       -0.12225
     293 -> 297        0.48320
     294 -> 295        0.48334
 
 Excited State   3:      Singlet-AG     1.8549 eV  668.43 nm  f=0.0000  <S**2>=0.000
     291 -> 296       -0.12695
     292 -> 298       -0.12692
     293 -> 295        0.48186
     294 -> 297        0.48189
 
 Excited State   4:      Singlet-AU     1.8570 eV  667.64 nm  f=0.8876  <S**2>=0.000
     291 -> 295        0.12702
     292 -> 297        0.12701
     293 -> 296        0.48184
     294 -> 298        0.48182
 SavETr:  write IOETrn=   770 NScale= 10 NData=  16 NLR=1 NState=    4 LETran=      82.
 Hyperfine terms turned off by default for NAtoms > 100.

 **********************************************************************

            Population analysis using the SCF density.

 **********************************************************************

 Orbital symmetries:
       Occupied  (BU) (AG) (BU) (AG) (BU) (AG) (BU) (AG) (BG) (AU)
                 (BG) (AU) (BU) (AG) (BG) (AU) (BU) (AG) (BU) (AG)
                 (BG) (AU) (BU) (AG) (BU) (AG) (BG) (AU) (BU) (AG)
                 (BG) (AU) (AG) (BU) (BG) (AU) (BU) (AG) (AU) (BG)
                 (AG) (BU) (BG) (AU) (BU) (AG) (BG) (AU) (BU) (AG)
                 (BG) (AU) (BU) (AG) (AU) (BG) (AG) (BU) (BG) (AU)
                 (BU) (AG) (BG) (AU) (BU) (AG) (BG) (AU) (BU) (AG)
                 (BG) (AU) (BU) (AG) (BG) (AU) (BU) (AG) (AU) (BG)
                 (AG) (BU) (BG) (AU) (BU) (AG) (BG) (AU) (BU) (AG)
                 (BU) (AG) (BU) (AG) (BU) (AG) (BG) (AU) (AG) (BU)
                 (AU) (BG) (AG) (BU) (AU) (BG) (AG) (BU) (AU) (BG)
                 (AG) (BU) (AG) (BU) (AU) (BG) (AG) (BU) (AU) (BG)
                 (AG) (BU) (AU) (BG) (AG) (BU) (AU) (BG) (AG) (BU)
                 (AG) (BU) (AU) (BG) (AU) (BG) (AG) (BU) (AU) (BG)
                 (AG) (BU) (AU) (BG) (AU) (BG) (AG) (BU) (AG) (BU)
                 (AU) (BG) (AG) (BU) (AU) (BG) (AG) (BU) (AU) (BG)
                 (AG) (BU) (AU) (BG) (AG) (BU) (AU) (BG) (AG) (BU)
                 (AU) (BG) (AU) (BG) (AG) (BU) (AU) (BG) (AG) (BU)
                 (AG) (BU) (AU) (BG) (AG) (BU) (AU) (BG) (AG) (BU)
                 (AG) (BU) (AU) (BG) (AU) (BG) (AG) (BU) (AG) (BU)
                 (AU) (BG) (AU) (BG) (AG) (BU) (AU) (BG) (AG) (BU)
                 (AG) (BU) (AG) (BU) (AU) (BG) (AG) (BU) (AU) (BG)
                 (AU) (BG) (AU) (BG) (AG) (BU) (AU) (BG) (AG) (BU)
                 (AG) (BU) (AG) (BU) (AU) (BG) (AG) (BU) (AG) (BU)
                 (AU) (BG) (AG) (BU) (AU) (BG) (AU) (BG) (AG) (BU)
                 (AU) (BG) (AG) (BU) (AU) (BG) (AG) (BU) (AU) (BG)
                 (AU) (BG) (AG) (BU) (AG) (BU) (AU) (BG) (AG) (BU)
                 (AU) (BG) (AG) (BU) (AG) (BU) (AG) (BU) (AG) (AU)
                 (BU) (BG) (AU) (BG) (AU) (BG) (AG) (BU) (AU) (BG)
                 (AG) (BU) (AU) (BG)
       Virtual   (AU) (AG) (BG) (BU) (AG) (BU) (AG) (BU) (AU) (BG)
                 (AU) (AG) (BU) (BG) (AG) (BU) (AG) (BU) (AU) (BG)
                 (AU) (AG) (BG) (BU) (AU) (AG) (BG) (BU) (AG) (BU)
                 (BG) (AU) (BU) (AU) (BG) (AG) (AG) (BU) (AU) (BG)
                 (AG) (BU) (AU) (AG) (BU) (BG) (AG) (BU) (AU) (BG)
                 (AG) (AU) (BU) (BG) (AG) (BU) (AG) (BU) (BG) (AU)
                 (AG) (BU) (AU) (AG) (BU) (BG) (AG) (BU) (AG) (BU)
                 (AU) (BG) (AU) (BG) (BU) (AU) (AG) (BG) (AU) (BG)
                 (BU) (AG) (AU) (AG) (BG) (BU) (AG) (AU) (BG) (BU)
                 (AG) (BU) (BG) (AU) (AG) (BU) (AU) (BG) (AU) (BG)
                 (AG) (AU) (BG) (BU) (AG) (BG) (AU) (BU) (BU) (AG)
                 (AG) (BU) (AU) (BG) (AG) (BU) (BU) (AU) (AG) (BG)
                 (AU) (BG) (BU) (AG) (AG) (BU) (BU) (BG) (AU) (AG)
                 (AG) (BU) (AU) (BG) (AU) (AG) (BU) (BG) (AG) (BU)
                 (AU) (BG) (AG) (BU) (AG) (BU) (AU) (AG) (BU) (BG)
                 (BG) (AU) (AG) (AU) (BG) (BU) (BG) (AU) (AU) (BG)
                 (AG) (BU) (AU) (BG) (AG) (BU) (AG) (BG) (AU) (BU)
                 (AU) (BG) (AU) (AG) (BU) (BG) (AG) (BU) (AG) (BU)
                 (AG) (AU) (BG) (BU) (AU) (BG) (AU) (BU) (BG) (AG)
                 (AG) (BU) (BU) (AG) (AU) (AG) (BG) (BU) (AU) (BG)
                 (BU) (AG) (AU) (AG) (AU) (BU) (AG) (BG) (BU) (BG)
                 (AG) (BU) (AU) (BU) (BG) (AG) (AU) (BG) (AU) (AG)
                 (BU) (BG) (AU) (AG) (BU) (BG) (AG) (AG) (BU) (BU)
                 (BG) (AU) (AG) (BU) (AG) (BG) (AU) (BU) (AU) (BG)
                 (AU) (BG) (AG) (BU) (BG) (AU) (AG) (BU) (BG) (AU)
                 (AG) (BU) (AU) (AG) (BU) (BG) (AU) (BG) (AU) (BG)
                 (BU) (AG) (AG) (AU) (BG) (BU) (AG) (BG) (AU) (BU)
                 (BU) (AG) (BU) (AG) (AU) (AG) (BU) (BG) (BG) (AU)
                 (BU) (AU) (BG) (AG) (AU) (BG) (AG) (BU) (AU) (BG)
                 (AU) (BU) (AU) (BG) (AG) (BG) (AG) (BU) (AG) (AG)
                 (BU) (BU) (BU) (AG) (BG) (AU) (AU) (AG) (BU) (BG)
                 (BG) (AU) (AG) (BG) (AU) (BU) (AG) (BU) (AG) (BU)
                 (AU) (BG) (BU) (AG) (AG) (BU) (AU) (AG) (BU) (BG)
                 (AU) (AG) (BU) (BG) (AU) (AG) (BU) (BG) (AG) (BU)
                 (AU) (BG) (AG) (AU) (BG) (BU) (AG) (BU) (AG) (BG)
                 (AU) (BU) (AU) (BG) (BG) (AU) (AU) (AG) (BU) (BG)
                 (BU) (AG) (AU) (BG) (AG) (BU) (AU) (BG) (AG) (BU)
                 (BU) (AG) (AU) (AG) (BU) (BG) (AU) (BG) (AG) (AU)
                 (BU) (BG) (AU) (BG) (AU) (AG) (BU) (BG) (AU) (BG)
                 (BG) (BU) (AU) (AG) (AG) (BU) (AU) (BG) (AU) (BG)
                 (AU) (AG) (BU) (BG) (AU) (BG) (AG) (AU) (BU) (AG)
                 (BU) (BG) (AG) (BU) (AU) (AG) (BU) (BG) (AG) (BU)
                 (AG) (BU) (AU) (BG) (AU) (AG) (BU) (BG) (AU) (BG)
                 (AG) (BU) (AG) (BU) (AU) (BG) (BG) (AU) (AG) (BU)
                 (AU) (AG) (BU) (AU) (BG) (BG) (AU) (BG) (AG) (BU)
                 (AU) (AG) (BU) (BG) (AU) (BG) (AG) (BU) (AU) (AG)
                 (BU) (BG) (AG) (AU) (AU) (BU) (AG) (BG) (BG) (BU)
                 (AU) (AG) (BU) (BG) (AU) (BG) (AG) (BU) (AG) (BU)
                 (AU) (AG) (BU) (BG) (AU) (BG) (AG) (BU) (AU) (AG)
                 (BU) (BG) (AU) (BG) (AG) (BG) (AU) (BU) (AG) (AU)
                 (BG) (BU) (AG) (BU) (AG) (AU) (BG) (BU) (BU) (AG)
                 (AU) (BG) (AU) (BU) (AG) (BG) (AU) (BG) (AG) (BU)
                 (AG) (AU) (BG) (BU) (AG) (BU) (AG) (BU) (AU) (AG)
                 (BU) (BG) (AG) (BU) (AG) (BU) (AU) (AG) (BU) (BG)
                 (AU) (BG) (AU) (BG) (AU) (AG) (AU) (BG) (BU) (BG)
                 (AU) (BG) (AU) (BU) (AG) (BG) (AG) (BU) (AU) (AG)
                 (BU) (BG) (AG) (BU) (AU) (AG) (BU) (BG) (AG) (AU)
                 (BU) (BG) (BG) (AU) (AU) (BG) (AG) (AU) (BG) (BU)
                 (AG) (AU) (BG) (BU) (AG) (BU) (AU) (BG) (AG) (BU)
                 (AU) (BG) (AG) (AU) (BG) (BU) (AG) (BU) (AU) (AG)
                 (BG) (BU) (AG) (AU) (BG) (BU) (AU) (BG) (AG) (BU)
                 (AG) (BU) (AU) (BG) (AG) (BG) (AU) (BU) (AU) (BG)
                 (AU) (AG) (BU) (BG) (AG) (BU) (AU) (BG) (AG) (BU)
                 (AU) (BG) (AG) (BU) (AU) (AG) (BU) (BG) (AG) (BU)
                 (AU) (BG) (AU) (BG) (AU) (BG) (AG) (BU) (AU) (BU)
                 (AG) (BG) (BU) (AG) (AG) (AU) (BU) (BG) (AG) (BU)
                 (AU) (AG) (BU) (BG) (AG) (BU) (AG) (BU) (AU) (BG)
                 (AU) (AG) (BU) (BG) (AU) (BG) (AG) (BU) (AU) (AG)
                 (BU) (BG) (AG) (BG) (AU) (BU) (AU) (BG) (AG) (AU)
                 (BG) (BU) (AG) (AU) (BG) (BU) (AG) (BU) (AG) (BU)
                 (AU) (BG) (AG) (BU) (AG) (AU) (BG) (BU) (AU) (BG)
                 (AU) (AG) (BU) (BG) (AU) (BG) (AU) (BG) (AG) (BU)
                 (AU) (BG) (AG) (AU) (BU) (BG) (AG) (BU) (AG) (AU)
                 (BG) (BU) (AU) (BU) (AG) (BG) (AU) (BG) (AU) (BG)
                 (AG) (BU) (AU) (BG) (AU) (AG) (BU) (BG) (AG) (BG)
                 (BU) (AU) (AG) (BU) (AG) (BU) (BG) (AU) (BU) (AG)
                 (AU) (BU) (AG) (BG) (AG) (BU) (AG) (BU) (AU) (AG)
                 (BU) (BG) (AU) (BG) (AU) (BU) (AG) (BG) (AG) (BU)
                 (AG) (AU) (BG) (BU) (AU) (BG) (AG) (BU) (AG) (BU)
                 (AU) (BG) (AG) (AU) (BG) (BU) (AG) (AU) (BG) (BU)
                 (AU) (BG) (BG) (AU) (AU) (BG) (BG) (AU) (AU) (BG)
                 (AG) (BU) (AG) (BG) (BU) (AU) (AG) (BU) (BU) (AG)
                 (AG) (BU) (AU) (BG) (AU) (BG) (AU) (AG) (BU) (BG)
                 (BU) (BG) (AU) (AG) (AU) (AG) (BG) (BU) (AU) (AG)
                 (BU) (BG) (AG) (BU) (BG) (AU) (BU) (AG) (AU) (BG)
                 (BG) (AU) (AU) (BG) (AG) (BU) (BG) (BU) (AG) (AU)
                 (AG) (AU) (BG) (BU) (AG) (BU) (BU) (AG) (BG) (AG)
                 (AU) (BU) (AU) (AG) (BU) (BG) (BG) (AG) (AU) (BU)
                 (BU) (AG) (BU) (AG) (BG) (AU) (BU) (AU) (BG) (BG)
                 (AG) (AU) (AG) (BU) (BU) (AG) (BU) (BG) (AG) (AU)
                 (AG) (BU) (AU) (AG) (BG) (BU) (AU) (BG) (AG) (BU)
                 (BG) (AU) (AG) (BU) (AU) (BG) (AU) (BG) (AU) (BG)
                 (BG) (AU) (AU) (AG) (BG) (BU) (AU) (BU) (AG) (BG)
                 (BG) (BU) (AU) (AG) (AU) (BG) (AG) (BU) (AG) (BU)
                 (AG) (BU) (AU) (AG) (BG) (BU) (AG) (AU) (BU) (BG)
                 (AU) (AG) (BG) (BU) (AU) (BG) (AG) (AU) (BG) (BU)
                 (BU) (AG) (BU) (AG) (AU) (AG) (BU) (BG) (AU) (BG)
                 (AG) (BU) (BG) (AU) (BG) (AG) (BU) (AU) (AG) (BU)
                 (AU) (BG) (BU) (AG) (BG) (AU) (AG) (BU) (AG) (BG)
                 (BU) (AU) (AU) (BG) (AG) (BU) (BG) (AU) (AU) (BG)
                 (AU) (AG) (BU) (BG) (BG) (AU) (BU) (AG) (AG) (BU)
                 (AG) (BU) (AG) (BU) (AU) (AG) (BG) (BU) (BU) (BG)
                 (AG) (AU) (AU) (AG) (BU) (BG) (AU) (BG) (AU) (BG)
                 (AG) (BU) (AU) (AG) (BG) (BU) (AG) (AU) (BG) (BU)
                 (AU) (BG) (AG) (BU) (BG) (AU) (BG) (AU) (AG) (BU)
                 (AG) (BU) (AU) (BG) (BU) (AG) (BU) (AG) (AG) (AU)
                 (BU) (BG) (AG) (BU) (AU) (BG) (AU) (AG) (BU) (BG)
                 (AU) (BG) (AU) (AG) (BU) (BG) (AU) (BG) (AU) (BG)
                 (AU) (BG) (AG) (AU) (BG) (BU) (BU) (AU) (AG) (BG)
                 (AG) (BU) (AG) (AU) (BU) (BG) (AG) (BU) (AU) (BG)
                 (AG) (BU) (AG) (AU) (BG) (BU) (AU) (BG) (AG) (BU)
                 (AG) (BG) (AU) (BU) (AU) (BG) (AU) (AG) (BU) (BG)
                 (AG) (BU) (AG) (BU) (BU) (AG) (AU) (BG) (AU) (AG)
                 (BG) (BU) (AU) (BG) (AG) (BU) (AU) (BG) (AU) (AG)
                 (BU) (BG) (AG) (BU) (AU) (AG) (BU) (AG) (BU) (BG)
                 (AU) (BG) (AG) (BU) (AG) (AU) (BG) (BU) (AG) (BU)
                 (AU) (BG) (AU) (BG) (AG) (BU) (AU) (BG) (BG) (AG)
                 (BU) (AU) (AU) (BG) (AG) (BU) (AG) (AU) (BG) (BU)
                 (AU) (BG) (AG) (BU) (AG) (BU) (AU) (BG) (AG) (BU)
                 (AU) (BG) (AG) (AU) (AG) (BU) (BG) (BU) (AU) (BG)
                 (AU) (AG) (BU) (BG) (AG) (BU) (AU) (BG) (AG) (BU)
                 (AG) (BG) (AU) (BU) (AG) (BU) (AU) (BG) (AU) (AG)
                 (BG) (BU) (AG) (BU) (AU) (BG) (AG) (BG) (AU) (BU)
                 (AG) (BU) (AU) (BG) (AU) (BG) (AG) (BU) (AG) (BU)
                 (AG) (BU) (AG) (AU) (BG) (BU) (BG) (AU) (AU) (AG)
                 (BU) (BG) (BU) (AG) (AU) (BG) (BU) (BG) (AG) (AU)
                 (BG) (AU) (BU) (AG) (AU) (BG) (AG) (BG) (BU) (AU)
                 (AG) (BU) (AG) (BU) (AG) (AU) (BU) (BG) (AU) (AG)
                 (BG) (BU) (BU) (AG) (AU) (BG) (AU) (BG) (AG) (BU)
                 (AU) (AG) (BG) (BU) (BU) (AG) (AU) (BG) (AU) (AG)
                 (BG) (BU) (AG) (BU) (AU) (BG) (BG) (AU) (AU) (BG)
                 (BU) (AG) (BU) (AU) (BG) (AG) (AG) (BG) (BU) (AU)
                 (AG) (BU) (AG) (BG) (AU) (BU) (BG) (AU) (AG) (BU)
                 (BG) (AU) (AG) (BU) (AG) (BU) (AU) (AG) (BG) (BU)
                 (AU) (BU) (BG) (AG) (AG) (BU) (BG) (AU) (AU) (BG)
                 (AG) (BU) (AG) (BU) (AG) (AU) (BG) (BU) (AU) (BG)
                 (AU) (BG) (AG) (BU) (AU) (BG) (AU) (BG) (AG) (BU)
                 (AU) (AG) (BU) (BG) (AG) (BU) (AG) (BU) (AU) (BG)
                 (AG) (BU) (AG) (BU) (AG) (BG) (AU) (BU) (AU) (BG)
                 (AU) (BG) (AU) (BG) (AG) (BU) (AU) (BG) (AG) (BU)
                 (AU) (BG) (AU) (AG) (BG) (BU) (AU) (BG) (AG) (BU)
                 (AU) (BU) (AG) (BG) (AG) (AU) (BG) (BU) (AG) (BU)
                 (BU) (BG) (AG) (AU) (AG) (BU) (AU) (BG) (AU) (BG)
                 (AG) (BU) (BG) (BU) (AG) (AU) (BG) (AU) (BU) (AG)
                 (BU) (AG) (BG) (BU) (AG) (AU) (BG) (AU) (AU) (AG)
                 (BU) (BG) (AU) (BG) (AG) (BU) (AU) (BU) (AG) (BG)
                 (AG) (BU) (AU) (BG) (AG) (BU) (AU) (BG) (AG) (BG)
                 (AU) (BU) (AG) (BU) (AU) (BG) (AG) (BG) (AU) (AU)
                 (BG) (BU) (AG) (BU) (BU) (AG) (BG) (AU) (AG) (BU)
                 (AU) (AG) (BU) (BG) (BG) (AU) (BU) (AG) (BG) (AU)
                 (BU) (AU) (BG) (AG) (AU) (BG) (AU) (BG) (AG) (AU)
                 (BG) (BU) (AG) (BU) (AG) (BU) (AU) (BG) (AG) (BU)
                 (AU) (BG) (AG) (AU) (BU) (BG) (AG) (BU) (AG) (BU)
                 (AG) (BU) (AG) (AU) (BU) (BG) (AU) (AG) (BG) (BU)
                 (AU) (AG) (BU) (BG) (AU) (BG) (BU) (AG) (AG) (BU)
                 (AU) (BG) (BG) (AU) (AG) (BU) (AG) (AU) (BG) (BU)
                 (AU) (BG) (BU) (AG) (AG) (AU) (BG) (BU) (AU) (BG)
                 (AG) (AU) (BU) (BG) (AG) (BU) (AU) (BG) (AU) (AG)
                 (BU) (BG) (AU) (BG) (AG) (BU) (AU) (BG) (AG) (BU)
                 (AU) (BG) (AU) (BG) (AU) (BU) (AG) (BG) (BG) (AU)
                 (AU) (AG) (BU) (BG) (BU) (AG) (BG) (AU) (AG) (BU)
                 (AG) (BG) (AU) (BU) (AU) (AG) (BU) (BG) (AG) (BU)
                 (AU) (BG) (AG) (BU) (BG) (AU) (AG) (BU) (AU) (AG)
                 (BU) (BG) (AG) (BG) (AU) (BU) (AU) (BG) (BG) (AU)
                 (AG) (BG) (AU) (BU) (AU) (BG) (AG) (BU) (AG) (BU)
                 (AG) (BU) (AU) (BU) (AG) (BG) (AU) (AG) (BU) (BG)
                 (AU) (BG) (AU) (BU) (AG) (BG) (AG) (BU) (AU) (BG)
                 (AG) (BU) (BG) (AU) (AG) (AU) (BG) (BU) (AG) (BU)
                 (AU) (BG) (AG) (AU) (BU) (BG) (AU) (BG) (AU) (BG)
                 (AG) (BU) (AG) (BU) (BG) (AU) (BU) (AG) (AG) (BG)
                 (BU) (AU) (AG) (BU) (BG) (AU) (BU) (AU) (BG) (AG)
                 (AU) (BG) (BU) (AG) (BU) (AU) (AG) (BG) (AU) (BG)
                 (AG) (BU) (AU) (BG) (BU) (AG) (BG) (AU) (BU) (AG)
                 (AG) (BU) (AU) (BG) (AU) (BG) (AG) (BU) (AG) (AU)
                 (BG) (BU) (AG) (BU) (AG) (BU) (AU) (BG) (AU) (BG)
                 (AG) (BU) (AG) (BU) (AU) (BG) (AG) (BU) (AU) (BG)
                 (AG) (BU) (AU) (BG) (AG) (BU) (AU) (BG) (AG) (BU)
                 (AG) (BU) (AG) (BU) (AU) (AG) (BG) (BU) (AG) (BU)
                 (AU) (BG) (AU) (BG) (AU) (BG) (BU) (AG) (AU) (BG)
                 (AU) (BG) (AG) (BG) (AU) (BU) (AG) (BU) (AG) (BU)
                 (AU) (BG) (AU) (BG) (AU) (BG) (AG) (BU) (BG) (AU)
                 (AG) (BU) (AG) (BU) (AG) (BU) (AG) (BU) (AU) (BG)
                 (AG) (BU) (AG) (BU) (AU) (BG) (AG) (AU) (BG) (BU)
                 (AU) (AG) (BU) (BG) (AG) (BU) (AG) (AU) (BG) (BU)
                 (AU) (BG) (AG) (BU) (AU) (AG) (BU) (BG) (AU) (BG)
                 (AG) (BU) (AG) (AU) (BG) (BU) (AG) (BU) (AU) (AG)
                 (BU) (BG) (AU) (BG) (BG) (AU) (AU) (AG) (BU) (BG)
                 (AG) (BU) (AU) (BG) (BU) (AG) (BG) (AG) (AU) (BU)
                 (AG) (BU) (AU) (BG) (AU) (AG) (BU) (BG) (AU) (BG)
                 (AG) (BU) (AU) (AG) (BU) (BG) (AU) (BG) (AU) (AG)
                 (BU) (BG) (AG) (BU) (AU) (BG) (AU) (BG) (AG) (BU)
                 (AG) (BU) (AG) (BU)
 The electronic state is 1-AG.
 Alpha  occ. eigenvalues -- -345.97238-345.97238 -41.84111 -41.84111 -36.92407
 Alpha  occ. eigenvalues --  -36.92407 -36.91563 -36.91563 -36.91563 -36.91563
 Alpha  occ. eigenvalues --  -14.20500 -14.20500 -14.20499 -14.20499 -14.20496
 Alpha  occ. eigenvalues --  -14.20496 -14.20496 -14.20496 -14.19651 -14.19651
 Alpha  occ. eigenvalues --  -14.19650 -14.19650 -14.19650 -14.19650 -14.19641
 Alpha  occ. eigenvalues --  -14.19641 -10.16847 -10.16847 -10.16845 -10.16845
 Alpha  occ. eigenvalues --  -10.16844 -10.16844 -10.16843 -10.16843 -10.16841
 Alpha  occ. eigenvalues --  -10.16841 -10.16838 -10.16838 -10.16838 -10.16838
 Alpha  occ. eigenvalues --  -10.16834 -10.16834 -10.09935 -10.09935 -10.09935
 Alpha  occ. eigenvalues --  -10.09935 -10.09924 -10.09924 -10.09924 -10.09924
 Alpha  occ. eigenvalues --  -10.09904 -10.09904 -10.09904 -10.09904 -10.09892
 Alpha  occ. eigenvalues --  -10.09892 -10.09892 -10.09892 -10.09745 -10.09745
 Alpha  occ. eigenvalues --  -10.09745 -10.09745 -10.09742 -10.09742 -10.09741
 Alpha  occ. eigenvalues --  -10.09741 -10.09733 -10.09733 -10.09733 -10.09733
 Alpha  occ. eigenvalues --  -10.09713 -10.09713 -10.09712 -10.09712 -10.09582
 Alpha  occ. eigenvalues --  -10.09582 -10.09582 -10.09582 -10.09561 -10.09561
 Alpha  occ. eigenvalues --  -10.09561 -10.09561 -10.09546 -10.09546 -10.09546
 Alpha  occ. eigenvalues --  -10.09546 -10.09520 -10.09520 -10.09520 -10.09520
 Alpha  occ. eigenvalues --   -4.78981  -4.78981  -3.23609  -3.23609  -3.22181
 Alpha  occ. eigenvalues --   -3.22181  -3.22181  -3.22181  -1.13234  -1.13234
 Alpha  occ. eigenvalues --   -1.11775  -1.11775  -1.11773  -1.11773  -1.08966
 Alpha  occ. eigenvalues --   -1.08966  -1.06767  -1.06767  -1.02621  -1.02621
 Alpha  occ. eigenvalues --   -1.02620  -1.02620  -0.99511  -0.99511  -0.98204
 Alpha  occ. eigenvalues --   -0.98204  -0.98202  -0.98202  -0.98155  -0.98155
 Alpha  occ. eigenvalues --   -0.98125  -0.98125  -0.90116  -0.90116  -0.88774
 Alpha  occ. eigenvalues --   -0.88774  -0.88559  -0.88559  -0.88557  -0.88557
 Alpha  occ. eigenvalues --   -0.88170  -0.88170  -0.88167  -0.88167  -0.87989
 Alpha  occ. eigenvalues --   -0.87989  -0.87850  -0.87850  -0.84351  -0.84351
 Alpha  occ. eigenvalues --   -0.81707  -0.81706  -0.81706  -0.81706  -0.76257
 Alpha  occ. eigenvalues --   -0.76257  -0.76050  -0.76050  -0.75224  -0.75224
 Alpha  occ. eigenvalues --   -0.75224  -0.75223  -0.74605  -0.74605  -0.74277
 Alpha  occ. eigenvalues --   -0.74277  -0.71764  -0.71764  -0.71764  -0.71764
 Alpha  occ. eigenvalues --   -0.71715  -0.71715  -0.70603  -0.70603  -0.68078
 Alpha  occ. eigenvalues --   -0.68078  -0.67130  -0.67130  -0.67129  -0.67129
 Alpha  occ. eigenvalues --   -0.65649  -0.65649  -0.65465  -0.65465  -0.65465
 Alpha  occ. eigenvalues --   -0.65464  -0.61886  -0.61886  -0.61794  -0.61794
 Alpha  occ. eigenvalues --   -0.61640  -0.61640  -0.61238  -0.61238  -0.59856
 Alpha  occ. eigenvalues --   -0.59856  -0.59817  -0.59817  -0.59816  -0.59816
 Alpha  occ. eigenvalues --   -0.59695  -0.59695  -0.59693  -0.59693  -0.58378
 Alpha  occ. eigenvalues --   -0.58378  -0.58377  -0.58377  -0.57637  -0.57637
 Alpha  occ. eigenvalues --   -0.57474  -0.57474  -0.56961  -0.56960  -0.56834
 Alpha  occ. eigenvalues --   -0.56834  -0.56712  -0.56712  -0.56711  -0.56711
 Alpha  occ. eigenvalues --   -0.55935  -0.55935  -0.55393  -0.55393  -0.55391
 Alpha  occ. eigenvalues --   -0.55391  -0.55311  -0.55310  -0.54834  -0.54834
 Alpha  occ. eigenvalues --   -0.54282  -0.54281  -0.54051  -0.54051  -0.54048
 Alpha  occ. eigenvalues --   -0.54048  -0.52795  -0.52795  -0.51801  -0.51801
 Alpha  occ. eigenvalues --   -0.50986  -0.50986  -0.48917  -0.48917  -0.48909
 Alpha  occ. eigenvalues --   -0.48909  -0.48905  -0.48903  -0.47898  -0.47898
 Alpha  occ. eigenvalues --   -0.47643  -0.47643  -0.47643  -0.47642  -0.46926
 Alpha  occ. eigenvalues --   -0.46925  -0.46846  -0.46846  -0.46831  -0.46831
 Alpha  occ. eigenvalues --   -0.46828  -0.46828  -0.46147  -0.46147  -0.44980
 Alpha  occ. eigenvalues --   -0.44980  -0.44978  -0.44978  -0.44819  -0.44819
 Alpha  occ. eigenvalues --   -0.43249  -0.43249  -0.43247  -0.43247  -0.42119
 Alpha  occ. eigenvalues --   -0.42119  -0.39176  -0.39176  -0.39169  -0.39169
 Alpha  occ. eigenvalues --   -0.38273  -0.38272  -0.37351  -0.37351  -0.36361
 Alpha  occ. eigenvalues --   -0.36360  -0.36024  -0.36022  -0.35790  -0.35789
 Alpha  occ. eigenvalues --   -0.35789  -0.35787  -0.35269  -0.35269  -0.34970
 Alpha  occ. eigenvalues --   -0.34970  -0.34969  -0.34967  -0.34784  -0.34782
 Alpha  occ. eigenvalues --   -0.34139  -0.34138  -0.24100  -0.24099
 Alpha virt. eigenvalues --   -0.06291  -0.06291  -0.06290  -0.06289   0.02285
 Alpha virt. eigenvalues --    0.02291   0.03331   0.03335   0.03343   0.03347
 Alpha virt. eigenvalues --    0.04344   0.04344   0.04350   0.04350   0.07754
 Alpha virt. eigenvalues --    0.07755   0.08107   0.08108   0.09438   0.09452
 Alpha virt. eigenvalues --    0.09605   0.09606   0.09619   0.09620   0.11103
 Alpha virt. eigenvalues --    0.11111   0.11112   0.11147   0.11418   0.11444
 Alpha virt. eigenvalues --    0.12346   0.12346   0.12353   0.12355   0.12359
 Alpha virt. eigenvalues --    0.12361   0.12417   0.12459   0.12481   0.12509
 Alpha virt. eigenvalues --    0.13372   0.13384   0.13940   0.13946   0.13977
 Alpha virt. eigenvalues --    0.13978   0.14525   0.14541   0.15699   0.15735
 Alpha virt. eigenvalues --    0.16582   0.16585   0.16592   0.16596   0.16638
 Alpha virt. eigenvalues --    0.16681   0.17280   0.17293   0.17383   0.17385
 Alpha virt. eigenvalues --    0.18714   0.18717   0.19189   0.19189   0.19194
 Alpha virt. eigenvalues --    0.19197   0.19690   0.19706   0.20017   0.20025
 Alpha virt. eigenvalues --    0.20033   0.20043   0.20234   0.20260   0.20935
 Alpha virt. eigenvalues --    0.20943   0.20958   0.20999   0.21534   0.21588
 Alpha virt. eigenvalues --    0.21930   0.21940   0.23625   0.23629   0.23637
 Alpha virt. eigenvalues --    0.23642   0.23973   0.23976   0.23976   0.23999
 Alpha virt. eigenvalues --    0.24408   0.24422   0.24510   0.24513   0.25035
 Alpha virt. eigenvalues --    0.25054   0.25413   0.25433   0.25472   0.25484
 Alpha virt. eigenvalues --    0.26863   0.26871   0.26891   0.26895   0.26927
 Alpha virt. eigenvalues --    0.26932   0.26936   0.26961   0.27026   0.27027
 Alpha virt. eigenvalues --    0.27233   0.27280   0.27373   0.27429   0.27846
 Alpha virt. eigenvalues --    0.27858   0.27906   0.27907   0.27908   0.27912
 Alpha virt. eigenvalues --    0.28407   0.28426   0.28434   0.28441   0.28974
 Alpha virt. eigenvalues --    0.28984   0.29184   0.29192   0.29201   0.29209
 Alpha virt. eigenvalues --    0.29421   0.29445   0.29560   0.29572   0.29606
 Alpha virt. eigenvalues --    0.29620   0.29668   0.29681   0.30068   0.30086
 Alpha virt. eigenvalues --    0.30089   0.30090   0.30425   0.30442   0.30448
 Alpha virt. eigenvalues --    0.30487   0.30836   0.30850   0.30853   0.30869
 Alpha virt. eigenvalues --    0.31157   0.31160   0.31735   0.31738   0.31808
 Alpha virt. eigenvalues --    0.31822   0.32247   0.32257   0.32424   0.32526
 Alpha virt. eigenvalues --    0.32770   0.32829   0.32900   0.32964   0.33081
 Alpha virt. eigenvalues --    0.33091   0.33264   0.33270   0.33272   0.33277
 Alpha virt. eigenvalues --    0.34695   0.34698   0.34716   0.34719   0.34730
 Alpha virt. eigenvalues --    0.34735   0.35182   0.35243   0.35260   0.35275
 Alpha virt. eigenvalues --    0.35473   0.35482   0.35518   0.35537   0.36345
 Alpha virt. eigenvalues --    0.36346   0.36621   0.36622   0.36627   0.36634
 Alpha virt. eigenvalues --    0.37665   0.37677   0.37826   0.37828   0.37944
 Alpha virt. eigenvalues --    0.37945   0.37962   0.37964   0.38251   0.38273
 Alpha virt. eigenvalues --    0.39066   0.39073   0.39593   0.39602   0.39679
 Alpha virt. eigenvalues --    0.39680   0.39680   0.39683   0.39715   0.39736
 Alpha virt. eigenvalues --    0.40509   0.40556   0.40678   0.40684   0.40684
 Alpha virt. eigenvalues --    0.40688   0.40717   0.40779   0.41351   0.41361
 Alpha virt. eigenvalues --    0.41431   0.41441   0.41794   0.41852   0.41873
 Alpha virt. eigenvalues --    0.41954   0.42234   0.42347   0.42347   0.42398
 Alpha virt. eigenvalues --    0.42429   0.42433   0.42440   0.42461   0.42874
 Alpha virt. eigenvalues --    0.42891   0.42893   0.42909   0.43025   0.43043
 Alpha virt. eigenvalues --    0.44058   0.44068   0.44077   0.44148   0.44204
 Alpha virt. eigenvalues --    0.44206   0.44975   0.45005   0.45089   0.45100
 Alpha virt. eigenvalues --    0.45107   0.45108   0.45617   0.45646   0.45696
 Alpha virt. eigenvalues --    0.45718   0.46559   0.46575   0.46653   0.46696
 Alpha virt. eigenvalues --    0.46869   0.46873   0.46953   0.46968   0.46981
 Alpha virt. eigenvalues --    0.47001   0.47590   0.47606   0.47609   0.47619
 Alpha virt. eigenvalues --    0.47994   0.48014   0.48340   0.48346   0.48656
 Alpha virt. eigenvalues --    0.48668   0.48760   0.48767   0.48804   0.48839
 Alpha virt. eigenvalues --    0.49128   0.49134   0.49134   0.49134   0.49537
 Alpha virt. eigenvalues --    0.49546   0.49556   0.49559   0.49627   0.49750
 Alpha virt. eigenvalues --    0.50445   0.50538   0.50539   0.50542   0.50554
 Alpha virt. eigenvalues --    0.50571   0.50613   0.50623   0.51607   0.51699
 Alpha virt. eigenvalues --    0.51702   0.51711   0.51781   0.51797   0.51852
 Alpha virt. eigenvalues --    0.51868   0.52830   0.52844   0.52856   0.52873
 Alpha virt. eigenvalues --    0.53384   0.53401   0.53993   0.54020   0.54044
 Alpha virt. eigenvalues --    0.54047   0.54496   0.54581   0.54856   0.54873
 Alpha virt. eigenvalues --    0.55105   0.55133   0.55433   0.55433   0.55718
 Alpha virt. eigenvalues --    0.55761   0.56505   0.56515   0.56530   0.56558
 Alpha virt. eigenvalues --    0.57433   0.57438   0.57438   0.57444   0.57620
 Alpha virt. eigenvalues --    0.57633   0.57637   0.57654   0.58171   0.58179
 Alpha virt. eigenvalues --    0.58329   0.58366   0.58545   0.58557   0.58562
 Alpha virt. eigenvalues --    0.58590   0.59043   0.59047   0.59184   0.59218
 Alpha virt. eigenvalues --    0.59233   0.59264   0.59615   0.59631   0.60095
 Alpha virt. eigenvalues --    0.60108   0.60113   0.60120   0.60130   0.60149
 Alpha virt. eigenvalues --    0.60631   0.60638   0.61449   0.61476   0.61951
 Alpha virt. eigenvalues --    0.61954   0.62210   0.62222   0.64380   0.64383
 Alpha virt. eigenvalues --    0.64472   0.64476   0.64652   0.64669   0.64681
 Alpha virt. eigenvalues --    0.64681   0.65618   0.65620   0.66166   0.66178
 Alpha virt. eigenvalues --    0.66184   0.66194   0.66521   0.66566   0.66673
 Alpha virt. eigenvalues --    0.66675   0.66689   0.66691   0.66768   0.66789
 Alpha virt. eigenvalues --    0.66868   0.66869   0.66870   0.66877   0.67327
 Alpha virt. eigenvalues --    0.67336   0.67396   0.67413   0.68540   0.68560
 Alpha virt. eigenvalues --    0.68599   0.68615   0.68615   0.68667   0.70055
 Alpha virt. eigenvalues --    0.70071   0.70088   0.70110   0.70110   0.70116
 Alpha virt. eigenvalues --    0.70130   0.70140   0.70710   0.70735   0.71453
 Alpha virt. eigenvalues --    0.71459   0.71463   0.71464   0.71572   0.71578
 Alpha virt. eigenvalues --    0.72220   0.72274   0.72345   0.72354   0.73428
 Alpha virt. eigenvalues --    0.73434   0.73449   0.73459   0.73673   0.73694
 Alpha virt. eigenvalues --    0.74455   0.74462   0.74511   0.74552   0.74976
 Alpha virt. eigenvalues --    0.74990   0.75729   0.75729   0.76963   0.76986
 Alpha virt. eigenvalues --    0.76993   0.77045   0.77062   0.77072   0.77076
 Alpha virt. eigenvalues --    0.77112   0.77399   0.77417   0.78007   0.78018
 Alpha virt. eigenvalues --    0.78243   0.78252   0.78274   0.78280   0.78380
 Alpha virt. eigenvalues --    0.78510   0.78599   0.78655   0.78709   0.78719
 Alpha virt. eigenvalues --    0.78741   0.78747   0.79725   0.79750   0.79755
 Alpha virt. eigenvalues --    0.79759   0.79760   0.79773   0.79790   0.79820
 Alpha virt. eigenvalues --    0.80216   0.80218   0.80219   0.80223   0.81120
 Alpha virt. eigenvalues --    0.81170   0.81530   0.81539   0.81566   0.81574
 Alpha virt. eigenvalues --    0.81646   0.81651   0.81658   0.81668   0.81997
 Alpha virt. eigenvalues --    0.82007   0.82308   0.82340   0.82425   0.82430
 Alpha virt. eigenvalues --    0.82432   0.82436   0.82735   0.82738   0.82913
 Alpha virt. eigenvalues --    0.82943   0.82943   0.82980   0.83317   0.83324
 Alpha virt. eigenvalues --    0.83330   0.83341   0.83580   0.83618   0.84334
 Alpha virt. eigenvalues --    0.84337   0.84345   0.84351   0.85190   0.85199
 Alpha virt. eigenvalues --    0.85326   0.85344   0.86805   0.86811   0.86820
 Alpha virt. eigenvalues --    0.86824   0.86835   0.86865   0.87005   0.87013
 Alpha virt. eigenvalues --    0.87072   0.87076   0.87077   0.87091   0.87533
 Alpha virt. eigenvalues --    0.87544   0.88448   0.88460   0.89068   0.89080
 Alpha virt. eigenvalues --    0.89085   0.89109   0.89446   0.89481   0.89740
 Alpha virt. eigenvalues --    0.89741   0.90572   0.90574   0.90581   0.90585
 Alpha virt. eigenvalues --    0.91259   0.91330   0.91336   0.91359   0.91611
 Alpha virt. eigenvalues --    0.91624   0.91652   0.91660   0.91663   0.91679
 Alpha virt. eigenvalues --    0.92304   0.92408   0.92440   0.92458   0.92460
 Alpha virt. eigenvalues --    0.92532   0.93303   0.93324   0.95856   0.95857
 Alpha virt. eigenvalues --    0.95857   0.95859   0.96041   0.96079   0.97046
 Alpha virt. eigenvalues --    0.97067   0.97114   0.97130   0.97256   0.97269
 Alpha virt. eigenvalues --    0.97335   0.97358   0.97367   0.97368   0.97464
 Alpha virt. eigenvalues --    0.97479   0.99321   0.99384   0.99411   0.99489
 Alpha virt. eigenvalues --    1.00144   1.00148   1.00157   1.00165   1.01207
 Alpha virt. eigenvalues --    1.01229   1.02118   1.02127   1.02632   1.02675
 Alpha virt. eigenvalues --    1.02738   1.02768   1.02809   1.02816   1.02822
 Alpha virt. eigenvalues --    1.02823   1.03187   1.03311   1.03396   1.03400
 Alpha virt. eigenvalues --    1.03411   1.03422   1.04440   1.04457   1.04470
 Alpha virt. eigenvalues --    1.04493   1.05063   1.05119   1.05950   1.05989
 Alpha virt. eigenvalues --    1.06410   1.06411   1.06465   1.06471   1.07159
 Alpha virt. eigenvalues --    1.07192   1.07192   1.07226   1.08794   1.08795
 Alpha virt. eigenvalues --    1.10556   1.10566   1.10589   1.10606   1.11010
 Alpha virt. eigenvalues --    1.11032   1.12680   1.12721   1.12964   1.12966
 Alpha virt. eigenvalues --    1.13459   1.13462   1.13561   1.13567   1.13829
 Alpha virt. eigenvalues --    1.13846   1.13864   1.13894   1.14280   1.14288
 Alpha virt. eigenvalues --    1.15425   1.15512   1.16135   1.16140   1.16612
 Alpha virt. eigenvalues --    1.16645   1.16780   1.16786   1.16830   1.16837
 Alpha virt. eigenvalues --    1.16851   1.16853   1.17118   1.17129   1.18983
 Alpha virt. eigenvalues --    1.19015   1.19108   1.19120   1.19186   1.19327
 Alpha virt. eigenvalues --    1.20248   1.20261   1.20280   1.20302   1.21185
 Alpha virt. eigenvalues --    1.21190   1.21253   1.21283   1.21814   1.21836
 Alpha virt. eigenvalues --    1.21868   1.21875   1.21879   1.21886   1.21886
 Alpha virt. eigenvalues --    1.21981   1.22357   1.22369   1.23370   1.23383
 Alpha virt. eigenvalues --    1.23399   1.23407   1.24037   1.24045   1.24050
 Alpha virt. eigenvalues --    1.24056   1.24329   1.24329   1.26249   1.26250
 Alpha virt. eigenvalues --    1.26254   1.26260   1.27557   1.27566   1.27568
 Alpha virt. eigenvalues --    1.27572   1.27811   1.27815   1.28323   1.28369
 Alpha virt. eigenvalues --    1.29177   1.29181   1.29210   1.29242   1.29395
 Alpha virt. eigenvalues --    1.29403   1.29406   1.29420   1.30618   1.30623
 Alpha virt. eigenvalues --    1.31196   1.31213   1.31224   1.31251   1.32131
 Alpha virt. eigenvalues --    1.32198   1.33300   1.33325   1.33729   1.33782
 Alpha virt. eigenvalues --    1.33830   1.33848   1.33849   1.33855   1.33868
 Alpha virt. eigenvalues --    1.33880   1.34077   1.34137   1.34213   1.34239
 Alpha virt. eigenvalues --    1.34259   1.34318   1.35524   1.35583   1.35593
 Alpha virt. eigenvalues --    1.35643   1.35792   1.35825   1.35834   1.35896
 Alpha virt. eigenvalues --    1.36620   1.36633   1.37743   1.37769   1.37869
 Alpha virt. eigenvalues --    1.37870   1.37871   1.37872   1.38771   1.38774
 Alpha virt. eigenvalues --    1.38781   1.38782   1.39459   1.39473   1.40456
 Alpha virt. eigenvalues --    1.40473   1.40720   1.40748   1.41482   1.41501
 Alpha virt. eigenvalues --    1.41766   1.41768   1.41769   1.41770   1.42763
 Alpha virt. eigenvalues --    1.42789   1.43942   1.43943   1.44016   1.44017
 Alpha virt. eigenvalues --    1.44029   1.44037   1.44510   1.44511   1.44907
 Alpha virt. eigenvalues --    1.44914   1.44919   1.44928   1.45028   1.45042
 Alpha virt. eigenvalues --    1.45410   1.45416   1.45417   1.45425   1.45704
 Alpha virt. eigenvalues --    1.45719   1.47166   1.47175   1.47363   1.47394
 Alpha virt. eigenvalues --    1.47554   1.47559   1.48071   1.48094   1.48099
 Alpha virt. eigenvalues --    1.48111   1.48113   1.48116   1.48129   1.48154
 Alpha virt. eigenvalues --    1.48155   1.48163   1.48479   1.48485   1.49080
 Alpha virt. eigenvalues --    1.49083   1.51148   1.51154   1.51834   1.51879
 Alpha virt. eigenvalues --    1.51934   1.51934   1.51978   1.51985   1.51986
 Alpha virt. eigenvalues --    1.51989   1.52361   1.52370   1.53525   1.53529
 Alpha virt. eigenvalues --    1.53875   1.53922   1.54276   1.54291   1.55317
 Alpha virt. eigenvalues --    1.55321   1.55343   1.55343   1.55349   1.55351
 Alpha virt. eigenvalues --    1.55608   1.55627   1.55632   1.55658   1.55692
 Alpha virt. eigenvalues --    1.55693   1.55720   1.55731   1.57494   1.57510
 Alpha virt. eigenvalues --    1.57519   1.57541   1.57552   1.57588   1.57640
 Alpha virt. eigenvalues --    1.57657   1.57983   1.58012   1.58133   1.58165
 Alpha virt. eigenvalues --    1.58821   1.58845   1.59795   1.59825   1.60325
 Alpha virt. eigenvalues --    1.60340   1.60346   1.60348   1.60353   1.60362
 Alpha virt. eigenvalues --    1.63050   1.63056   1.63064   1.63072   1.64556
 Alpha virt. eigenvalues --    1.64576   1.64816   1.64826   1.65461   1.65465
 Alpha virt. eigenvalues --    1.65467   1.65467   1.65575   1.65579   1.65580
 Alpha virt. eigenvalues --    1.65587   1.67166   1.67175   1.67176   1.67180
 Alpha virt. eigenvalues --    1.67419   1.67447   1.68823   1.68826   1.69138
 Alpha virt. eigenvalues --    1.69159   1.69725   1.69729   1.69730   1.69754
 Alpha virt. eigenvalues --    1.69756   1.69757   1.69942   1.69973   1.70577
 Alpha virt. eigenvalues --    1.70597   1.71664   1.71665   1.71674   1.71686
 Alpha virt. eigenvalues --    1.71841   1.71849   1.71850   1.71870   1.71877
 Alpha virt. eigenvalues --    1.71888   1.72036   1.72072   1.72156   1.72161
 Alpha virt. eigenvalues --    1.72591   1.72594   1.72935   1.72939   1.73682
 Alpha virt. eigenvalues --    1.73686   1.74240   1.74255   1.74605   1.74616
 Alpha virt. eigenvalues --    1.74811   1.74813   1.75206   1.75207   1.75220
 Alpha virt. eigenvalues --    1.75224   1.76203   1.76209   1.76220   1.76241
 Alpha virt. eigenvalues --    1.78488   1.78490   1.78490   1.78491   1.78583
 Alpha virt. eigenvalues --    1.78592   1.78732   1.78744   1.79045   1.79053
 Alpha virt. eigenvalues --    1.79161   1.79163   1.79369   1.79370   1.79374
 Alpha virt. eigenvalues --    1.79376   1.80321   1.80326   1.80341   1.80344
 Alpha virt. eigenvalues --    1.80966   1.80967   1.80971   1.80999   1.81357
 Alpha virt. eigenvalues --    1.81359   1.83575   1.83576   1.83579   1.83579
 Alpha virt. eigenvalues --    1.83712   1.83714   1.83855   1.83856   1.84141
 Alpha virt. eigenvalues --    1.84147   1.84148   1.84151   1.84169   1.84234
 Alpha virt. eigenvalues --    1.85935   1.85937   1.87856   1.87867   1.87919
 Alpha virt. eigenvalues --    1.87924   1.87924   1.87926   1.88141   1.88141
 Alpha virt. eigenvalues --    1.88141   1.88142   1.89157   1.89164   1.89203
 Alpha virt. eigenvalues --    1.89209   1.89998   1.90002   1.91318   1.91321
 Alpha virt. eigenvalues --    1.91336   1.91337   1.92780   1.92782   1.92801
 Alpha virt. eigenvalues --    1.92806   1.94031   1.94034   1.94356   1.94372
 Alpha virt. eigenvalues --    1.94576   1.94579   1.94597   1.94600   1.95020
 Alpha virt. eigenvalues --    1.95022   1.95022   1.95023   1.96028   1.96043
 Alpha virt. eigenvalues --    1.96071   1.96072   1.96131   1.96138   1.99206
 Alpha virt. eigenvalues --    1.99206   1.99207   1.99217   2.00075   2.00077
 Alpha virt. eigenvalues --    2.00077   2.00078   2.00924   2.00925   2.00930
 Alpha virt. eigenvalues --    2.00941   2.02123   2.02135   2.03979   2.03990
 Alpha virt. eigenvalues --    2.05041   2.05042   2.05551   2.05551   2.05555
 Alpha virt. eigenvalues --    2.05560   2.06076   2.06081   2.06082   2.06092
 Alpha virt. eigenvalues --    2.06167   2.06174   2.07372   2.07372   2.08645
 Alpha virt. eigenvalues --    2.08650   2.10130   2.10130   2.10782   2.10791
 Alpha virt. eigenvalues --    2.11942   2.11953   2.13345   2.13346   2.13348
 Alpha virt. eigenvalues --    2.13352   2.14043   2.14044   2.14599   2.14603
 Alpha virt. eigenvalues --    2.14603   2.14609   2.16004   2.16008   2.16611
 Alpha virt. eigenvalues --    2.16615   2.16644   2.16651   2.16658   2.16669
 Alpha virt. eigenvalues --    2.16708   2.16712   2.18228   2.18230   2.18232
 Alpha virt. eigenvalues --    2.18233   2.19213   2.19216   2.19742   2.19759
 Alpha virt. eigenvalues --    2.24525   2.24529   2.24991   2.24995   2.24995
 Alpha virt. eigenvalues --    2.25001   2.26342   2.26344   2.26346   2.26348
 Alpha virt. eigenvalues --    2.26761   2.26771   2.28695   2.28697   2.28705
 Alpha virt. eigenvalues --    2.28708   2.28934   2.28956   2.29614   2.29623
 Alpha virt. eigenvalues --    2.30808   2.30816   2.30930   2.30935   2.30944
 Alpha virt. eigenvalues --    2.30952   2.31948   2.31957   2.34558   2.34571
 Alpha virt. eigenvalues --    2.34876   2.34880   2.34886   2.34890   2.35315
 Alpha virt. eigenvalues --    2.35333   2.36233   2.36240   2.36251   2.36257
 Alpha virt. eigenvalues --    2.36730   2.36736   2.37880   2.37883   2.38373
 Alpha virt. eigenvalues --    2.38373   2.38397   2.38401   2.38666   2.38670
 Alpha virt. eigenvalues --    2.38677   2.38684   2.39081   2.39098   2.39380
 Alpha virt. eigenvalues --    2.39393   2.42263   2.42269   2.42774   2.42774
 Alpha virt. eigenvalues --    2.42775   2.42775   2.42940   2.42940   2.43080
 Alpha virt. eigenvalues --    2.43100   2.43107   2.43117   2.43132   2.43139
 Alpha virt. eigenvalues --    2.43337   2.43338   2.43878   2.43891   2.46449
 Alpha virt. eigenvalues --    2.46463   2.46473   2.46484   2.47518   2.47518
 Alpha virt. eigenvalues --    2.47696   2.47720   2.48258   2.48258   2.48259
 Alpha virt. eigenvalues --    2.48260   2.48586   2.48600   2.48607   2.48609
 Alpha virt. eigenvalues --    2.48612   2.48613   2.49444   2.49444   2.50547
 Alpha virt. eigenvalues --    2.50590   2.50658   2.50663   2.50665   2.50668
 Alpha virt. eigenvalues --    2.50888   2.50889   2.50891   2.50892   2.51219
 Alpha virt. eigenvalues --    2.51220   2.51531   2.51539   2.53372   2.53394
 Alpha virt. eigenvalues --    2.54070   2.54081   2.54665   2.54682   2.54683
 Alpha virt. eigenvalues --    2.54685   2.54687   2.54728   2.55236   2.55247
 Alpha virt. eigenvalues --    2.55248   2.55253   2.55262   2.55297   2.56917
 Alpha virt. eigenvalues --    2.56918   2.59259   2.59264   2.63331   2.63335
 Alpha virt. eigenvalues --    2.64499   2.64499   2.64501   2.64507   2.64864
 Alpha virt. eigenvalues --    2.64865   2.67442   2.67445   2.69873   2.69875
 Alpha virt. eigenvalues --    2.69878   2.69880   2.69986   2.69988   2.72617
 Alpha virt. eigenvalues --    2.72622   2.74022   2.74027   2.74032   2.74034
 Alpha virt. eigenvalues --    2.74351   2.74351   2.74983   2.74987   2.75366
 Alpha virt. eigenvalues --    2.75368   2.75374   2.75374   2.75675   2.75685
 Alpha virt. eigenvalues --    2.75689   2.75705   2.76578   2.76584   2.76586
 Alpha virt. eigenvalues --    2.76591   2.76655   2.76659   2.77565   2.77580
 Alpha virt. eigenvalues --    2.77582   2.77597   2.77649   2.77651   2.77908
 Alpha virt. eigenvalues --    2.77931   2.79513   2.79516   2.79523   2.79524
 Alpha virt. eigenvalues --    2.79665   2.79674   2.80868   2.80872   2.81857
 Alpha virt. eigenvalues --    2.81868   2.86094   2.86095   2.86099   2.86100
 Alpha virt. eigenvalues --    2.86320   2.86333   2.87503   2.87503   2.89311
 Alpha virt. eigenvalues --    2.89311   2.89313   2.89317   2.89387   2.89388
 Alpha virt. eigenvalues --    2.89388   2.89388   2.89468   2.89468   2.89787
 Alpha virt. eigenvalues --    2.89788   2.89999   2.90009   2.91342   2.91346
 Alpha virt. eigenvalues --    2.91459   2.91461   2.91464   2.91464   2.92062
 Alpha virt. eigenvalues --    2.92071   2.92622   2.92626   2.93177   2.93181
 Alpha virt. eigenvalues --    2.93184   2.93192   2.94649   2.94657   2.94821
 Alpha virt. eigenvalues --    2.94827   2.95373   2.95380   2.95441   2.95457
 Alpha virt. eigenvalues --    2.96679   2.96700   2.97266   2.97277   2.97280
 Alpha virt. eigenvalues --    2.97286   2.99428   2.99431   2.99435   2.99446
 Alpha virt. eigenvalues --    2.99794   2.99807   3.00794   3.00799   3.00802
 Alpha virt. eigenvalues --    3.00811   3.01017   3.01042   3.01917   3.01920
 Alpha virt. eigenvalues --    3.03181   3.03184   3.03727   3.03735   3.04346
 Alpha virt. eigenvalues --    3.04347   3.04446   3.04448   3.04461   3.04466
 Alpha virt. eigenvalues --    3.05396   3.05401   3.05402   3.05402   3.05853
 Alpha virt. eigenvalues --    3.05855   3.05855   3.05855   3.06320   3.06321
 Alpha virt. eigenvalues --    3.06377   3.06434   3.06578   3.06578   3.07419
 Alpha virt. eigenvalues --    3.07424   3.07452   3.07483   3.07532   3.07604
 Alpha virt. eigenvalues --    3.07673   3.07674   3.07676   3.07676   3.08207
 Alpha virt. eigenvalues --    3.08225   3.09328   3.09328   3.09650   3.09694
 Alpha virt. eigenvalues --    3.11623   3.11650   3.11658   3.11696   3.12548
 Alpha virt. eigenvalues --    3.12548   3.13459   3.13459   3.13460   3.13461
 Alpha virt. eigenvalues --    3.13609   3.13610   3.14822   3.14829   3.15796
 Alpha virt. eigenvalues --    3.15815   3.15822   3.15846   3.15896   3.15923
 Alpha virt. eigenvalues --    3.16512   3.16514   3.16532   3.16534   3.16841
 Alpha virt. eigenvalues --    3.16843   3.16941   3.16943   3.18022   3.18033
 Alpha virt. eigenvalues --    3.18367   3.18372   3.18606   3.18607   3.18613
 Alpha virt. eigenvalues --    3.18615   3.18819   3.18836   3.18965   3.18968
 Alpha virt. eigenvalues --    3.19365   3.19371   3.19378   3.19378   3.19444
 Alpha virt. eigenvalues --    3.19447   3.19457   3.19458   3.20559   3.20583
 Alpha virt. eigenvalues --    3.20845   3.20845   3.20846   3.20846   3.21199
 Alpha virt. eigenvalues --    3.21203   3.22019   3.22021   3.24228   3.24231
 Alpha virt. eigenvalues --    3.24231   3.24234   3.24384   3.24386   3.24387
 Alpha virt. eigenvalues --    3.24392   3.24954   3.24968   3.25566   3.25572
 Alpha virt. eigenvalues --    3.25974   3.25977   3.28379   3.28384   3.28389
 Alpha virt. eigenvalues --    3.28393   3.28657   3.28662   3.31628   3.31632
 Alpha virt. eigenvalues --    3.31637   3.31646   3.31931   3.31936   3.32166
 Alpha virt. eigenvalues --    3.32167   3.32174   3.32180   3.32187   3.32200
 Alpha virt. eigenvalues --    3.34061   3.34072   3.34278   3.34295   3.34406
 Alpha virt. eigenvalues --    3.34409   3.35611   3.35653   3.35725   3.35729
 Alpha virt. eigenvalues --    3.35733   3.35737   3.36073   3.36076   3.37445
 Alpha virt. eigenvalues --    3.37461   3.39050   3.39061   3.39065   3.39072
 Alpha virt. eigenvalues --    3.39099   3.39121   3.39428   3.39506   3.39885
 Alpha virt. eigenvalues --    3.39885   3.39885   3.39887   3.40099   3.40113
 Alpha virt. eigenvalues --    3.40145   3.40161   3.40168   3.40194   3.40473
 Alpha virt. eigenvalues --    3.40479   3.40798   3.40800   3.41311   3.41316
 Alpha virt. eigenvalues --    3.41912   3.41913   3.41916   3.41916   3.44321
 Alpha virt. eigenvalues --    3.44368   3.44853   3.44855   3.46253   3.46253
 Alpha virt. eigenvalues --    3.46264   3.46266   3.47005   3.47008   3.48793
 Alpha virt. eigenvalues --    3.48793   3.48814   3.48816   3.48818   3.48822
 Alpha virt. eigenvalues --    3.49779   3.49782   3.50105   3.50106   3.50106
 Alpha virt. eigenvalues --    3.50107   3.50446   3.50447   3.53555   3.53563
 Alpha virt. eigenvalues --    3.53775   3.53778   3.54082   3.54083   3.54089
 Alpha virt. eigenvalues --    3.54090   3.54154   3.54155   3.54158   3.54159
 Alpha virt. eigenvalues --    3.54606   3.54612   3.54613   3.54616   3.54960
 Alpha virt. eigenvalues --    3.54969   3.56264   3.56264   3.56301   3.56317
 Alpha virt. eigenvalues --    3.56524   3.56526   3.57784   3.57787   3.58531
 Alpha virt. eigenvalues --    3.58538   3.59913   3.59921   3.59926   3.59928
 Alpha virt. eigenvalues --    3.60195   3.60231   3.61970   3.61970   3.62025
 Alpha virt. eigenvalues --    3.62027   3.62046   3.62050   3.63125   3.63133
 Alpha virt. eigenvalues --    3.64331   3.64332   3.64334   3.64336   3.65105
 Alpha virt. eigenvalues --    3.65145   3.67735   3.67736   3.68006   3.68012
 Alpha virt. eigenvalues --    3.68028   3.68036   3.68375   3.68414   3.70480
 Alpha virt. eigenvalues --    3.70481   3.70481   3.70481   3.70589   3.70589
 Alpha virt. eigenvalues --    3.71384   3.71385   3.72262   3.72310   3.73377
 Alpha virt. eigenvalues --    3.73379   3.73381   3.73387   3.74221   3.74221
 Alpha virt. eigenvalues --    3.74382   3.74386   3.74403   3.74405   3.76040
 Alpha virt. eigenvalues --    3.76040   3.76967   3.76974   3.77651   3.77657
 Alpha virt. eigenvalues --    3.79798   3.79799   3.79801   3.79813   3.81521
 Alpha virt. eigenvalues --    3.81522   3.81527   3.81538   3.82887   3.82905
 Alpha virt. eigenvalues --    3.84567   3.84579   3.85889   3.85896   3.86077
 Alpha virt. eigenvalues --    3.86093   3.90284   3.90288   3.93077   3.93078
 Alpha virt. eigenvalues --    3.93082   3.93083   3.96012   3.96020   3.96025
 Alpha virt. eigenvalues --    3.96029   3.96338   3.96361   3.98859   3.98861
 Alpha virt. eigenvalues --    4.00077   4.00077   4.00079   4.00082   4.00089
 Alpha virt. eigenvalues --    4.00097   4.00176   4.00180   4.03450   4.03470
 Alpha virt. eigenvalues --    4.05329   4.05332   4.06414   4.06423   4.06423
 Alpha virt. eigenvalues --    4.06435   4.07194   4.07198   4.07200   4.07203
 Alpha virt. eigenvalues --    4.08100   4.08104   4.09927   4.09930   4.09931
 Alpha virt. eigenvalues --    4.09935   4.11129   4.11130   4.12916   4.12917
 Alpha virt. eigenvalues --    4.13729   4.13736   4.15539   4.15540   4.19670
 Alpha virt. eigenvalues --    4.19672   4.19675   4.19679   4.21962   4.21963
 Alpha virt. eigenvalues --    4.24061   4.24073   4.25162   4.25163   4.25166
 Alpha virt. eigenvalues --    4.25166   4.26832   4.26833   4.32284   4.32284
 Alpha virt. eigenvalues --    4.32285   4.32287   4.32434   4.32436   4.34510
 Alpha virt. eigenvalues --    4.34510   4.34784   4.34785   4.34991   4.34992
 Alpha virt. eigenvalues --    4.34994   4.34994   4.37107   4.37112   4.39940
 Alpha virt. eigenvalues --    4.39942   4.41541   4.41542   4.41542   4.41543
 Alpha virt. eigenvalues --    4.42283   4.42286   4.47952   4.47952   4.48552
 Alpha virt. eigenvalues --    4.48552   4.48552   4.48554   4.50464   4.50464
 Alpha virt. eigenvalues --    4.57950   4.57951   4.61674   4.61675   4.61906
 Alpha virt. eigenvalues --    4.61906   4.61906   4.61906   4.66072   4.66072
 Alpha virt. eigenvalues --    4.70436   4.70436   4.74089   4.74089   4.75279
 Alpha virt. eigenvalues --    4.75280   4.75282   4.75283   4.78397   4.78398
 Alpha virt. eigenvalues --    4.78398   4.78398   4.79971   4.79971   4.82689
 Alpha virt. eigenvalues --    4.82689   4.84869   4.84869   4.91239   4.91239
 Alpha virt. eigenvalues --    4.91240   4.91240   4.96438   4.96438   4.96441
 Alpha virt. eigenvalues --    4.96441   4.97469   4.97469   4.99315   4.99315
 Alpha virt. eigenvalues --    5.01229   5.01233   5.01577   5.01577   5.01818
 Alpha virt. eigenvalues --    5.01820   5.03104   5.03105   5.03106   5.03114
 Alpha virt. eigenvalues --    5.03424   5.03429   5.11971   5.11972   5.12773
 Alpha virt. eigenvalues --    5.12773   5.12774   5.12774   5.18335   5.18336
 Alpha virt. eigenvalues --    5.18336   5.18336   5.23585   5.23585   5.30293
 Alpha virt. eigenvalues --    5.30296   5.30667   5.30667   5.30669   5.30670
 Alpha virt. eigenvalues --    5.36694   5.36694   5.40055   5.40055   5.40055
 Alpha virt. eigenvalues --    5.40055   5.40638   5.40639   5.43320   5.43321
 Alpha virt. eigenvalues --    5.43323   5.43326   5.47454   5.47458   5.55007
 Alpha virt. eigenvalues --    5.55007   5.63869   5.63871   5.66107   5.66107
 Alpha virt. eigenvalues --    5.66110   5.66114   5.67497   5.67499   5.89441
 Alpha virt. eigenvalues --    5.89442   5.95313   5.95316   6.09741   6.09742
 Alpha virt. eigenvalues --    6.58687   6.58687   6.59398   6.59398   6.60413
 Alpha virt. eigenvalues --    6.60413   6.61763   6.61763   6.61763   6.61763
 Alpha virt. eigenvalues --    6.75006   6.75006   6.75007   6.75007  21.59631
 Alpha virt. eigenvalues --   21.59635  21.73052  21.73052  21.73056  21.73058
 Alpha virt. eigenvalues --   21.76437  21.76439  21.92644  21.92645  22.01788
 Alpha virt. eigenvalues --   22.01788  22.01790  22.01790  22.08300  22.08302
 Alpha virt. eigenvalues --   22.14937  22.14937  22.17364  22.17365  22.17366
 Alpha virt. eigenvalues --   22.17371  22.18502  22.18510  22.18806  22.18808
 Alpha virt. eigenvalues --   22.18813  22.18814  22.18865  22.18886  22.23913
 Alpha virt. eigenvalues --   22.23915  22.45040  22.45046  22.45088  22.45098
 Alpha virt. eigenvalues --   22.45427  22.45480  22.45947  22.46010  22.54595
 Alpha virt. eigenvalues --   22.54596  22.56084  22.56085  22.56086  22.56088
 Alpha virt. eigenvalues --   22.58026  22.58026  22.64446  22.64449  22.70733
 Alpha virt. eigenvalues --   22.70733  22.70738  22.70739  22.77267  22.77275
 Alpha virt. eigenvalues --   23.29504  23.29508  23.32902  23.32906  23.32908
 Alpha virt. eigenvalues --   23.32913  23.38971  23.38980  32.10566  32.10568
 Alpha virt. eigenvalues --   32.10569  32.10569  32.14265  32.14265  32.45819
 Alpha virt. eigenvalues --   32.45820  32.52794  32.52795  32.52798  32.52799
 Alpha virt. eigenvalues --   32.53933  32.53934  32.59988  32.59991
          Condensed to atoms (all electrons):
 Mulliken charges:
               1
     1  C   -0.088157
     2  C   -0.088174
     3  C   -0.201521
     4  C    0.091751
     5  C    0.091721
     6  C   -0.201440
     7  C    0.330968
     8  C    0.330977
     9  N   -0.269193
    10  N   -0.534359
    11  N   -0.534369
    12  H    0.122177
    13  H    0.122215
    14  H    0.139743
    15  H    0.139826
    16  C   -0.089261
    17  C   -0.088321
    18  C   -0.202450
    19  C    0.091837
    20  C    0.091764
    21  C   -0.201721
    22  C    0.331026
    23  C    0.331012
    24  N   -0.269223
    25  N   -0.533890
    26  H    0.123976
    27  H    0.122111
    28  H    0.141497
    29  H    0.139653
    30  C   -0.088174
    31  C   -0.088157
    32  C   -0.201440
    33  C    0.091721
    34  C    0.091751
    35  C   -0.201521
    36  C    0.330977
    37  C    0.330968
    38  N   -0.269193
    39  N   -0.534369
    40  H    0.122215
    41  H    0.122177
    42  H    0.139826
    43  H    0.139743
    44  C   -0.088321
    45  C   -0.089261
    46  C   -0.201721
    47  C    0.091764
    48  C    0.091837
    49  C   -0.202450
    50  C    0.331012
    51  C    0.331026
    52  N   -0.269223
    53  H    0.122111
    54  H    0.123976
    55  H    0.139653
    56  H    0.141497
    57  Zn   0.051399
    58  C   -0.088321
    59  C   -0.089261
    60  C   -0.201721
    61  C    0.091764
    62  C    0.091837
    63  C   -0.202450
    64  C    0.331012
    65  C    0.331026
    66  N   -0.269223
    67  N   -0.533890
    68  N   -0.534369
    69  H    0.122111
    70  H    0.123976
    71  H    0.139653
    72  H    0.141497
    73  C   -0.088174
    74  C   -0.088157
    75  C   -0.201440
    76  C    0.091721
    77  C    0.091751
    78  C   -0.201521
    79  C    0.330977
    80  C    0.330968
    81  N   -0.269193
    82  N   -0.534359
    83  H    0.122215
    84  H    0.122177
    85  H    0.139826
    86  H    0.139743
    87  C   -0.089261
    88  C   -0.088321
    89  C   -0.202450
    90  C    0.091837
    91  C    0.091764
    92  C   -0.201721
    93  C    0.331026
    94  C    0.331012
    95  N   -0.269223
    96  N   -0.534369
    97  H    0.123976
    98  H    0.122111
    99  H    0.141497
   100  H    0.139653
   101  C   -0.088157
   102  C   -0.088174
   103  C   -0.201521
   104  C    0.091751
   105  C    0.091721
   106  C   -0.201440
   107  C    0.330968
   108  C    0.330977
   109  N   -0.269193
   110  H    0.122177
   111  H    0.122215
   112  H    0.139743
   113  H    0.139826
   114  Zn   0.051399
 Sum of Mulliken charges =  -0.00000
 Mulliken charges with hydrogens summed into heavy atoms:
               1
     1  C    0.034021
     2  C    0.034041
     3  C   -0.061778
     4  C    0.091751
     5  C    0.091721
     6  C   -0.061614
     7  C    0.330968
     8  C    0.330977
     9  N   -0.269193
    10  N   -0.534359
    11  N   -0.534369
    16  C    0.034714
    17  C    0.033790
    18  C   -0.060953
    19  C    0.091837
    20  C    0.091764
    21  C   -0.062068
    22  C    0.331026
    23  C    0.331012
    24  N   -0.269223
    25  N   -0.533890
    30  C    0.034041
    31  C    0.034021
    32  C   -0.061614
    33  C    0.091721
    34  C    0.091751
    35  C   -0.061778
    36  C    0.330977
    37  C    0.330968
    38  N   -0.269193
    39  N   -0.534369
    44  C    0.033790
    45  C    0.034714
    46  C   -0.062068
    47  C    0.091764
    48  C    0.091837
    49  C   -0.060953
    50  C    0.331012
    51  C    0.331026
    52  N   -0.269223
    57  Zn   0.051399
    58  C    0.033790
    59  C    0.034714
    60  C   -0.062068
    61  C    0.091764
    62  C    0.091837
    63  C   -0.060953
    64  C    0.331012
    65  C    0.331026
    66  N   -0.269223
    67  N   -0.533890
    68  N   -0.534369
    73  C    0.034041
    74  C    0.034021
    75  C   -0.061614
    76  C    0.091721
    77  C    0.091751
    78  C   -0.061778
    79  C    0.330977
    80  C    0.330968
    81  N   -0.269193
    82  N   -0.534359
    87  C    0.034714
    88  C    0.033790
    89  C   -0.060953
    90  C    0.091837
    91  C    0.091764
    92  C   -0.062068
    93  C    0.331026
    94  C    0.331012
    95  N   -0.269223
    96  N   -0.534369
   101  C    0.034021
   102  C    0.034041
   103  C   -0.061778
   104  C    0.091751
   105  C    0.091721
   106  C   -0.061614
   107  C    0.330968
   108  C    0.330977
   109  N   -0.269193
   114  Zn   0.051399
 Electronic spatial extent (au):  <R**2>=         165842.9704
 Charge=             -0.0000 electrons
 Dipole moment (field-independent basis, Debye):
    X=             -0.0000    Y=              0.0000    Z=             -0.0000  Tot=              0.0000
 Quadrupole moment (field-independent basis, Debye-Ang):
   XX=           -497.6266   YY=           -421.7970   ZZ=           -420.5056
   XY=             -0.2625   XZ=             -0.0000   YZ=             -0.0000
 Traceless Quadrupole moment (field-independent basis, Debye-Ang):
   XX=            -50.9835   YY=             24.8461   ZZ=             26.1375
   XY=             -0.2625   XZ=             -0.0000   YZ=             -0.0000
 Octapole moment (field-independent basis, Debye-Ang**2):
  XXX=             -0.0000  YYY=              0.0000  ZZZ=             -0.0000  XYY=             -0.0000
  XXY=              0.0000  XXZ=              0.0000  XZZ=             -0.0000  YZZ=              0.0000
  YYZ=             -0.0000  XYZ=             -0.0000
 Hexadecapole moment (field-independent basis, Debye-Ang**3):
 XXXX=         -27441.6268 YYYY=        -151468.8015 ZZZZ=         -27819.4765 XXXY=         -31370.3682
 XXXZ=              0.0000 YYYX=         -26496.7508 YYYZ=             -0.0000 ZZZX=             -0.0000
 ZZZY=             -0.0000 XXYY=         -33980.9380 XXZZ=          -9574.5552 YYZZ=         -29119.8262
 XXYZ=             -0.0000 YYXZ=             -0.0000 ZZXY=          -8830.5879
 N-N= 1.314838218369D+04 E-N=-4.256194079474D+04  KE= 6.867866734295D+03
 Symmetry AG   KE= 2.410893403856D+03
 Symmetry BG   KE= 1.023040022091D+03
 Symmetry AU   KE= 1.023037905286D+03
 Symmetry BU   KE= 2.410895403062D+03

 Test job not archived.
 1\1\ WCSS.PL-BEM-KETKOV-PC1\SP\RLC-BLYP TD-FC\Gen\C64H32N16Zn2\SERGEY\
 11-Apr-2026\0\\# td(nstates=4) lc-blyp/gen iop(3/107=0350000000,3/108=
 0350000000) geom=check guess=read\\def2tzvp-f, monomer geom r2scan-3c\
 \0,1\C,0,-4.138371,5.130673,0.\C,0,-5.130673,4.138371,0.\C,0,-2.787666
 ,4.799485,0.\C,0,-2.454083,3.449643,0.\C,0,-3.449643,2.454083,0.\C,0,-
 4.799485,2.787666,0.\C,0,-1.173513,2.758029,0.\C,0,-2.758029,1.173513,
 0.\N,0,-1.406507,1.406507,0.\N,0,-3.380774,0.,0.\N,0,0.,3.380774,0.\H,
 0,-4.434605,6.175603,0.\H,0,-6.175603,4.434605,0.\H,0,-2.014157,5.5610
 43,0.\H,0,-5.561043,2.014157,0.\C,0,5.130673,4.138371,0.\C,0,4.138371,
 5.130673,0.\C,0,4.799485,2.787666,0.\C,0,3.449643,2.454083,0.\C,0,2.45
 4083,3.449643,0.\C,0,2.787666,4.799485,0.\C,0,2.758029,1.173513,0.\C,0
 ,1.173513,2.758029,0.\N,0,1.406507,1.406507,0.\N,0,3.380774,0.,0.\H,0,
 6.175603,4.434605,0.\H,0,4.434605,6.175603,0.\H,0,5.561043,2.014157,0.
 \H,0,2.014157,5.561043,0.\C,0,-5.130673,-4.138371,0.\C,0,-4.138371,-5.
 130673,0.\C,0,-4.799485,-2.787666,0.\C,0,-3.449643,-2.454083,0.\C,0,-2
 .454083,-3.449643,0.\C,0,-2.787666,-4.799485,0.\C,0,-2.758029,-1.17351
 3,0.\C,0,-1.173513,-2.758029,0.\N,0,-1.406507,-1.406507,0.\N,0,0.,-3.3
 80774,0.\H,0,-6.175603,-4.434605,0.\H,0,-4.434605,-6.175603,0.\H,0,-5.
 561043,-2.014157,0.\H,0,-2.014157,-5.561043,0.\C,0,4.138371,-5.130673,
 0.\C,0,5.130673,-4.138371,0.\C,0,2.787666,-4.799485,0.\C,0,2.454083,-3
 .449643,0.\C,0,3.449643,-2.454083,0.\C,0,4.799485,-2.787666,0.\C,0,1.1
 73513,-2.758029,0.\C,0,2.758029,-1.173513,0.\N,0,1.406507,-1.406507,0.
 \H,0,4.434605,-6.175603,0.\H,0,6.175603,-4.434605,0.\H,0,2.014157,-5.5
 61043,0.\H,0,5.561043,-2.014157,0.\Zn,0,0.,0.,0.\C,0,9.861629,5.130673
 ,6.\C,0,8.869327,4.138371,6.\C,0,11.212334,4.799485,6.\C,0,11.545917,3
 .449643,6.\C,0,10.550357,2.454083,6.\C,0,9.200515,2.787666,6.\C,0,12.8
 26487,2.758029,6.\C,0,11.241971,1.173513,6.\N,0,12.593493,1.406507,6.\
 N,0,10.619226,0.,6.\N,0,14.,3.380774,6.\H,0,9.565395,6.175603,6.\H,0,7
 .824397,4.434605,6.\H,0,11.985843,5.561043,6.\H,0,8.438957,2.014157,6.
 \C,0,19.130673,4.138371,6.\C,0,18.138371,5.130673,6.\C,0,18.799485,2.7
 87666,6.\C,0,17.449643,2.454083,6.\C,0,16.454083,3.449643,6.\C,0,16.78
 7666,4.799485,6.\C,0,16.758029,1.173513,6.\C,0,15.173513,2.758029,6.\N
 ,0,15.406507,1.406507,6.\N,0,17.380774,0.,6.\H,0,20.175603,4.434605,6.
 \H,0,18.434605,6.175603,6.\H,0,19.561043,2.014157,6.\H,0,16.014157,5.5
 61043,6.\C,0,8.869327,-4.138371,6.\C,0,9.861629,-5.130673,6.\C,0,9.200
 515,-2.787666,6.\C,0,10.550357,-2.454083,6.\C,0,11.545917,-3.449643,6.
 \C,0,11.212334,-4.799485,6.\C,0,11.241971,-1.173513,6.\C,0,12.826487,-
 2.758029,6.\N,0,12.593493,-1.406507,6.\N,0,14.,-3.380774,6.\H,0,7.8243
 97,-4.434605,6.\H,0,9.565395,-6.175603,6.\H,0,8.438957,-2.014157,6.\H,
 0,11.985843,-5.561043,6.\C,0,18.138371,-5.130673,6.\C,0,19.130673,-4.1
 38371,6.\C,0,16.787666,-4.799485,6.\C,0,16.454083,-3.449643,6.\C,0,17.
 449643,-2.454083,6.\C,0,18.799485,-2.787666,6.\C,0,15.173513,-2.758029
 ,6.\C,0,16.758029,-1.173513,6.\N,0,15.406507,-1.406507,6.\H,0,18.43460
 5,-6.175603,6.\H,0,20.175603,-4.434605,6.\H,0,16.014157,-5.561043,6.\H
 ,0,19.561043,-2.014157,6.\Zn,0,14.,0.,6.\\Version=ES64L-G09RevE.01\Sta
 te=1-AG\HF=-6885.1678463\RMSD=8.231e-09\PG=C02H [SGH(N4Zn2),X(C64H32N1
 2)]\\@


 ARTHROPOD AXIOM: A COMPUTER SYSTEM IS LIKE A SPIDER'S WEB.
 YOU CANNOT PULL ON ONE END WITHOUT MAKING THE OTHER END MOVE.
     -- GREG WETTSTEIN
 Job cpu time:       0 days  8 hours 33 minutes 29.8 seconds.
 File lengths (MBytes):  RWF=   6949 Int=      0 D2E=      0 Chk=    886 Scr=      1
 Normal termination of Gaussian 09 at Sat Apr 11 01:03:53 2026.
