 Entering Gaussian System, Link 0=g09
 Input=./ZnPc2_35_140.gjf
 Output=./ZnPc2_35_140.log
 Initial command:
 /home/sergey/g09/l1.exe "/home/sergey/SCRATCH/Gau-12683.inp" -scrdir="/home/sergey/SCRATCH/"
 Entering Link 1 = /home/sergey/g09/l1.exe PID=     12685.
  
 Copyright (c) 1988,1990,1992,1993,1995,1998,2003,2009,2015,
            Gaussian, Inc.  All Rights Reserved.
  
 This is part of the Gaussian(R) 09 program.  It is based on
 the Gaussian(R) 03 system (copyright 2003, Gaussian, Inc.),
 the Gaussian(R) 98 system (copyright 1998, Gaussian, Inc.),
 the Gaussian(R) 94 system (copyright 1995, Gaussian, Inc.),
 the Gaussian 92(TM) system (copyright 1992, Gaussian, Inc.),
 the Gaussian 90(TM) system (copyright 1990, Gaussian, Inc.),
 the Gaussian 88(TM) system (copyright 1988, Gaussian, Inc.),
 the Gaussian 86(TM) system (copyright 1986, Carnegie Mellon
 University), and the Gaussian 82(TM) system (copyright 1983,
 Carnegie Mellon University). Gaussian is a federally registered
 trademark of Gaussian, Inc.
  
 This software contains proprietary and confidential information,
 including trade secrets, belonging to Gaussian, Inc.
  
 This software is provided under written license and may be
 used, copied, transmitted, or stored only in accord with that
 written license.
  
 The following legend is applicable only to US Government
 contracts under FAR:
  
                    RESTRICTED RIGHTS LEGEND
  
 Use, reproduction and disclosure by the US Government is
 subject to restrictions as set forth in subparagraphs (a)
 and (c) of the Commercial Computer Software - Restricted
 Rights clause in FAR 52.227-19.
  
 Gaussian, Inc.
 340 Quinnipiac St., Bldg. 40, Wallingford CT 06492
  
  
 ---------------------------------------------------------------
 Warning -- This program may not be used in any manner that
 competes with the business of Gaussian, Inc. or will provide
 assistance to any competitor of Gaussian, Inc.  The licensee
 of this program is prohibited from giving any competitor of
 Gaussian, Inc. access to this program.  By using this program,
 the user acknowledges that Gaussian, Inc. is engaged in the
 business of creating and licensing software in the field of
 computational chemistry and represents and warrants to the
 licensee that it is not a competitor of Gaussian, Inc. and that
 it will not use this program in any manner prohibited above.
 ---------------------------------------------------------------
  

 Cite this work as:
 Gaussian 09, Revision E.01,
 M. J. Frisch, G. W. Trucks, H. B. Schlegel, G. E. Scuseria, 
 M. A. Robb, J. R. Cheeseman, G. Scalmani, V. Barone, B. Mennucci, 
 G. A. Petersson, H. Nakatsuji, M. Caricato, X. Li, H. P. Hratchian, 
 A. F. Izmaylov, J. Bloino, G. Zheng, J. L. Sonnenberg, M. Hada, 
 M. Ehara, K. Toyota, R. Fukuda, J. Hasegawa, M. Ishida, T. Nakajima, 
 Y. Honda, O. Kitao, H. Nakai, T. Vreven, J. A. Montgomery, Jr., 
 J. E. Peralta, F. Ogliaro, M. Bearpark, J. J. Heyd, E. Brothers, 
 K. N. Kudin, V. N. Staroverov, T. Keith, R. Kobayashi, J. Normand, 
 K. Raghavachari, A. Rendell, J. C. Burant, S. S. Iyengar, J. Tomasi, 
 M. Cossi, N. Rega, J. M. Millam, M. Klene, J. E. Knox, J. B. Cross, 
 V. Bakken, C. Adamo, J. Jaramillo, R. Gomperts, R. E. Stratmann, 
 O. Yazyev, A. J. Austin, R. Cammi, C. Pomelli, J. W. Ochterski, 
 R. L. Martin, K. Morokuma, V. G. Zakrzewski, G. A. Voth, 
 P. Salvador, J. J. Dannenberg, S. Dapprich, A. D. Daniels, 
 O. Farkas, J. B. Foresman, J. V. Ortiz, J. Cioslowski, 
 and D. J. Fox, Gaussian, Inc., Wallingford CT, 2013.
 
 ******************************************
 Gaussian 09:  ES64L-G09RevE.01 30-Nov-2015
                12-Apr-2026 
 ******************************************
 %chk=ZnPc_35_140.chk
 %mem=16GB
 %nproc=6
 Will use up to    6 processors via shared memory.
 Default route:  MaxDisk=477GB
 --------------------------------------------------------
 # lc-blyp/def2svp iop(3/107=0350000000,3/108=0350000000)
 --------------------------------------------------------
 1/38=1/1;
 2/12=2,17=6,18=5,40=1/2;
 3/5=43,7=101,11=2,16=1,25=1,30=1,74=1000402,107=350000000,108=350000000/1,2,3;
 4//1;
 5/5=2,38=5/2;
 6/7=2,8=2,9=2,10=2,28=1/1;
 99/5=1,9=1/99;
 ----------------------
 monomer geom r2scan-3c
 ----------------------
 Symbolic Z-matrix:
 Charge =  0 Multiplicity = 1
 C                    -4.13837   5.13067   0. 
 C                    -5.13067   4.13837   0. 
 C                    -2.78767   4.79949   0. 
 C                    -2.45408   3.44964   0. 
 C                    -3.44964   2.45408   0. 
 C                    -4.79949   2.78767   0. 
 C                    -1.17351   2.75803   0. 
 C                    -2.75803   1.17351   0. 
 N                    -1.40651   1.40651   0. 
 N                    -3.38077   0.        0. 
 N                     0.        3.38077   0. 
 H                    -4.43461   6.1756    0. 
 H                    -6.1756    4.43461   0. 
 H                    -2.01416   5.56104   0. 
 H                    -5.56104   2.01416   0. 
 C                     5.13067   4.13837   0. 
 C                     4.13837   5.13067   0. 
 C                     4.79949   2.78767   0. 
 C                     3.44964   2.45408   0. 
 C                     2.45408   3.44964   0. 
 C                     2.78767   4.79949   0. 
 C                     2.75803   1.17351   0. 
 C                     1.17351   2.75803   0. 
 N                     1.40651   1.40651   0. 
 N                     3.38077   0.        0. 
 H                     6.1756    4.43461   0. 
 H                     4.43461   6.1756    0. 
 H                     5.56104   2.01416   0. 
 H                     2.01416   5.56104   0. 
 C                    -5.13067  -4.13837   0. 
 C                    -4.13837  -5.13067   0. 
 C                    -4.79949  -2.78767   0. 
 C                    -3.44964  -2.45408   0. 
 C                    -2.45408  -3.44964   0. 
 C                    -2.78767  -4.79949   0. 
 C                    -2.75803  -1.17351   0. 
 C                    -1.17351  -2.75803   0. 
 N                    -1.40651  -1.40651   0. 
 N                     0.       -3.38077   0. 
 H                    -6.1756   -4.43461   0. 
 H                    -4.43461  -6.1756    0. 
 H                    -5.56104  -2.01416   0. 
 H                    -2.01416  -5.56104   0. 
 C                     4.13837  -5.13067   0. 
 C                     5.13067  -4.13837   0. 
 C                     2.78767  -4.79949   0. 
 C                     2.45408  -3.44964   0. 
 C                     3.44964  -2.45408   0. 
 C                     4.79949  -2.78767   0. 
 C                     1.17351  -2.75803   0. 
 C                     2.75803  -1.17351   0. 
 N                     1.40651  -1.40651   0. 
 H                     4.43461  -6.1756    0. 
 H                     6.1756   -4.43461   0. 
 H                     2.01416  -5.56104   0. 
 H                     5.56104  -2.01416   0. 
 Zn                    0.        0.        0. 
 C                     9.86163   5.13067   3.5 
 C                     8.86933   4.13837   3.5 
 C                     11.21233   4.79949   3.5 
 C                     11.54592   3.44964   3.5 
 C                     10.55036   2.45408   3.5 
 C                     9.20051   2.78767   3.5 
 C                     12.82649   2.75803   3.5 
 C                     11.24197   1.17351   3.5 
 N                     12.59349   1.40651   3.5 
 N                     10.61923   0.        3.5 
 N                     14.       3.38077   3.5 
 H                     9.5654    6.1756    3.5 
 H                     7.8244    4.43461   3.5 
 H                     11.98584   5.56104   3.5 
 H                     8.43896   2.01416   3.5 
 C                     19.13067   4.13837   3.5 
 C                     18.13837   5.13067   3.5 
 C                     18.79949   2.78767   3.5 
 C                     17.44964   2.45408   3.5 
 C                     16.45408   3.44964   3.5 
 C                     16.78767   4.79949   3.5 
 C                     16.75803   1.17351   3.5 
 C                     15.17351   2.75803   3.5 
 N                     15.40651   1.40651   3.5 
 N                     17.38077   0.        3.5 
 H                     20.1756   4.43461   3.5 
 H                     18.43461   6.1756    3.5 
 H                     19.56104   2.01416   3.5 
 H                     16.01416   5.56104   3.5 
 C                     8.86933  -4.13837   3.5 
 C                     9.86163  -5.13067   3.5 
 C                     9.20051  -2.78767   3.5 
 C                     10.55036  -2.45408   3.5 
 C                     11.54592  -3.44964   3.5 
 C                     11.21233  -4.79949   3.5 
 C                     11.24197  -1.17351   3.5 
 C                     12.82649  -2.75803   3.5 
 N                     12.59349  -1.40651   3.5 
 N                     14.      -3.38077   3.5 
 H                     7.8244   -4.43461   3.5 
 H                     9.5654   -6.1756    3.5 
 H                     8.43896  -2.01416   3.5 
 H                     11.98584  -5.56104   3.5 
 C                     18.13837  -5.13067   3.5 
 C                     19.13067  -4.13837   3.5 
 C                     16.78767  -4.79949   3.5 
 C                     16.45408  -3.44964   3.5 
 C                     17.44964  -2.45408   3.5 
 C                     18.79949  -2.78767   3.5 
 C                     15.17351  -2.75803   3.5 
 C                     16.75803  -1.17351   3.5 
 N                     15.40651  -1.40651   3.5 
 H                     18.43461  -6.1756    3.5 
 H                     20.1756  -4.43461   3.5 
 H                     16.01416  -5.56104   3.5 
 H                     19.56104  -2.01416   3.5 
 Zn                    14.       0.        3.5 
 
 Stoichiometry    C64H32N16Zn2
 Framework group  C2H[SGH(N4Zn2),X(C64H32N12)]
 Deg. of freedom    86
 Full point group                 C2H     NOp   4
 Largest Abelian subgroup         C2H     NOp   4
 Largest concise Abelian subgroup C2H     NOp   4
                         Standard orientation:                         
 ---------------------------------------------------------------------
 Center     Atomic      Atomic             Coordinates (Angstroms)
 Number     Number       Type             X           Y           Z
 ---------------------------------------------------------------------
      1          6           0        1.750000   11.138371    5.130673
      2          6           0        1.750000   12.130673    4.138371
      3          6           0        1.750000    9.787666    4.799485
      4          6           0        1.750000    9.454083    3.449643
      5          6           0        1.750000   10.449643    2.454083
      6          6           0        1.750000   11.799485    2.787666
      7          6           0        1.750000    8.173513    2.758029
      8          6           0        1.750000    9.758029    1.173513
      9          7           0        1.750000    8.406507    1.406507
     10          7           0        1.750000   10.380774    0.000000
     11          7           0        1.750000    7.000000    3.380774
     12          1           0        1.750000   11.434605    6.175603
     13          1           0        1.750000   13.175603    4.434605
     14          1           0        1.750000    9.014157    5.561043
     15          1           0        1.750000   12.561043    2.014157
     16          6           0        1.750000    1.869327    4.138371
     17          6           0        1.750000    2.861629    5.130673
     18          6           0        1.750000    2.200515    2.787666
     19          6           0        1.750000    3.550357    2.454083
     20          6           0        1.750000    4.545917    3.449643
     21          6           0        1.750000    4.212334    4.799485
     22          6           0        1.750000    4.241971    1.173513
     23          6           0        1.750000    5.826487    2.758029
     24          7           0        1.750000    5.593493    1.406507
     25          7           0        1.750000    3.619226    0.000000
     26          1           0        1.750000    0.824397    4.434605
     27          1           0        1.750000    2.565395    6.175603
     28          1           0        1.750000    1.438957    2.014157
     29          1           0        1.750000    4.985843    5.561043
     30          6           0        1.750000   12.130673   -4.138371
     31          6           0        1.750000   11.138371   -5.130673
     32          6           0        1.750000   11.799485   -2.787666
     33          6           0        1.750000   10.449643   -2.454083
     34          6           0        1.750000    9.454083   -3.449643
     35          6           0        1.750000    9.787666   -4.799485
     36          6           0        1.750000    9.758029   -1.173513
     37          6           0        1.750000    8.173513   -2.758029
     38          7           0        1.750000    8.406507   -1.406507
     39          7           0        1.750000    7.000000   -3.380774
     40          1           0        1.750000   13.175603   -4.434605
     41          1           0        1.750000   11.434605   -6.175603
     42          1           0        1.750000   12.561043   -2.014157
     43          1           0        1.750000    9.014157   -5.561043
     44          6           0        1.750000    2.861629   -5.130673
     45          6           0        1.750000    1.869327   -4.138371
     46          6           0        1.750000    4.212334   -4.799485
     47          6           0        1.750000    4.545917   -3.449643
     48          6           0        1.750000    3.550357   -2.454083
     49          6           0        1.750000    2.200515   -2.787666
     50          6           0        1.750000    5.826487   -2.758029
     51          6           0        1.750000    4.241971   -1.173513
     52          7           0        1.750000    5.593493   -1.406507
     53          1           0        1.750000    2.565395   -6.175603
     54          1           0        1.750000    0.824397   -4.434605
     55          1           0        1.750000    4.985843   -5.561043
     56          1           0        1.750000    1.438957   -2.014157
     57         30           0        1.750000    7.000000    0.000000
     58          6           0       -1.750000   -2.861629    5.130673
     59          6           0       -1.750000   -1.869327    4.138371
     60          6           0       -1.750000   -4.212334    4.799485
     61          6           0       -1.750000   -4.545917    3.449643
     62          6           0       -1.750000   -3.550357    2.454083
     63          6           0       -1.750000   -2.200515    2.787666
     64          6           0       -1.750000   -5.826487    2.758029
     65          6           0       -1.750000   -4.241971    1.173513
     66          7           0       -1.750000   -5.593493    1.406507
     67          7           0       -1.750000   -3.619226    0.000000
     68          7           0       -1.750000   -7.000000    3.380774
     69          1           0       -1.750000   -2.565395    6.175603
     70          1           0       -1.750000   -0.824397    4.434605
     71          1           0       -1.750000   -4.985843    5.561043
     72          1           0       -1.750000   -1.438957    2.014157
     73          6           0       -1.750000  -12.130673    4.138371
     74          6           0       -1.750000  -11.138371    5.130673
     75          6           0       -1.750000  -11.799485    2.787666
     76          6           0       -1.750000  -10.449643    2.454083
     77          6           0       -1.750000   -9.454083    3.449643
     78          6           0       -1.750000   -9.787666    4.799485
     79          6           0       -1.750000   -9.758029    1.173513
     80          6           0       -1.750000   -8.173513    2.758029
     81          7           0       -1.750000   -8.406507    1.406507
     82          7           0       -1.750000  -10.380774    0.000000
     83          1           0       -1.750000  -13.175603    4.434605
     84          1           0       -1.750000  -11.434605    6.175603
     85          1           0       -1.750000  -12.561043    2.014157
     86          1           0       -1.750000   -9.014157    5.561043
     87          6           0       -1.750000   -1.869327   -4.138371
     88          6           0       -1.750000   -2.861629   -5.130673
     89          6           0       -1.750000   -2.200515   -2.787666
     90          6           0       -1.750000   -3.550357   -2.454083
     91          6           0       -1.750000   -4.545917   -3.449643
     92          6           0       -1.750000   -4.212334   -4.799485
     93          6           0       -1.750000   -4.241971   -1.173513
     94          6           0       -1.750000   -5.826487   -2.758029
     95          7           0       -1.750000   -5.593493   -1.406507
     96          7           0       -1.750000   -7.000000   -3.380774
     97          1           0       -1.750000   -0.824397   -4.434605
     98          1           0       -1.750000   -2.565395   -6.175603
     99          1           0       -1.750000   -1.438957   -2.014157
    100          1           0       -1.750000   -4.985843   -5.561043
    101          6           0       -1.750000  -11.138371   -5.130673
    102          6           0       -1.750000  -12.130673   -4.138371
    103          6           0       -1.750000   -9.787666   -4.799485
    104          6           0       -1.750000   -9.454083   -3.449643
    105          6           0       -1.750000  -10.449643   -2.454083
    106          6           0       -1.750000  -11.799485   -2.787666
    107          6           0       -1.750000   -8.173513   -2.758029
    108          6           0       -1.750000   -9.758029   -1.173513
    109          7           0       -1.750000   -8.406507   -1.406507
    110          1           0       -1.750000  -11.434605   -6.175603
    111          1           0       -1.750000  -13.175603   -4.434605
    112          1           0       -1.750000   -9.014157   -5.561043
    113          1           0       -1.750000  -12.561043   -2.014157
    114         30           0       -1.750000   -7.000000    0.000000
 ---------------------------------------------------------------------
 Rotational constants (GHZ):      0.0425181      0.0070875      0.0061585
 Standard basis: def2SVP (5D, 7F)
 There are   372 symmetry adapted cartesian basis functions of AG  symmetry.
 There are   344 symmetry adapted cartesian basis functions of BG  symmetry.
 There are   344 symmetry adapted cartesian basis functions of AU  symmetry.
 There are   372 symmetry adapted cartesian basis functions of BU  symmetry.
 There are   347 symmetry adapted basis functions of AG  symmetry.
 There are   324 symmetry adapted basis functions of BG  symmetry.
 There are   324 symmetry adapted basis functions of AU  symmetry.
 There are   347 symmetry adapted basis functions of BU  symmetry.
  1342 basis functions,  2386 primitive gaussians,  1432 cartesian basis functions
   294 alpha electrons      294 beta electrons
       nuclear repulsion energy     13382.0852058764 Hartrees.
 NAtoms=  114 NActive=  114 NUniq=   30 SFac= 4.00D+00 NAtFMM=   60 NAOKFM=T Big=F
 Integral buffers will be    131072 words long.
 Raffenetti 2 integral format.
 Two-electron integral symmetry is turned on.
 One-electron integrals computed using PRISM.
   4 Symmetry operations used in ECPInt.
 ECPInt:  NShTT=  179101 NPrTT=  695647 LenC2=   85493 LenP2D=  196394.
 LDataN:  DoStor=T MaxTD1= 6 Len=  172
 NBasis=  1342 RedAO= T EigKep=  1.32D-04  NBF=   347   324   324   347
 NBsUse=  1342 1.00D-06 EigRej= -1.00D+00 NBFU=   347   324   324   347
 ExpMin= 4.23D-02 ExpMax= 8.20D+04 ExpMxC= 1.23D+04 IAcc=2 IRadAn=         4 AccDes= 0.00D+00
 Harris functional with IExCor=10402 and IRadAn=       4 diagonalized for initial guess.
 HarFok:  IExCor=10402 AccDes= 0.00D+00 IRadAn=         4 IDoV= 1 UseB2=F ITyADJ=14
 ICtDFT=  3500011 ScaDFX=  1.000000  1.000000  1.000000  1.000000
 FoFCou: FMM=F IPFlag=           0 FMFlag=      100000 FMFlg1=        2000
         NFxFlg=           0 DoJE=T BraDBF=F KetDBF=T FulRan=T
         wScrn=  0.000000 ICntrl=     500 IOpCl=  0 I1Cent=   200000004 NGrid=           0
         NMat0=    1 NMatS0=      1 NMatT0=    0 NMatD0=    1 NMtDS0=    0 NMtDT0=    0
 Petite list used in FoFCou.
 Initial guess orbital symmetries:
       Occupied  (BU) (AG) (BU) (AG) (AG) (BG) (BU) (AU) (BU) (AG)
                 (BG) (AG) (BU) (AU) (AU) (BG) (BU) (AG) (BU) (AG)
                 (BU) (AU) (BG) (AG) (BU) (AG) (BG) (AU) (BG) (BU)
                 (AG) (AU) (BU) (AG) (AU) (BG) (AG) (AU) (BG) (BU)
                 (AG) (BU) (AU) (AG) (BG) (AU) (BU) (AG) (BG) (BU)
                 (AU) (AG) (BG) (AU) (BU) (AG) (BG) (BU) (AU) (BG)
                 (BG) (AU) (AG) (BG) (AU) (BU) (AG) (BG) (AU) (BU)
                 (AG) (BU) (BU) (AG) (BU) (AG) (BU) (BG) (AU) (AG)
                 (BU) (AG) (BG) (AU) (BG) (BU) (AG) (AU) (BG) (AU)
                 (BU) (AG) (BG) (BU) (AU) (AG) (BU) (AG) (BU) (AG)
                 (AU) (AG) (BU) (BG) (AU) (BG) (BU) (AG) (AU) (AG)
                 (BU) (BG) (AG) (BU) (AU) (BG) (AG) (AU) (BG) (BU)
                 (AG) (BU) (AU) (BG) (AU) (AG) (BU) (BG) (AG) (BU)
                 (AG) (BU) (AU) (AG) (BU) (BG) (AU) (BG) (AU) (BG)
                 (AG) (AU) (BG) (BU) (AG) (BU) (AU) (AG) (BU) (BG)
                 (AU) (BG) (AG) (BU) (AU) (BG) (AU) (AG) (BU) (BG)
                 (AU) (BG) (AG) (BU) (AG) (BU) (AG) (AU) (BG) (BU)
                 (AU) (BG) (AG) (AU) (BG) (BU) (AG) (BU) (AG) (AU)
                 (BG) (BU) (AU) (BG) (AG) (BU) (AU) (BG) (AU) (AG)
                 (BU) (BG) (AG) (BU) (AU) (BG) (AU) (AG) (BU) (BG)
                 (AG) (BU) (AU) (BG) (AG) (AU) (BG) (BU) (AU) (BG)
                 (AG) (BU) (AG) (AU) (BG) (BU) (AG) (BU) (AU) (BG)
                 (AG) (BU) (AU) (AG) (BU) (BG) (AU) (BG) (AU) (BG)
                 (AG) (BU) (AG) (BU) (AG) (AU) (AU) (BU) (BG) (AG)
                 (BG) (BU) (AG) (BU) (AU) (BG) (AU) (BG) (AG) (AU)
                 (BG) (BU) (AG) (AU) (BG) (BU) (AG) (BU) (AU) (BG)
                 (AG) (AU) (BG) (BU) (AG) (BU) (AG) (BU) (AU) (AG)
                 (BU) (BG) (AG) (BU) (AG) (AU) (BG) (BU) (AG) (BU)
                 (AU) (BG) (AG) (BU) (AG) (BU) (AG) (AU) (BG) (BU)
                 (AU) (BG) (AU) (BG)
       Virtual   (AG) (AU) (BG) (BU) (AG) (BU) (AU) (BG) (AG) (BU)
                 (AU) (AG) (BU) (BG) (AU) (BG) (AG) (AU) (BG) (BU)
                 (AG) (BU) (AU) (BG) (AG) (BU) (AG) (AU) (BU) (AG)
                 (BG) (AU) (BU) (AG) (BU) (BG) (AG) (BU) (AU) (AG)
                 (AU) (AG) (BG) (BU) (BU) (BG) (AG) (AU) (BU) (BG)
                 (AG) (AU) (BG) (BU) (AU) (AG) (BG) (AG) (BU) (BU)
                 (AU) (AG) (BU) (AG) (BG) (AU) (BU) (BG) (AG) (BU)
                 (AU) (AG) (BU) (BG) (AU) (BG) (AG) (AU) (BU) (BG)
                 (AG) (BU) (AG) (AU) (BU) (BG) (AG) (BG) (AU) (BU)
                 (AU) (BG) (AU) (AG) (BU) (BG) (AG) (BU) (AG) (AU)
                 (BG) (AU) (BU) (BG) (AU) (BG) (AU) (AG) (BU) (BG)
                 (AG) (BU) (AG) (BU) (AG) (BU) (AU) (AG) (BU) (BG)
                 (AU) (BG) (AG) (BU) (AU) (BG) (BG) (BU) (AU) (AG)
                 (BG) (AU) (AG) (BU) (AU) (BG) (AG) (BU) (BG) (AU)
                 (BU) (AG) (AU) (BU) (BG) (AG) (BU) (BG) (AU) (AG)
                 (BU) (AG) (BU) (AG) (AU) (BG) (BU) (AU) (AG) (BG)
                 (BG) (AU) (BU) (AU) (AG) (AG) (BU) (BG) (AU) (BG)
                 (AU) (BG) (AG) (BU) (AG) (BG) (AU) (BU) (AG) (AU)
                 (BU) (AU) (AG) (BG) (BU) (AG) (AU) (BU) (BG) (BG)
                 (AU) (BG) (AG) (AU) (BU) (BG) (AG) (AU) (BG) (BU)
                 (AU) (AG) (BU) (BG) (AG) (BU) (AG) (AU) (BU) (BG)
                 (AG) (AU) (BU) (AG) (AG) (BG) (BU) (AU) (AG) (BU)
                 (BG) (BU) (AU) (BG) (AG) (BU) (AU) (BG) (AU) (AG)
                 (BU) (BG) (AU) (AG) (BG) (AU) (BG) (AU) (BU) (BG)
                 (AG) (BU) (AG) (BU) (AG) (BU) (AU) (AG) (BG) (BU)
                 (AU) (AG) (BU) (BG) (AG) (BU) (AG) (BU) (AG) (AU)
                 (BU) (BG) (AU) (AU) (BG) (BG) (AU) (AG) (BG) (BU)
                 (AU) (BG) (AG) (AG) (AU) (BG) (BU) (AU) (BU) (BG)
                 (AG) (BU) (AU) (AG) (BU) (AG) (BG) (BU) (AG) (AG)
                 (BU) (BU) (AU) (BG) (AG) (BU) (AU) (BG) (AG) (BU)
                 (AU) (BG) (BG) (AU) (AU) (AG) (BG) (BU) (AU) (AG)
                 (BG) (BU) (AG) (AU) (BU) (BG) (AU) (BG) (AU) (AG)
                 (BU) (AU) (AG) (BG) (BG) (BU) (BU) (AU) (BG) (AG)
                 (BU) (AG) (AU) (AG) (BU) (AG) (BG) (BU) (AU) (BG)
                 (AG) (AU) (BU) (BG) (AG) (BU) (BG) (AU) (AU) (AG)
                 (BG) (BU) (AU) (BG) (BG) (AU) (BU) (AG) (AU) (BU)
                 (BG) (AG) (AU) (BG) (BU) (BG) (AG) (AU) (AG) (BU)
                 (BG) (AG) (BU) (AU) (AU) (AG) (BU) (BG) (AG) (AU)
                 (BU) (BG) (BU) (AG) (AU) (BG) (AG) (BU) (AU) (BG)
                 (BU) (AG) (AU) (AG) (BU) (BG) (AU) (BG) (AU) (BG)
                 (AG) (BU) (BG) (AU) (BU) (BG) (AU) (AG) (BU) (AG)
                 (AG) (BU) (AG) (AU) (BU) (BG) (AG) (BU) (BG) (AU)
                 (AG) (BU) (AG) (AU) (BG) (BU) (AG) (AU) (BG) (BU)
                 (AG) (BU) (BG) (AG) (BU) (AU) (AG) (BU) (AU) (BG)
                 (BG) (BU) (AG) (AU) (BG) (AU) (BU) (AG) (BG) (AU)
                 (BU) (AU) (BG) (AG) (BU) (AG) (BG) (AU) (AU) (BG)
                 (BU) (BG) (AU) (AG) (BU) (AG) (BG) (AU) (BU) (BG)
                 (AU) (AG) (BU) (AG) (BG) (AU) (BU) (AG) (AU) (BU)
                 (BG) (AG) (BG) (BU) (AG) (AU) (BU) (AG) (AG) (BU)
                 (AU) (AG) (BU) (BG) (AU) (BG) (AG) (AU) (BG) (BU)
                 (AG) (AU) (BG) (BU) (BG) (AU) (AG) (BU) (BU) (BG)
                 (AU) (AG) (BG) (AU) (AG) (BU) (BU) (AG) (AU) (BG)
                 (AU) (AG) (BU) (BG) (AG) (BU) (AG) (AU) (BG) (BU)
                 (AU) (BG) (AU) (BU) (AG) (BG) (AU) (BG) (BG) (AU)
                 (AG) (BG) (AU) (BU) (AG) (AU) (BG) (BU) (AG) (BU)
                 (AU) (BG) (BU) (AG) (AG) (BU) (BG) (AU) (BU) (BG)
                 (AU) (AG) (BG) (AU) (AG) (BU) (AU) (AG) (BG) (BU)
                 (AU) (BG) (AU) (AG) (BU) (BG) (AU) (BG) (AG) (AU)
                 (BG) (BU) (AU) (AG) (BU) (BG) (AG) (BU) (AG) (BU)
                 (AU) (BG) (AU) (BG) (AG) (AU) (AG) (BU) (BG) (BU)
                 (AG) (BU) (AG) (BU) (AG) (AU) (BU) (AG) (BG) (AU)
                 (BU) (BG) (AG) (AU) (BG) (BU) (AU) (BG) (AG) (BU)
                 (AG) (BG) (AU) (BU) (AU) (AG) (BU) (BG) (AU) (AG)
                 (BG) (BU) (AU) (BG) (AG) (BU) (AU) (AG) (BG) (BU)
                 (AU) (BG) (AG) (AU) (BU) (BG) (AG) (BU) (AU) (BG)
                 (AG) (AU) (BG) (BU) (AG) (BU) (AU) (AG) (BG) (BU)
                 (AG) (AU) (BU) (BG) (AU) (AG) (BU) (BG) (AU) (BG)
                 (AU) (BG) (AG) (AU) (BG) (BU) (AG) (BU) (AG) (BU)
                 (AG) (BU) (AG) (AU) (BG) (BU) (AG) (BU) (AU) (BG)
                 (AG) (AU) (BG) (BU) (AU) (BG) (AU) (BG) (BU) (AG)
                 (AG) (BU) (BU) (BG) (AU) (AG) (BG) (AU) (AU) (AG)
                 (BU) (BG) (AG) (BU) (AG) (BG) (BU) (AU) (AG) (BU)
                 (BU) (AG) (AG) (AU) (BG) (BU) (AU) (BG) (BG) (AU)
                 (BU) (AU) (BG) (AG) (AU) (BG) (BG) (AU) (AG) (BU)
                 (AU) (AG) (BG) (BU) (AG) (AU) (BG) (BU) (AG) (BU)
                 (AU) (BG) (AG) (BU) (AG) (AU) (BG) (BU) (AU) (AG)
                 (AU) (AG) (BU) (BG) (BG) (AU) (BG) (BU) (AU) (AU)
                 (AG) (BG) (BU) (BG) (AG) (BU) (AU) (BG) (AG) (AU)
                 (BG) (BU) (AG) (BU) (AU) (AG) (BU) (BG) (AG) (BU)
                 (BU) (AG) (AU) (BG) (BU) (BG) (AG) (AU) (BG) (AU)
                 (AU) (BU) (AG) (BG) (AU) (BG) (AG) (BU) (AG) (AU)
                 (BG) (BU) (AG) (BU) (AU) (BG) (AG) (BU) (AU) (AG)
                 (BU) (BG) (AU) (BG) (AU) (BG) (AG) (BU) (AG) (BU)
                 (AU) (BG) (AG) (BU) (AU) (AG) (BU) (BG) (AU) (BG)
                 (BG) (AU) (AU) (BG) (BU) (AU) (BG) (AG) (AG) (BU)
                 (AU) (AG) (BU) (BG) (AG) (BU) (BU) (AG) (BG) (AU)
                 (BG) (BU) (AG) (AU) (BU) (AG) (BU) (AG) (BG) (AG)
                 (AU) (BU) (BG) (AU) (AG) (AU) (BG) (BU) (AU) (BG)
                 (BG) (BU) (AG) (AU) (BU) (AG) (BG) (AU) (AU) (BG)
                 (BG) (BU) (AU) (AG) (BU) (BG) (AU) (AG) (AU) (AG)
                 (BG) (BU) (AG) (BU) (AU) (BG) (AG) (BU) (AG) (BU)
                 (BU) (AU) (BG) (AG) (AG) (BU) (BG) (AG) (AU) (BU)
                 (AG) (BU) (AG) (AU) (BG) (BU) (AU) (BG) (AG) (BU)
                 (AG) (BU) (AU) (BU) (AG) (BG) (BG) (AU) (AG) (AU)
                 (BG) (BU) (AG) (BU) (AU) (BG) (AG) (BG) (AU) (BU)
                 (AU) (BG) (AG) (BU) (AU) (BG) (BG) (BU) (AU) (BG)
                 (AG) (AU) (AG) (AU) (BU) (BG) (AU) (BG) (AG) (BU)
                 (BG) (AG) (BU) (AU) (BU) (AG) (AU) (BG) (BG) (AU)
                 (BU) (AU) (BG) (AG) (BU) (AG) (AG) (BU) (AU) (BU)
                 (AG) (BG) (AU) (BG) (AU) (BG) (AU) (AG) (BU) (BG)
                 (BU) (AG) (AU) (BG) (AG) (AU) (BG) (BU) (AG) (BU)
                 (AG) (AU) (BG) (BU) (AU) (BG) (AG) (BU) (AG) (BU)
                 (AU) (BG) (AU) (AG) (BU) (BG) (AU) (BG) (AG) (AU)
                 (BU) (BG) (AG) (BU) (AG) (BU) (AU) (BG) (AG) (BU)
                 (AU) (AG) (BU) (BG) (AU) (BU) (AG) (BG)
 The electronic state of the initial guess is 1-AG.
 Requested convergence on RMS density matrix=1.00D-08 within 128 cycles.
 Requested convergence on MAX density matrix=1.00D-06.
 Requested convergence on             energy=1.00D-06.
 No special actions if energy rises.
 SCF Done:  E(RLC-B+HF-LYP) =  -6881.15674237     A.U. after   15 cycles
            NFock= 15  Conv=0.64D-08     -V/T= 2.0056
 Hyperfine terms turned off by default for NAtoms > 100.

 **********************************************************************

            Population analysis using the SCF density.

 **********************************************************************

 Orbital symmetries:
       Occupied  (BU) (AG) (BU) (AG) (BU) (AG) (AG) (BU) (BG) (AU)
                 (BG) (AU) (BU) (AG) (AU) (BG) (BU) (AG) (BU) (AG)
                 (AU) (BG) (BU) (AG) (BU) (AG) (BU) (AG) (BG) (AU)
                 (BU) (AG) (BG) (AU) (BU) (AG) (BG) (AU) (BU) (AG)
                 (BG) (AU) (BG) (AU) (AG) (BU) (BG) (AU) (BU) (AG)
                 (BG) (AU) (BU) (AG) (BG) (AU) (BU) (AG) (BG) (BU)
                 (AU) (AG) (BU) (AG) (BG) (AU) (AU) (AG) (BG) (BU)
                 (AU) (BG) (AG) (BU) (AU) (BG) (AG) (BU) (BG) (AU)
                 (AG) (BU) (AU) (BG) (AG) (BU) (AU) (BG) (AG) (BU)
                 (BU) (AG) (BU) (AG) (AG) (BU) (BG) (AU) (AG) (BU)
                 (AU) (BG) (AG) (BU) (AU) (BG) (AG) (BU) (AU) (BG)
                 (AG) (BU) (AG) (BU) (AU) (AG) (BG) (BU) (AU) (BG)
                 (AG) (BU) (AU) (BG) (AG) (BU) (AU) (AG) (BG) (BU)
                 (AG) (BU) (AU) (BG) (AU) (BG) (AG) (BU) (AU) (BG)
                 (AG) (AU) (BG) (BU) (AU) (BG) (AG) (BU) (AU) (AG)
                 (BU) (BG) (AG) (BU) (AU) (BG) (AG) (BU) (AU) (AG)
                 (BU) (BG) (AU) (BG) (AG) (BU) (AG) (AU) (BG) (BU)
                 (AU) (BG) (AG) (AU) (BG) (BU) (AU) (BG) (AG) (BU)
                 (AG) (BU) (AU) (BG) (AG) (BU) (AU) (AG) (BU) (BG)
                 (AU) (AG) (BU) (BG) (AU) (AG) (BG) (BU) (AG) (BU)
                 (AU) (BG) (AU) (BG) (AU) (BG) (AG) (BU) (AG) (BU)
                 (AG) (BU) (AU) (AG) (BU) (BG) (AG) (BU) (AU) (BG)
                 (AU) (BG) (AG) (AU) (BG) (BU) (AU) (BG) (AG) (BU)
                 (AG) (BU) (AG) (BU) (AU) (AG) (BU) (BG) (AG) (BU)
                 (AU) (AG) (BU) (BG) (AU) (BG) (AU) (BG) (AU) (AG)
                 (BU) (BG) (AG) (BU) (AG) (AU) (BG) (BU) (AU) (BG)
                 (AG) (AU) (BG) (BU) (AG) (BU) (AU) (BG) (AG) (BU)
                 (AU) (BG) (AG) (BU) (AG) (BU) (AG) (BU) (AU) (AG)
                 (BU) (BG) (AG) (AU) (BG) (BU) (AU) (BG) (AU) (BG)
                 (AG) (BU) (AU) (BG)
       Virtual   (AG) (AU) (BG) (BU) (AG) (BU) (AU) (BG) (AG) (BU)
                 (AU) (AG) (BU) (BG) (AG) (BU) (AU) (BG) (AG) (AU)
                 (BG) (BU) (AG) (AU) (BG) (AU) (BU) (AG) (BG) (BU)
                 (AG) (AU) (AG) (BU) (BU) (BG) (AG) (BU) (AU) (AG)
                 (BG) (BU) (AG) (BU) (AU) (BG) (AG) (AU) (AU) (BU)
                 (BG) (AG) (BG) (BU) (AG) (AG) (BU) (BU) (AU) (BG)
                 (AU) (AG) (BU) (BG) (AU) (BG) (AG) (AU) (BU) (BG)
                 (AG) (BU) (AU) (BG) (AG) (BU) (AG) (AU) (BU) (BG)
                 (AU) (BG) (AG) (BU) (AG) (BU) (AG) (BG) (AU) (BU)
                 (AG) (BU) (AU) (BG) (AU) (AG) (BU) (BG) (AG) (BU)
                 (AG) (AU) (BG) (BU) (AU) (BG) (AU) (BG) (AU) (AG)
                 (BU) (BG) (AG) (BU) (AU) (AG) (BU) (BG) (AG) (BU)
                 (AU) (BG) (BG) (AU) (BG) (AU) (BU) (BG) (AU) (AG)
                 (AG) (BU) (BG) (AG) (BU) (AU) (AU) (BU) (AG) (BG)
                 (BU) (AG) (BU) (AU) (BG) (AG) (BU) (AU) (BG) (AG)
                 (AU) (BU) (AG) (BG) (BU) (AG) (BU) (AG) (BG) (BU)
                 (AG) (AU) (BG) (AU) (BG) (AG) (BU) (AU) (AU) (BG)
                 (AG) (BU) (AU) (BG) (AG) (AG) (BU) (BG) (AU) (BU)
                 (AG) (AU) (BG) (BU) (AU) (AG) (AU) (BU) (BG) (BG)
                 (AU) (BG) (AU) (BG) (AG) (BU) (AU) (AG) (BU) (AG)
                 (BG) (BU) (AG) (AU) (BU) (BG) (AG) (BU) (AG) (BU)
                 (AU) (AG) (BG) (BU) (AG) (BU) (AG) (AU) (BU) (AG)
                 (BU) (BG) (AU) (BG) (AU) (BG) (AU) (BG) (AU) (BG)
                 (AG) (AU) (BG) (BU) (AU) (AG) (AU) (BG) (BU) (BG)
                 (AG) (BU) (AG) (BU) (AG) (BU) (AU) (AG) (AU) (BU)
                 (BG) (AG) (BU) (BG) (AG) (BU) (AG) (BU) (AG) (AU)
                 (BG) (AU) (BU) (AU) (BG) (BG) (AG) (AU) (BU) (BG)
                 (AG) (BU) (AU) (AG) (BG) (BU) (AU) (AG) (BU) (BG)
                 (AG) (AU) (BG) (AU) (AG) (BU) (BG) (BU) (AG) (BU)
                 (AG) (BU) (AU) (BG) (AG) (BU) (BG) (AU) (AU) (BG)
                 (BG) (AU) (BU) (AG) (BG) (AU) (BU) (AU) (AG) (BG)
                 (AG) (AU) (BU) (BG) (BU) (AG) (AU) (BG) (AU) (BG)
                 (BU) (AG) (AU) (BG) (AG) (BU) (BU) (AU) (AG) (AG)
                 (BG) (BU) (AU) (BU) (AG) (AG) (BG) (BU) (BG) (AU)
                 (AG) (BG) (BU) (AU) (AU) (BU) (AG) (BG) (AU) (AG)
                 (BU) (BG) (AG) (AU) (BG) (BU) (AU) (BG) (AU) (BU)
                 (BG) (AG) (AU) (BG) (AU) (BG) (AG) (BU) (AG) (BU)
                 (AU) (AG) (BU) (BG) (AG) (BG) (AU) (BU) (AU) (BG)
                 (AG) (BU) (AU) (BG) (BU) (AG) (AG) (BU) (AU) (BG)
                 (BU) (AG) (BG) (AU) (AU) (BU) (AG) (BG) (AU) (BG)
                 (AG) (BU) (BU) (AG) (AU) (AG) (BG) (BU) (AU) (BG)
                 (AG) (BU) (AU) (AG) (BG) (BU) (AG) (AU) (BG) (BU)
                 (AG) (BU) (AU) (BG) (AU) (AG) (BU) (BG) (AG) (BU)
                 (AG) (BU) (BG) (AG) (BU) (AU) (BU) (AG) (BG) (AU)
                 (BG) (AG) (BU) (AU) (BG) (AU) (BU) (AG) (BG) (AU)
                 (BU) (AU) (BG) (AG) (BU) (AG) (BG) (AU) (AU) (BG)
                 (BU) (AG) (BU) (BG) (AU) (AG) (BU) (AG) (BG) (AU)
                 (BG) (BU) (AU) (AG) (BG) (BU) (AG) (AU) (BU) (AG)
                 (BG) (AU) (AG) (BU) (BU) (AG) (BG) (AU) (AG) (BG)
                 (BU) (AU) (AU) (BG) (AG) (BU) (AG) (BU) (AG) (BU)
                 (AG) (AU) (BU) (BG) (AU) (BG) (AG) (BU) (BG) (AU)
                 (BG) (AU) (AU) (BG) (BU) (AG) (AU) (BG) (AU) (AG)
                 (BU) (BG) (AG) (BU) (BG) (AU) (AG) (BU) (AG) (BU)
                 (AG) (AU) (BU) (BG) (AU) (BG) (BG) (AU) (AU) (BG)
                 (AG) (BG) (AU) (BU) (AG) (BG) (AU) (BU) (AU) (BG)
                 (AG) (BU) (BU) (AG) (AG) (BU) (AU) (BG) (BU) (BG)
                 (AU) (AG) (BG) (AU) (AG) (BU) (AU) (AG) (BG) (BU)
                 (AU) (BG) (AU) (AG) (BU) (BG) (AU) (BG) (AU) (AG)
                 (BG) (BU) (AU) (AG) (BU) (BG) (AG) (BU) (AG) (BU)
                 (AU) (AG) (BU) (BG) (AG) (AU) (BU) (AG) (BG) (AU)
                 (BG) (AU) (BU) (AG) (BU) (AG) (AU) (BG) (BU) (BG)
                 (AG) (AU) (BG) (BU) (AG) (BU) (AU) (BG) (AG) (BU)
                 (AG) (AU) (BG) (BU) (AU) (AG) (BU) (AU) (BG) (BG)
                 (AU) (AG) (BG) (BU) (AG) (BU) (AG) (AU) (BU) (BG)
                 (AG) (AU) (BU) (BG) (AU) (BG) (AG) (BU) (AG) (AU)
                 (BU) (BG) (AU) (AG) (BG) (BU) (AU) (BG) (AU) (AG)
                 (BU) (BG) (AG) (BU) (AU) (AG) (AU) (BU) (BG) (BG)
                 (AU) (BG) (AG) (AU) (BG) (BU) (AG) (BU) (AG) (BU)
                 (AG) (BU) (AU) (AG) (BG) (BU) (AG) (BU) (AU) (BG)
                 (AG) (AU) (BG) (BU) (AU) (BG) (BU) (AG) (BG) (AU)
                 (BU) (AG) (AG) (BU) (BG) (AU) (AU) (BG) (AU) (AG)
                 (BU) (BG) (AG) (BU) (BU) (AG) (BG) (AU) (BU) (AG)
                 (AG) (BU) (AU) (BG) (AG) (AU) (BG) (BU) (BG) (AU)
                 (BU) (BG) (AU) (AG) (AU) (BG) (BG) (AU) (AG) (BU)
                 (AU) (BU) (AG) (BG) (AG) (AU) (BG) (BU) (AG) (BU)
                 (AG) (AU) (AG) (AU) (BU) (BG) (BU) (AG) (BG) (AU)
                 (BG) (AU) (BU) (BG) (AU) (AG) (AU) (BU) (BG) (BG)
                 (AU) (BU) (AG) (BG) (AG) (BU) (AG) (AU) (BG) (AU)
                 (BG) (BU) (AG) (BU) (AG) (AU) (BG) (BU) (AG) (BU)
                 (AU) (BG) (BU) (AG) (BG) (BU) (AU) (AG) (AU) (BG)
                 (AU) (AU) (BG) (AG) (BU) (BG) (AG) (BU) (AG) (BU)
                 (AG) (AU) (BG) (BU) (AG) (BU) (AU) (BG) (AU) (AG)
                 (BU) (BG) (AU) (BG) (AU) (BG) (AG) (AU) (BU) (BG)
                 (AG) (BU) (AG) (BU) (AU) (AG) (BU) (BG) (AU) (BG)
                 (AU) (BG) (AU) (BG) (AU) (BG) (BU) (AG) (AG) (BU)
                 (AG) (BU) (AU) (AG) (BU) (BG) (BU) (AG) (BG) (AU)
                 (BU) (BG) (AG) (AU) (AG) (BU) (BU) (AG) (AG) (BG)
                 (AU) (BU) (AU) (BG) (AG) (BU) (BG) (AU) (AU) (BG)
                 (BG) (BU) (AG) (AU) (BU) (AG) (BG) (AU) (BG) (AU)
                 (BG) (BU) (AU) (AG) (AG) (BU) (BG) (AU) (AG) (AU)
                 (BG) (BU) (BU) (AG) (AG) (BU) (AG) (BU) (AU) (BG)
                 (BU) (AU) (BG) (AG) (AG) (BU) (BG) (AU) (AG) (BU)
                 (BU) (AG) (AG) (BU) (AG) (AU) (BG) (BU) (AU) (BG)
                 (AG) (BU) (AU) (BU) (AG) (BG) (AU) (BG) (AG) (BG)
                 (AU) (BU) (AG) (BU) (AU) (BG) (BG) (AU) (AG) (BG)
                 (AU) (BU) (AG) (BU) (AU) (BG) (AG) (BU) (AU) (BG)
                 (AU) (BG) (BG) (BU) (AG) (AU) (BG) (AU) (AG) (BU)
                 (BG) (AU) (BU) (AG) (BG) (AG) (BU) (AU) (BG) (AU)
                 (BU) (BG) (AU) (AG) (BU) (AG) (AG) (BU) (AU) (BU)
                 (AG) (BG) (BG) (AU) (AU) (BG) (AU) (AG) (BU) (BG)
                 (BU) (AG) (AU) (BG) (AG) (AU) (BG) (BU) (AG) (BU)
                 (AG) (AU) (BU) (BG) (AU) (BG) (AG) (BU) (AG) (BU)
                 (AU) (BG) (AG) (AU) (BG) (BU) (AU) (BG) (AU) (AG)
                 (BU) (BG) (AG) (BU) (AG) (BU) (AG) (BU) (AU) (BG)
                 (AU) (BU) (AG) (BG) (AU) (BU) (AG) (BG)
 The electronic state is 1-AG.
 Alpha  occ. eigenvalues -- -345.98464-345.98464 -41.86393 -41.86393 -36.96100
 Alpha  occ. eigenvalues --  -36.96100 -36.95318 -36.95318 -36.95318 -36.95318
 Alpha  occ. eigenvalues --  -14.21361 -14.21361 -14.21361 -14.21361 -14.21358
 Alpha  occ. eigenvalues --  -14.21358 -14.21355 -14.21355 -14.20515 -14.20515
 Alpha  occ. eigenvalues --  -14.20514 -14.20514 -14.20511 -14.20511 -14.20511
 Alpha  occ. eigenvalues --  -14.20511 -10.17921 -10.17921 -10.17917 -10.17917
 Alpha  occ. eigenvalues --  -10.17916 -10.17916 -10.17911 -10.17911 -10.17908
 Alpha  occ. eigenvalues --  -10.17908 -10.17903 -10.17903 -10.17902 -10.17902
 Alpha  occ. eigenvalues --  -10.17898 -10.17898 -10.11067 -10.11067 -10.11066
 Alpha  occ. eigenvalues --  -10.11066 -10.11057 -10.11057 -10.11056 -10.11056
 Alpha  occ. eigenvalues --  -10.11044 -10.11044 -10.11042 -10.11042 -10.11042
 Alpha  occ. eigenvalues --  -10.11042 -10.11041 -10.11041 -10.10899 -10.10899
 Alpha  occ. eigenvalues --  -10.10899 -10.10899 -10.10885 -10.10885 -10.10885
 Alpha  occ. eigenvalues --  -10.10885 -10.10878 -10.10878 -10.10877 -10.10877
 Alpha  occ. eigenvalues --  -10.10873 -10.10873 -10.10872 -10.10872 -10.10835
 Alpha  occ. eigenvalues --  -10.10835 -10.10834 -10.10833 -10.10827 -10.10827
 Alpha  occ. eigenvalues --  -10.10825 -10.10825 -10.10824 -10.10824 -10.10822
 Alpha  occ. eigenvalues --  -10.10822 -10.10817 -10.10817 -10.10815 -10.10815
 Alpha  occ. eigenvalues --   -4.78189  -4.78189  -3.22879  -3.22879  -3.21578
 Alpha  occ. eigenvalues --   -3.21578  -3.21578  -3.21578  -1.12038  -1.12038
 Alpha  occ. eigenvalues --   -1.10590  -1.10590  -1.10589  -1.10589  -1.07863
 Alpha  occ. eigenvalues --   -1.07863  -1.05470  -1.05470  -1.01415  -1.01415
 Alpha  occ. eigenvalues --   -1.01414  -1.01414  -0.98379  -0.98378  -0.97110
 Alpha  occ. eigenvalues --   -0.97109  -0.97109  -0.97108  -0.97075  -0.97074
 Alpha  occ. eigenvalues --   -0.96949  -0.96948  -0.89020  -0.89019  -0.87709
 Alpha  occ. eigenvalues --   -0.87706  -0.87432  -0.87432  -0.87431  -0.87428
 Alpha  occ. eigenvalues --   -0.87084  -0.87084  -0.87084  -0.87079  -0.86866
 Alpha  occ. eigenvalues --   -0.86864  -0.86747  -0.86744  -0.83307  -0.83305
 Alpha  occ. eigenvalues --   -0.80726  -0.80725  -0.80725  -0.80723  -0.75390
 Alpha  occ. eigenvalues --   -0.75388  -0.75192  -0.75188  -0.74363  -0.74362
 Alpha  occ. eigenvalues --   -0.74360  -0.74357  -0.73663  -0.73658  -0.73530
 Alpha  occ. eigenvalues --   -0.73528  -0.70992  -0.70991  -0.70978  -0.70978
 Alpha  occ. eigenvalues --   -0.70973  -0.70971  -0.69787  -0.69778  -0.67439
 Alpha  occ. eigenvalues --   -0.67432  -0.66524  -0.66522  -0.66518  -0.66515
 Alpha  occ. eigenvalues --   -0.65118  -0.65109  -0.64968  -0.64966  -0.64965
 Alpha  occ. eigenvalues --   -0.64961  -0.61529  -0.61527  -0.61129  -0.61117
 Alpha  occ. eigenvalues --   -0.60924  -0.60916  -0.60566  -0.60558  -0.59564
 Alpha  occ. eigenvalues --   -0.59564  -0.59112  -0.59108  -0.59103  -0.59098
 Alpha  occ. eigenvalues --   -0.59098  -0.59098  -0.59097  -0.59092  -0.57901
 Alpha  occ. eigenvalues --   -0.57901  -0.57893  -0.57893  -0.57004  -0.57002
 Alpha  occ. eigenvalues --   -0.56832  -0.56822  -0.56543  -0.56541  -0.56092
 Alpha  occ. eigenvalues --   -0.56092  -0.56092  -0.56091  -0.56004  -0.56003
 Alpha  occ. eigenvalues --   -0.55524  -0.55509  -0.54966  -0.54964  -0.54955
 Alpha  occ. eigenvalues --   -0.54951  -0.54891  -0.54880  -0.54545  -0.54544
 Alpha  occ. eigenvalues --   -0.53978  -0.53965  -0.53731  -0.53723  -0.53721
 Alpha  occ. eigenvalues --   -0.53706  -0.52445  -0.52427  -0.51351  -0.51347
 Alpha  occ. eigenvalues --   -0.50653  -0.50653  -0.48640  -0.48625  -0.48624
 Alpha  occ. eigenvalues --   -0.48616  -0.48615  -0.48615  -0.47540  -0.47514
 Alpha  occ. eigenvalues --   -0.47284  -0.47279  -0.47262  -0.47256  -0.46675
 Alpha  occ. eigenvalues --   -0.46665  -0.46542  -0.46522  -0.46381  -0.46381
 Alpha  occ. eigenvalues --   -0.46375  -0.46371  -0.45810  -0.45796  -0.44617
 Alpha  occ. eigenvalues --   -0.44616  -0.44612  -0.44607  -0.44495  -0.44485
 Alpha  occ. eigenvalues --   -0.42929  -0.42928  -0.42927  -0.42923  -0.41131
 Alpha  occ. eigenvalues --   -0.41130  -0.38395  -0.38395  -0.38391  -0.38390
 Alpha  occ. eigenvalues --   -0.38054  -0.38044  -0.36632  -0.36631  -0.36016
 Alpha  occ. eigenvalues --   -0.36006  -0.35783  -0.35769  -0.35527  -0.35519
 Alpha  occ. eigenvalues --   -0.35514  -0.35505  -0.34751  -0.34747  -0.34741
 Alpha  occ. eigenvalues --   -0.34734  -0.34704  -0.34703  -0.34609  -0.34598
 Alpha  occ. eigenvalues --   -0.33631  -0.33626  -0.23961  -0.23952
 Alpha virt. eigenvalues --   -0.05839  -0.05836  -0.05829  -0.05827   0.02807
 Alpha virt. eigenvalues --    0.02837   0.03954   0.03968   0.04889   0.04907
 Alpha virt. eigenvalues --    0.05272   0.05283   0.05297   0.05300   0.08614
 Alpha virt. eigenvalues --    0.08616   0.10229   0.10311   0.10652   0.10675
 Alpha virt. eigenvalues --    0.10723   0.10727   0.13195   0.13593   0.13601
 Alpha virt. eigenvalues --    0.13906   0.14218   0.14288   0.14612   0.14717
 Alpha virt. eigenvalues --    0.14718   0.14847   0.15098   0.15101   0.15163
 Alpha virt. eigenvalues --    0.15580   0.15992   0.16761   0.17088   0.17107
 Alpha virt. eigenvalues --    0.17917   0.17986   0.18302   0.19001   0.19111
 Alpha virt. eigenvalues --    0.19962   0.20179   0.20606   0.20654   0.20671
 Alpha virt. eigenvalues --    0.20677   0.20678   0.21123   0.21136   0.21458
 Alpha virt. eigenvalues --    0.21699   0.21738   0.22461   0.22939   0.23891
 Alpha virt. eigenvalues --    0.23991   0.24266   0.24287   0.24639   0.24770
 Alpha virt. eigenvalues --    0.25469   0.25479   0.25487   0.25557   0.25812
 Alpha virt. eigenvalues --    0.26423   0.26425   0.27230   0.27296   0.27740
 Alpha virt. eigenvalues --    0.27781   0.27826   0.27827   0.27874   0.27875
 Alpha virt. eigenvalues --    0.28677   0.28701   0.29185   0.29265   0.31211
 Alpha virt. eigenvalues --    0.31268   0.31393   0.31427   0.31436   0.31506
 Alpha virt. eigenvalues --    0.32027   0.32062   0.33380   0.33464   0.33722
 Alpha virt. eigenvalues --    0.33759   0.33796   0.33863   0.34665   0.34693
 Alpha virt. eigenvalues --    0.34920   0.34978   0.35026   0.35083   0.35321
 Alpha virt. eigenvalues --    0.35451   0.35623   0.35707   0.35721   0.35731
 Alpha virt. eigenvalues --    0.35761   0.35838   0.35979   0.36115   0.37104
 Alpha virt. eigenvalues --    0.37166   0.37253   0.37331   0.38238   0.38394
 Alpha virt. eigenvalues --    0.39199   0.39333   0.39726   0.39754   0.40134
 Alpha virt. eigenvalues --    0.40180   0.40205   0.40226   0.40232   0.40236
 Alpha virt. eigenvalues --    0.40497   0.40582   0.41089   0.41106   0.41179
 Alpha virt. eigenvalues --    0.41215   0.41342   0.41404   0.41433   0.41433
 Alpha virt. eigenvalues --    0.41619   0.41738   0.43191   0.43193   0.43219
 Alpha virt. eigenvalues --    0.43221   0.44734   0.44825   0.44866   0.44935
 Alpha virt. eigenvalues --    0.45597   0.45727   0.45727   0.45872   0.46246
 Alpha virt. eigenvalues --    0.46278   0.46325   0.46330   0.46687   0.46742
 Alpha virt. eigenvalues --    0.46768   0.46768   0.46860   0.46919   0.47656
 Alpha virt. eigenvalues --    0.47702   0.47713   0.47761   0.49387   0.49485
 Alpha virt. eigenvalues --    0.49796   0.49918   0.52023   0.52176   0.52639
 Alpha virt. eigenvalues --    0.52745   0.52746   0.52791   0.52920   0.53024
 Alpha virt. eigenvalues --    0.53039   0.53045   0.53057   0.53094   0.53584
 Alpha virt. eigenvalues --    0.53769   0.53885   0.53931   0.53963   0.54151
 Alpha virt. eigenvalues --    0.54155   0.54389   0.54573   0.54664   0.55347
 Alpha virt. eigenvalues --    0.55559   0.55647   0.55685   0.55761   0.55783
 Alpha virt. eigenvalues --    0.55901   0.56040   0.56442   0.56457   0.56566
 Alpha virt. eigenvalues --    0.56580   0.56741   0.56886   0.56914   0.56928
 Alpha virt. eigenvalues --    0.56968   0.57037   0.57186   0.57328   0.57657
 Alpha virt. eigenvalues --    0.57772   0.57851   0.58151   0.58174   0.58239
 Alpha virt. eigenvalues --    0.58357   0.58384   0.58489   0.58581   0.58703
 Alpha virt. eigenvalues --    0.59258   0.59706   0.59855   0.59933   0.60040
 Alpha virt. eigenvalues --    0.60648   0.60703   0.60754   0.60806   0.60879
 Alpha virt. eigenvalues --    0.60901   0.61089   0.61178   0.61188   0.61244
 Alpha virt. eigenvalues --    0.63727   0.63815   0.63905   0.64067   0.64153
 Alpha virt. eigenvalues --    0.64366   0.64850   0.64979   0.65004   0.65023
 Alpha virt. eigenvalues --    0.65034   0.65085   0.65121   0.65219   0.66320
 Alpha virt. eigenvalues --    0.66466   0.67760   0.67822   0.68040   0.68082
 Alpha virt. eigenvalues --    0.68270   0.68298   0.68388   0.68519   0.68573
 Alpha virt. eigenvalues --    0.68606   0.70601   0.70713   0.70732   0.70880
 Alpha virt. eigenvalues --    0.70885   0.71084   0.71116   0.71136   0.71214
 Alpha virt. eigenvalues --    0.71228   0.71505   0.71561   0.71631   0.71718
 Alpha virt. eigenvalues --    0.72004   0.72123   0.72259   0.72293   0.72329
 Alpha virt. eigenvalues --    0.72397   0.72454   0.72551   0.73357   0.73581
 Alpha virt. eigenvalues --    0.74069   0.74228   0.74851   0.74885   0.74901
 Alpha virt. eigenvalues --    0.75176   0.75645   0.75888   0.76150   0.76170
 Alpha virt. eigenvalues --    0.76579   0.76587   0.76600   0.76625   0.76640
 Alpha virt. eigenvalues --    0.76693   0.76739   0.76795   0.76862   0.76953
 Alpha virt. eigenvalues --    0.77150   0.77244   0.77321   0.77375   0.77386
 Alpha virt. eigenvalues --    0.77514   0.77552   0.77907   0.78412   0.78706
 Alpha virt. eigenvalues --    0.79037   0.79183   0.79250   0.79393   0.79438
 Alpha virt. eigenvalues --    0.79462   0.79675   0.79699   0.79743   0.80001
 Alpha virt. eigenvalues --    0.80006   0.80378   0.81677   0.81768   0.81900
 Alpha virt. eigenvalues --    0.82077   0.82522   0.82572   0.84037   0.84138
 Alpha virt. eigenvalues --    0.84148   0.84239   0.84257   0.84292   0.84665
 Alpha virt. eigenvalues --    0.84680   0.84770   0.84827   0.84959   0.85017
 Alpha virt. eigenvalues --    0.85029   0.85138   0.85325   0.85443   0.85462
 Alpha virt. eigenvalues --    0.85609   0.85705   0.85801   0.86591   0.86624
 Alpha virt. eigenvalues --    0.86704   0.86770   0.86835   0.86972   0.87101
 Alpha virt. eigenvalues --    0.87387   0.88671   0.88680   0.88998   0.89104
 Alpha virt. eigenvalues --    0.90303   0.90308   0.90309   0.90326   0.91544
 Alpha virt. eigenvalues --    0.91576   0.91633   0.91736   0.91879   0.91911
 Alpha virt. eigenvalues --    0.91992   0.92005   0.92033   0.92042   0.92150
 Alpha virt. eigenvalues --    0.92168   0.93002   0.93010   0.93482   0.93585
 Alpha virt. eigenvalues --    0.95385   0.95464   0.98994   0.99077   0.99388
 Alpha virt. eigenvalues --    0.99390   0.99416   0.99443   1.00724   1.00728
 Alpha virt. eigenvalues --    1.01285   1.01413   1.02134   1.02135   1.02516
 Alpha virt. eigenvalues --    1.02521   1.02579   1.02598   1.02787   1.02917
 Alpha virt. eigenvalues --    1.03573   1.03574   1.03714   1.03716   1.03718
 Alpha virt. eigenvalues --    1.03720   1.05571   1.05633   1.05640   1.05698
 Alpha virt. eigenvalues --    1.06367   1.06571   1.07523   1.07565   1.07950
 Alpha virt. eigenvalues --    1.07953   1.07967   1.08024   1.08031   1.08057
 Alpha virt. eigenvalues --    1.10712   1.10717   1.11665   1.11688   1.11691
 Alpha virt. eigenvalues --    1.11723   1.12893   1.12896   1.13525   1.13525
 Alpha virt. eigenvalues --    1.14880   1.14961   1.14965   1.15083   1.15473
 Alpha virt. eigenvalues --    1.15490   1.17496   1.17578   1.17635   1.17813
 Alpha virt. eigenvalues --    1.20446   1.20547   1.20552   1.20684   1.21074
 Alpha virt. eigenvalues --    1.21172   1.24088   1.24178   1.25656   1.25666
 Alpha virt. eigenvalues --    1.27267   1.27343   1.27744   1.27751   1.27776
 Alpha virt. eigenvalues --    1.27796   1.28967   1.28975   1.30084   1.30085
 Alpha virt. eigenvalues --    1.30499   1.30500   1.30500   1.30502   1.30930
 Alpha virt. eigenvalues --    1.30936   1.30937   1.30939   1.31670   1.31672
 Alpha virt. eigenvalues --    1.33516   1.33517   1.33750   1.33816   1.33915
 Alpha virt. eigenvalues --    1.33915   1.33915   1.33915   1.33974   1.33978
 Alpha virt. eigenvalues --    1.33998   1.34004   1.34334   1.34335   1.34859
 Alpha virt. eigenvalues --    1.34859   1.35148   1.35148   1.35331   1.35338
 Alpha virt. eigenvalues --    1.35509   1.35510   1.35516   1.35519   1.35805
 Alpha virt. eigenvalues --    1.35814   1.37539   1.37540   1.37697   1.37719
 Alpha virt. eigenvalues --    1.38097   1.38099   1.38491   1.38508   1.38509
 Alpha virt. eigenvalues --    1.38511   1.38522   1.38600   1.38633   1.38646
 Alpha virt. eigenvalues --    1.38675   1.38751   1.40053   1.40054   1.41847
 Alpha virt. eigenvalues --    1.41847   1.41848   1.41850   1.42919   1.42922
 Alpha virt. eigenvalues --    1.43317   1.43317   1.43319   1.43321   1.43474
 Alpha virt. eigenvalues --    1.43478   1.46342   1.46378   1.46536   1.46538
 Alpha virt. eigenvalues --    1.47044   1.47055   1.47085   1.47090   1.47096
 Alpha virt. eigenvalues --    1.47099   1.47101   1.47107   1.48773   1.48773
 Alpha virt. eigenvalues --    1.49289   1.49289   1.50976   1.50986   1.51540
 Alpha virt. eigenvalues --    1.51621   1.52873   1.52877   1.53251   1.53284
 Alpha virt. eigenvalues --    1.53295   1.53311   1.53616   1.53618   1.57414
 Alpha virt. eigenvalues --    1.57585   1.58370   1.58403   1.58674   1.58690
 Alpha virt. eigenvalues --    1.60770   1.60775   1.62174   1.62188   1.62222
 Alpha virt. eigenvalues --    1.62253   1.63288   1.63941   1.65089   1.65089
 Alpha virt. eigenvalues --    1.65090   1.65091   1.69597   1.69644   1.69722
 Alpha virt. eigenvalues --    1.69788   1.70429   1.70433   1.71768   1.71802
 Alpha virt. eigenvalues --    1.75123   1.75199   1.75206   1.75235   1.77515
 Alpha virt. eigenvalues --    1.77524   1.77664   1.77696   1.77700   1.77715
 Alpha virt. eigenvalues --    1.77766   1.77799   1.77820   1.77822   1.77939
 Alpha virt. eigenvalues --    1.77999   1.78024   1.78055   1.78106   1.78112
 Alpha virt. eigenvalues --    1.78507   1.78515   1.78558   1.78603   1.79024
 Alpha virt. eigenvalues --    1.79184   1.82707   1.82722   1.83470   1.83530
 Alpha virt. eigenvalues --    1.84075   1.84164   1.84171   1.84316   1.84845
 Alpha virt. eigenvalues --    1.84978   1.85067   1.85084   1.85112   1.85149
 Alpha virt. eigenvalues --    1.85223   1.85307   1.85464   1.85516   1.86098
 Alpha virt. eigenvalues --    1.86128   1.86150   1.86154   1.86177   1.86193
 Alpha virt. eigenvalues --    1.87331   1.87335   1.87393   1.87394   1.87728
 Alpha virt. eigenvalues --    1.87854   1.88141   1.88224   1.88241   1.88353
 Alpha virt. eigenvalues --    1.88363   1.88419   1.88535   1.88550   1.88590
 Alpha virt. eigenvalues --    1.88617   1.88778   1.88878   1.89048   1.89059
 Alpha virt. eigenvalues --    1.89120   1.89142   1.90029   1.90086   1.91153
 Alpha virt. eigenvalues --    1.91204   1.91222   1.91239   1.91279   1.91359
 Alpha virt. eigenvalues --    1.92545   1.92813   1.95594   1.95622   1.95782
 Alpha virt. eigenvalues --    1.95832   1.96542   1.96595   1.98439   1.98620
 Alpha virt. eigenvalues --    2.00367   2.00376   2.00874   2.00875   2.00923
 Alpha virt. eigenvalues --    2.00928   2.01826   2.01938   2.02733   2.02832
 Alpha virt. eigenvalues --    2.03659   2.03675   2.03759   2.03772   2.03984
 Alpha virt. eigenvalues --    2.04172   2.04288   2.04291   2.05131   2.05136
 Alpha virt. eigenvalues --    2.05136   2.05139   2.05171   2.05286   2.05565
 Alpha virt. eigenvalues --    2.05572   2.05761   2.05802   2.06901   2.06926
 Alpha virt. eigenvalues --    2.07014   2.07122   2.07821   2.07824   2.07826
 Alpha virt. eigenvalues --    2.07827   2.07831   2.07834   2.08173   2.08178
 Alpha virt. eigenvalues --    2.08579   2.08654   2.08791   2.08791   2.09043
 Alpha virt. eigenvalues --    2.09053   2.09085   2.09092   2.10804   2.10836
 Alpha virt. eigenvalues --    2.11264   2.11265   2.11265   2.11267   2.12917
 Alpha virt. eigenvalues --    2.13072   2.13206   2.13206   2.13791   2.13837
 Alpha virt. eigenvalues --    2.14553   2.14586   2.14591   2.14601   2.19090
 Alpha virt. eigenvalues --    2.19175   2.19273   2.19351   2.19654   2.19930
 Alpha virt. eigenvalues --    2.23048   2.23071   2.23315   2.23328   2.23335
 Alpha virt. eigenvalues --    2.23413   2.23478   2.23557   2.23560   2.23747
 Alpha virt. eigenvalues --    2.23851   2.23981   2.23996   2.24085   2.24479
 Alpha virt. eigenvalues --    2.24535   2.24620   2.24638   2.24690   2.24787
 Alpha virt. eigenvalues --    2.25265   2.25378   2.25381   2.25715   2.26820
 Alpha virt. eigenvalues --    2.26855   2.28055   2.28121   2.28126   2.28206
 Alpha virt. eigenvalues --    2.28229   2.28243   2.29836   2.29886   2.29925
 Alpha virt. eigenvalues --    2.29936   2.29942   2.29961   2.30953   2.31006
 Alpha virt. eigenvalues --    2.33029   2.33053   2.34040   2.34041   2.34727
 Alpha virt. eigenvalues --    2.34728   2.34729   2.34729   2.35118   2.35121
 Alpha virt. eigenvalues --    2.35126   2.35184   2.35187   2.35188   2.35191
 Alpha virt. eigenvalues --    2.35274   2.35945   2.35951   2.38194   2.38199
 Alpha virt. eigenvalues --    2.38530   2.38531   2.38532   2.38539   2.39236
 Alpha virt. eigenvalues --    2.39242   2.39394   2.39397   2.40744   2.40745
 Alpha virt. eigenvalues --    2.40746   2.40754   2.40961   2.40967   2.41153
 Alpha virt. eigenvalues --    2.41158   2.43326   2.43326   2.43329   2.43329
 Alpha virt. eigenvalues --    2.43760   2.43763   2.44283   2.44370   2.45180
 Alpha virt. eigenvalues --    2.45206   2.45252   2.45272   2.47348   2.47411
 Alpha virt. eigenvalues --    2.47922   2.47989   2.48625   2.48625   2.49341
 Alpha virt. eigenvalues --    2.49342   2.49343   2.49344   2.50326   2.50406
 Alpha virt. eigenvalues --    2.55332   2.55332   2.56358   2.56384   2.56419
 Alpha virt. eigenvalues --    2.56458   2.57065   2.57068   2.57504   2.57507
 Alpha virt. eigenvalues --    2.59680   2.59682   2.59683   2.59685   2.61246
 Alpha virt. eigenvalues --    2.61256   2.63799   2.63799   2.65752   2.65772
 Alpha virt. eigenvalues --    2.65790   2.65810   2.66405   2.66405   2.66406
 Alpha virt. eigenvalues --    2.66406   2.66894   2.66908   2.68195   2.68344
 Alpha virt. eigenvalues --    2.69291   2.69296   2.69326   2.69333   2.69547
 Alpha virt. eigenvalues --    2.69580   2.69598   2.69598   2.70251   2.70284
 Alpha virt. eigenvalues --    2.74638   2.74638   2.74638   2.74638   2.74894
 Alpha virt. eigenvalues --    2.74895   2.75420   2.75420   2.75862   2.75873
 Alpha virt. eigenvalues --    2.75913   2.75935   2.76740   2.76786   2.77116
 Alpha virt. eigenvalues --    2.77130   2.77734   2.77734   2.78024   2.78040
 Alpha virt. eigenvalues --    2.79552   2.79568   2.79611   2.79641   2.80202
 Alpha virt. eigenvalues --    2.80228   2.80560   2.80560   2.80562   2.80562
 Alpha virt. eigenvalues --    2.82710   2.82710   2.83559   2.83625   2.83900
 Alpha virt. eigenvalues --    2.83912   2.83971   2.84016   2.84092   2.84201
 Alpha virt. eigenvalues --    2.87851   2.87877   2.88963   2.88981   2.88983
 Alpha virt. eigenvalues --    2.89004   2.92107   2.92131   2.94005   2.94030
 Alpha virt. eigenvalues --    2.94032   2.94063   2.94294   2.94316   2.94841
 Alpha virt. eigenvalues --    2.94898   2.95112   2.95130   2.95182   2.95196
 Alpha virt. eigenvalues --    2.95200   2.95202   2.97799   2.97799   2.97983
 Alpha virt. eigenvalues --    2.97983   2.99754   2.99754   2.99756   2.99756
 Alpha virt. eigenvalues --    3.00715   3.00715   3.01267   3.01269   3.01301
 Alpha virt. eigenvalues --    3.01316   3.02507   3.02594   3.05674   3.05674
 Alpha virt. eigenvalues --    3.07926   3.07928   3.08814   3.08817   3.09117
 Alpha virt. eigenvalues --    3.09121   3.09140   3.09143   3.10381   3.10402
 Alpha virt. eigenvalues --    3.12367   3.12421   3.12428   3.12454   3.13420
 Alpha virt. eigenvalues --    3.13512   3.16620   3.16670   3.20547   3.20589
 Alpha virt. eigenvalues --    3.20599   3.20627   3.23117   3.23119   3.23299
 Alpha virt. eigenvalues --    3.23397   3.24658   3.24665   3.24681   3.24688
 Alpha virt. eigenvalues --    3.27664   3.27665   3.33208   3.33221   3.34093
 Alpha virt. eigenvalues --    3.34094   3.34099   3.34104   3.35395   3.35408
 Alpha virt. eigenvalues --    3.47301   3.47310   3.47312   3.47313   3.54304
 Alpha virt. eigenvalues --    3.54304   3.56558   3.56565   3.58561   3.58578
 Alpha virt. eigenvalues --    3.62456   3.62458   3.64498   3.64499   3.64517
 Alpha virt. eigenvalues --    3.64518   3.72009   3.72074   3.76216   3.76218
 Alpha virt. eigenvalues --    3.76249   3.76251   3.78626   3.78649   6.59867
 Alpha virt. eigenvalues --    6.59867   6.60128   6.60128   6.60520   6.60520
 Alpha virt. eigenvalues --    6.60765   6.60766   6.60766   6.60766   6.64720
 Alpha virt. eigenvalues --    6.64720   6.64720   6.64720
          Condensed to atoms (all electrons):
 Mulliken charges:
               1
     1  C    0.024084
     2  C    0.024065
     3  C   -0.067964
     4  C    0.100306
     5  C    0.100258
     6  C   -0.067912
     7  C   -0.068614
     8  C   -0.068529
     9  N   -0.208933
    10  N    0.104205
    11  N    0.104193
    12  H   -0.006854
    13  H   -0.006825
    14  H   -0.012551
    15  H   -0.012439
    16  C    0.021637
    17  C    0.023679
    18  C   -0.069483
    19  C    0.100575
    20  C    0.100389
    21  C   -0.068100
    22  C   -0.068872
    23  C   -0.068718
    24  N   -0.208820
    25  N    0.104625
    26  H   -0.004984
    27  H   -0.007341
    28  H   -0.010656
    29  H   -0.012541
    30  C    0.024065
    31  C    0.024084
    32  C   -0.067912
    33  C    0.100258
    34  C    0.100306
    35  C   -0.067964
    36  C   -0.068529
    37  C   -0.068614
    38  N   -0.208933
    39  N    0.104193
    40  H   -0.006825
    41  H   -0.006854
    42  H   -0.012439
    43  H   -0.012551
    44  C    0.023679
    45  C    0.021637
    46  C   -0.068100
    47  C    0.100389
    48  C    0.100575
    49  C   -0.069483
    50  C   -0.068718
    51  C   -0.068872
    52  N   -0.208820
    53  H   -0.007341
    54  H   -0.004984
    55  H   -0.012541
    56  H   -0.010656
    57  Zn   0.673071
    58  C    0.023679
    59  C    0.021637
    60  C   -0.068100
    61  C    0.100389
    62  C    0.100575
    63  C   -0.069483
    64  C   -0.068718
    65  C   -0.068872
    66  N   -0.208820
    67  N    0.104625
    68  N    0.104193
    69  H   -0.007341
    70  H   -0.004984
    71  H   -0.012541
    72  H   -0.010656
    73  C    0.024065
    74  C    0.024084
    75  C   -0.067912
    76  C    0.100258
    77  C    0.100306
    78  C   -0.067964
    79  C   -0.068529
    80  C   -0.068614
    81  N   -0.208933
    82  N    0.104205
    83  H   -0.006825
    84  H   -0.006854
    85  H   -0.012439
    86  H   -0.012551
    87  C    0.021637
    88  C    0.023679
    89  C   -0.069483
    90  C    0.100575
    91  C    0.100389
    92  C   -0.068100
    93  C   -0.068872
    94  C   -0.068718
    95  N   -0.208820
    96  N    0.104193
    97  H   -0.004984
    98  H   -0.007341
    99  H   -0.010656
   100  H   -0.012541
   101  C    0.024084
   102  C    0.024065
   103  C   -0.067964
   104  C    0.100306
   105  C    0.100258
   106  C   -0.067912
   107  C   -0.068614
   108  C   -0.068529
   109  N   -0.208933
   110  H   -0.006854
   111  H   -0.006825
   112  H   -0.012551
   113  H   -0.012439
   114  Zn   0.673071
 Sum of Mulliken charges =  -0.00000
 Mulliken charges with hydrogens summed into heavy atoms:
               1
     1  C    0.017230
     2  C    0.017241
     3  C   -0.080515
     4  C    0.100306
     5  C    0.100258
     6  C   -0.080352
     7  C   -0.068614
     8  C   -0.068529
     9  N   -0.208933
    10  N    0.104205
    11  N    0.104193
    16  C    0.016653
    17  C    0.016338
    18  C   -0.080140
    19  C    0.100575
    20  C    0.100389
    21  C   -0.080641
    22  C   -0.068872
    23  C   -0.068718
    24  N   -0.208820
    25  N    0.104625
    30  C    0.017241
    31  C    0.017230
    32  C   -0.080352
    33  C    0.100258
    34  C    0.100306
    35  C   -0.080515
    36  C   -0.068529
    37  C   -0.068614
    38  N   -0.208933
    39  N    0.104193
    44  C    0.016338
    45  C    0.016653
    46  C   -0.080641
    47  C    0.100389
    48  C    0.100575
    49  C   -0.080140
    50  C   -0.068718
    51  C   -0.068872
    52  N   -0.208820
    57  Zn   0.673071
    58  C    0.016338
    59  C    0.016653
    60  C   -0.080641
    61  C    0.100389
    62  C    0.100575
    63  C   -0.080140
    64  C   -0.068718
    65  C   -0.068872
    66  N   -0.208820
    67  N    0.104625
    68  N    0.104193
    73  C    0.017241
    74  C    0.017230
    75  C   -0.080352
    76  C    0.100258
    77  C    0.100306
    78  C   -0.080515
    79  C   -0.068529
    80  C   -0.068614
    81  N   -0.208933
    82  N    0.104205
    87  C    0.016653
    88  C    0.016338
    89  C   -0.080140
    90  C    0.100575
    91  C    0.100389
    92  C   -0.080641
    93  C   -0.068872
    94  C   -0.068718
    95  N   -0.208820
    96  N    0.104193
   101  C    0.017230
   102  C    0.017241
   103  C   -0.080515
   104  C    0.100306
   105  C    0.100258
   106  C   -0.080352
   107  C   -0.068614
   108  C   -0.068529
   109  N   -0.208933
   114  Zn   0.673071
 Electronic spatial extent (au):  <R**2>=         153370.7439
 Charge=             -0.0000 electrons
 Dipole moment (field-independent basis, Debye):
    X=              0.0000    Y=             -0.0000    Z=             -0.0000  Tot=              0.0000
 Quadrupole moment (field-independent basis, Debye-Ang):
   XX=           -488.6167   YY=           -421.6905   ZZ=           -423.2382
   XY=              0.4325   XZ=             -0.0000   YZ=              0.0000
 Traceless Quadrupole moment (field-independent basis, Debye-Ang):
   XX=            -44.1015   YY=             22.8246   ZZ=             21.2769
   XY=              0.4325   XZ=             -0.0000   YZ=              0.0000
 Octapole moment (field-independent basis, Debye-Ang**2):
  XXX=             -0.0000  YYY=              0.0000  ZZZ=              0.0000  XYY=             -0.0000
  XXY=             -0.0000  XXZ=              0.0000  XZZ=              0.0000  YZZ=              0.0000
  YYZ=             -0.0000  XYZ=             -0.0000
 Hexadecapole moment (field-independent basis, Debye-Ang**3):
 XXXX=          -9489.3667 YYYY=        -152011.9953 ZZZZ=         -27921.9510 XXXY=         -17966.3646
 XXXZ=             -0.0000 YYYX=         -15500.0256 YYYZ=              0.0000 ZZZX=              0.0000
 ZZZY=              0.0000 XXYY=         -30899.6641 XXZZ=          -6945.1966 YYZZ=         -29291.1258
 XXYZ=              0.0000 YYXZ=              0.0000 ZZXY=          -5174.6399
 N-N= 1.338208520588D+04 E-N=-4.299783369227D+04  KE= 6.843170375456D+03
 Symmetry AG   KE= 2.404429480905D+03
 Symmetry BG   KE= 1.017155644634D+03
 Symmetry AU   KE= 1.017110402201D+03
 Symmetry BU   KE= 2.404474847716D+03

 Test job not archived.
 1\1\ WCSS.PL-BEM-KETKOV-PC1\SP\RLC-BLYP\def2SVP\C64H32N16Zn2\SERGEY\12
 -Apr-2026\0\\# lc-blyp/def2svp iop(3/107=0350000000,3/108=0350000000)\
 \monomer geom r2scan-3c\\0,1\C,0,-4.138371,5.130673,0.\C,0,-5.130673,4
 .138371,0.\C,0,-2.787666,4.799485,0.\C,0,-2.454083,3.449643,0.\C,0,-3.
 449643,2.454083,0.\C,0,-4.799485,2.787666,0.\C,0,-1.173513,2.758029,0.
 \C,0,-2.758029,1.173513,0.\N,0,-1.406507,1.406507,0.\N,0,-3.380774,0.,
 0.\N,0,0.,3.380774,0.\H,0,-4.434605,6.175603,0.\H,0,-6.175603,4.434605
 ,0.\H,0,-2.014157,5.561043,0.\H,0,-5.561043,2.014157,0.\C,0,5.130673,4
 .138371,0.\C,0,4.138371,5.130673,0.\C,0,4.799485,2.787666,0.\C,0,3.449
 643,2.454083,0.\C,0,2.454083,3.449643,0.\C,0,2.787666,4.799485,0.\C,0,
 2.758029,1.173513,0.\C,0,1.173513,2.758029,0.\N,0,1.406507,1.406507,0.
 \N,0,3.380774,0.,0.\H,0,6.175603,4.434605,0.\H,0,4.434605,6.175603,0.\
 H,0,5.561043,2.014157,0.\H,0,2.014157,5.561043,0.\C,0,-5.130673,-4.138
 371,0.\C,0,-4.138371,-5.130673,0.\C,0,-4.799485,-2.787666,0.\C,0,-3.44
 9643,-2.454083,0.\C,0,-2.454083,-3.449643,0.\C,0,-2.787666,-4.799485,0
 .\C,0,-2.758029,-1.173513,0.\C,0,-1.173513,-2.758029,0.\N,0,-1.406507,
 -1.406507,0.\N,0,0.,-3.380774,0.\H,0,-6.175603,-4.434605,0.\H,0,-4.434
 605,-6.175603,0.\H,0,-5.561043,-2.014157,0.\H,0,-2.014157,-5.561043,0.
 \C,0,4.138371,-5.130673,0.\C,0,5.130673,-4.138371,0.\C,0,2.787666,-4.7
 99485,0.\C,0,2.454083,-3.449643,0.\C,0,3.449643,-2.454083,0.\C,0,4.799
 485,-2.787666,0.\C,0,1.173513,-2.758029,0.\C,0,2.758029,-1.173513,0.\N
 ,0,1.406507,-1.406507,0.\H,0,4.434605,-6.175603,0.\H,0,6.175603,-4.434
 605,0.\H,0,2.014157,-5.561043,0.\H,0,5.561043,-2.014157,0.\Zn,0,0.,0.,
 0.\C,0,9.861629,5.130673,3.5\C,0,8.869327,4.138371,3.5\C,0,11.212334,4
 .799485,3.5\C,0,11.545917,3.449643,3.5\C,0,10.550357,2.454083,3.5\C,0,
 9.200515,2.787666,3.5\C,0,12.826487,2.758029,3.5\C,0,11.241971,1.17351
 3,3.5\N,0,12.593493,1.406507,3.5\N,0,10.619226,0.,3.5\N,0,14.,3.380774
 ,3.5\H,0,9.565395,6.175603,3.5\H,0,7.824397,4.434605,3.5\H,0,11.985843
 ,5.561043,3.5\H,0,8.438957,2.014157,3.5\C,0,19.130673,4.138371,3.5\C,0
 ,18.138371,5.130673,3.5\C,0,18.799485,2.787666,3.5\C,0,17.449643,2.454
 083,3.5\C,0,16.454083,3.449643,3.5\C,0,16.787666,4.799485,3.5\C,0,16.7
 58029,1.173513,3.5\C,0,15.173513,2.758029,3.5\N,0,15.406507,1.406507,3
 .5\N,0,17.380774,0.,3.5\H,0,20.175603,4.434605,3.5\H,0,18.434605,6.175
 603,3.5\H,0,19.561043,2.014157,3.5\H,0,16.014157,5.561043,3.5\C,0,8.86
 9327,-4.138371,3.5\C,0,9.861629,-5.130673,3.5\C,0,9.200515,-2.787666,3
 .5\C,0,10.550357,-2.454083,3.5\C,0,11.545917,-3.449643,3.5\C,0,11.2123
 34,-4.799485,3.5\C,0,11.241971,-1.173513,3.5\C,0,12.826487,-2.758029,3
 .5\N,0,12.593493,-1.406507,3.5\N,0,14.,-3.380774,3.5\H,0,7.824397,-4.4
 34605,3.5\H,0,9.565395,-6.175603,3.5\H,0,8.438957,-2.014157,3.5\H,0,11
 .985843,-5.561043,3.5\C,0,18.138371,-5.130673,3.5\C,0,19.130673,-4.138
 371,3.5\C,0,16.787666,-4.799485,3.5\C,0,16.454083,-3.449643,3.5\C,0,17
 .449643,-2.454083,3.5\C,0,18.799485,-2.787666,3.5\C,0,15.173513,-2.758
 029,3.5\C,0,16.758029,-1.173513,3.5\N,0,15.406507,-1.406507,3.5\H,0,18
 .434605,-6.175603,3.5\H,0,20.175603,-4.434605,3.5\H,0,16.014157,-5.561
 043,3.5\H,0,19.561043,-2.014157,3.5\Zn,0,14.,0.,3.5\\Version=ES64L-G09
 RevE.01\State=1-AG\HF=-6881.1567424\RMSD=6.442e-09\Dipole=0.,0.,0.\Qua
 drupole=16.9695228,15.8188799,-32.7884027,0.,0.321583,0.\PG=C02H [SGH(
 N4Zn2),X(C64H32N12)]\\@


 ALL OUR THINKING ABOUT NATURE MUST NECESSARILY MOVE IN CIRCLES OR SPIRALS;
 FOR WE CAN ONLY UNDERSTAND NATURE IF WE THINK ABOUT HER, AND WE CAN ONLY
 THINK BECAUSE OUR BRAIN IS BUILT IN ACCORDANCE WITH NATURE'S LAWS.

                                             -- TIMOTHY FERRIS, "GALAXIES"
 Job cpu time:       0 days  0 hours 30 minutes 49.9 seconds.
 File lengths (MBytes):  RWF=    939 Int=      0 D2E=      0 Chk=     91 Scr=      1
 Normal termination of Gaussian 09 at Sun Apr 12 10:33:53 2026.
 Initial command:
 /home/sergey/g09/l1.exe "/home/sergey/SCRATCH/Gau-12683.inp" -scrdir="/home/sergey/SCRATCH/"
 Entering Link 1 = /home/sergey/g09/l1.exe PID=     12923.
  
 Copyright (c) 1988,1990,1992,1993,1995,1998,2003,2009,2015,
            Gaussian, Inc.  All Rights Reserved.
  
 This is part of the Gaussian(R) 09 program.  It is based on
 the Gaussian(R) 03 system (copyright 2003, Gaussian, Inc.),
 the Gaussian(R) 98 system (copyright 1998, Gaussian, Inc.),
 the Gaussian(R) 94 system (copyright 1995, Gaussian, Inc.),
 the Gaussian 92(TM) system (copyright 1992, Gaussian, Inc.),
 the Gaussian 90(TM) system (copyright 1990, Gaussian, Inc.),
 the Gaussian 88(TM) system (copyright 1988, Gaussian, Inc.),
 the Gaussian 86(TM) system (copyright 1986, Carnegie Mellon
 University), and the Gaussian 82(TM) system (copyright 1983,
 Carnegie Mellon University). Gaussian is a federally registered
 trademark of Gaussian, Inc.
  
 This software contains proprietary and confidential information,
 including trade secrets, belonging to Gaussian, Inc.
  
 This software is provided under written license and may be
 used, copied, transmitted, or stored only in accord with that
 written license.
  
 The following legend is applicable only to US Government
 contracts under FAR:
  
                    RESTRICTED RIGHTS LEGEND
  
 Use, reproduction and disclosure by the US Government is
 subject to restrictions as set forth in subparagraphs (a)
 and (c) of the Commercial Computer Software - Restricted
 Rights clause in FAR 52.227-19.
  
 Gaussian, Inc.
 340 Quinnipiac St., Bldg. 40, Wallingford CT 06492
  
  
 ---------------------------------------------------------------
 Warning -- This program may not be used in any manner that
 competes with the business of Gaussian, Inc. or will provide
 assistance to any competitor of Gaussian, Inc.  The licensee
 of this program is prohibited from giving any competitor of
 Gaussian, Inc. access to this program.  By using this program,
 the user acknowledges that Gaussian, Inc. is engaged in the
 business of creating and licensing software in the field of
 computational chemistry and represents and warrants to the
 licensee that it is not a competitor of Gaussian, Inc. and that
 it will not use this program in any manner prohibited above.
 ---------------------------------------------------------------
  

 Cite this work as:
 Gaussian 09, Revision E.01,
 M. J. Frisch, G. W. Trucks, H. B. Schlegel, G. E. Scuseria, 
 M. A. Robb, J. R. Cheeseman, G. Scalmani, V. Barone, B. Mennucci, 
 G. A. Petersson, H. Nakatsuji, M. Caricato, X. Li, H. P. Hratchian, 
 A. F. Izmaylov, J. Bloino, G. Zheng, J. L. Sonnenberg, M. Hada, 
 M. Ehara, K. Toyota, R. Fukuda, J. Hasegawa, M. Ishida, T. Nakajima, 
 Y. Honda, O. Kitao, H. Nakai, T. Vreven, J. A. Montgomery, Jr., 
 J. E. Peralta, F. Ogliaro, M. Bearpark, J. J. Heyd, E. Brothers, 
 K. N. Kudin, V. N. Staroverov, T. Keith, R. Kobayashi, J. Normand, 
 K. Raghavachari, A. Rendell, J. C. Burant, S. S. Iyengar, J. Tomasi, 
 M. Cossi, N. Rega, J. M. Millam, M. Klene, J. E. Knox, J. B. Cross, 
 V. Bakken, C. Adamo, J. Jaramillo, R. Gomperts, R. E. Stratmann, 
 O. Yazyev, A. J. Austin, R. Cammi, C. Pomelli, J. W. Ochterski, 
 R. L. Martin, K. Morokuma, V. G. Zakrzewski, G. A. Voth, 
 P. Salvador, J. J. Dannenberg, S. Dapprich, A. D. Daniels, 
 O. Farkas, J. B. Foresman, J. V. Ortiz, J. Cioslowski, 
 and D. J. Fox, Gaussian, Inc., Wallingford CT, 2013.
 
 ******************************************
 Gaussian 09:  ES64L-G09RevE.01 30-Nov-2015
                12-Apr-2026 
 ******************************************
 %chk=ZnPc_35_140.chk
 %mem=60GB
 %nproc=6
 Will use up to    6 processors via shared memory.
 Default route:  MaxDisk=477GB
 ----------------------------------------------------------------------
 # td(nstates=4) lc-blyp/gen iop(3/107=0350000000,3/108=0350000000) geo
 m=check guess=read
 ----------------------------------------------------------------------
 1/29=2,38=1/1;
 2/12=2,40=1/2;
 3/5=7,11=9,14=-4,16=1,25=1,30=1,74=1000402,107=350000000,108=350000000,116=-2/1,2,8,3;
 4/5=1/1;
 5/5=2,38=6/2;
 8/6=1,10=1,108=4/1;
 9/41=4,42=1,70=2/14;
 6/7=2,8=2,9=2,10=2/1;
 99/5=1,9=1/99;
 ----------------------------------
 def2tzvp-f, monomer geom r2scan-3c
 ----------------------------------
 Structure from the checkpoint file:  "ZnPc_35_140.chk"
 Charge =  0 Multiplicity = 1
 Z-Matrix found in file.
 C,0,-4.138371,5.130673,0.
 C,0,-5.130673,4.138371,0.
 C,0,-2.787666,4.799485,0.
 C,0,-2.454083,3.449643,0.
 C,0,-3.449643,2.454083,0.
 C,0,-4.799485,2.787666,0.
 C,0,-1.173513,2.758029,0.
 C,0,-2.758029,1.173513,0.
 N,0,-1.406507,1.406507,0.
 N,0,-3.380774,0.,0.
 N,0,0.,3.380774,0.
 H,0,-4.434605,6.175603,0.
 H,0,-6.175603,4.434605,0.
 H,0,-2.014157,5.561043,0.
 H,0,-5.561043,2.014157,0.
 C,0,5.130673,4.138371,0.
 C,0,4.138371,5.130673,0.
 C,0,4.799485,2.787666,0.
 C,0,3.449643,2.454083,0.
 C,0,2.454083,3.449643,0.
 C,0,2.787666,4.799485,0.
 C,0,2.758029,1.173513,0.
 C,0,1.173513,2.758029,0.
 N,0,1.406507,1.406507,0.
 N,0,3.380774,0.,0.
 H,0,6.175603,4.434605,0.
 H,0,4.434605,6.175603,0.
 H,0,5.561043,2.014157,0.
 H,0,2.014157,5.561043,0.
 C,0,-5.130673,-4.138371,0.
 C,0,-4.138371,-5.130673,0.
 C,0,-4.799485,-2.787666,0.
 C,0,-3.449643,-2.454083,0.
 C,0,-2.454083,-3.449643,0.
 C,0,-2.787666,-4.799485,0.
 C,0,-2.758029,-1.173513,0.
 C,0,-1.173513,-2.758029,0.
 N,0,-1.406507,-1.406507,0.
 N,0,0.,-3.380774,0.
 H,0,-6.175603,-4.434605,0.
 H,0,-4.434605,-6.175603,0.
 H,0,-5.561043,-2.014157,0.
 H,0,-2.014157,-5.561043,0.
 C,0,4.138371,-5.130673,0.
 C,0,5.130673,-4.138371,0.
 C,0,2.787666,-4.799485,0.
 C,0,2.454083,-3.449643,0.
 C,0,3.449643,-2.454083,0.
 C,0,4.799485,-2.787666,0.
 C,0,1.173513,-2.758029,0.
 C,0,2.758029,-1.173513,0.
 N,0,1.406507,-1.406507,0.
 H,0,4.434605,-6.175603,0.
 H,0,6.175603,-4.434605,0.
 H,0,2.014157,-5.561043,0.
 H,0,5.561043,-2.014157,0.
 Zn,0,0.,0.,0.
 C,0,9.861629,5.130673,3.5
 C,0,8.869327,4.138371,3.5
 C,0,11.212334,4.799485,3.5
 C,0,11.545917,3.449643,3.5
 C,0,10.550357,2.454083,3.5
 C,0,9.200515,2.787666,3.5
 C,0,12.826487,2.758029,3.5
 C,0,11.241971,1.173513,3.5
 N,0,12.593493,1.406507,3.5
 N,0,10.619226,0.,3.5
 N,0,14.,3.380774,3.5
 H,0,9.565395,6.175603,3.5
 H,0,7.824397,4.434605,3.5
 H,0,11.985843,5.561043,3.5
 H,0,8.438957,2.014157,3.5
 C,0,19.130673,4.138371,3.5
 C,0,18.138371,5.130673,3.5
 C,0,18.799485,2.787666,3.5
 C,0,17.449643,2.454083,3.5
 C,0,16.454083,3.449643,3.5
 C,0,16.787666,4.799485,3.5
 C,0,16.758029,1.173513,3.5
 C,0,15.173513,2.758029,3.5
 N,0,15.406507,1.406507,3.5
 N,0,17.380774,0.,3.5
 H,0,20.175603,4.434605,3.5
 H,0,18.434605,6.175603,3.5
 H,0,19.561043,2.014157,3.5
 H,0,16.014157,5.561043,3.5
 C,0,8.869327,-4.138371,3.5
 C,0,9.861629,-5.130673,3.5
 C,0,9.200515,-2.787666,3.5
 C,0,10.550357,-2.454083,3.5
 C,0,11.545917,-3.449643,3.5
 C,0,11.212334,-4.799485,3.5
 C,0,11.241971,-1.173513,3.5
 C,0,12.826487,-2.758029,3.5
 N,0,12.593493,-1.406507,3.5
 N,0,14.,-3.380774,3.5
 H,0,7.824397,-4.434605,3.5
 H,0,9.565395,-6.175603,3.5
 H,0,8.438957,-2.014157,3.5
 H,0,11.985843,-5.561043,3.5
 C,0,18.138371,-5.130673,3.5
 C,0,19.130673,-4.138371,3.5
 C,0,16.787666,-4.799485,3.5
 C,0,16.454083,-3.449643,3.5
 C,0,17.449643,-2.454083,3.5
 C,0,18.799485,-2.787666,3.5
 C,0,15.173513,-2.758029,3.5
 C,0,16.758029,-1.173513,3.5
 N,0,15.406507,-1.406507,3.5
 H,0,18.434605,-6.175603,3.5
 H,0,20.175603,-4.434605,3.5
 H,0,16.014157,-5.561043,3.5
 H,0,19.561043,-2.014157,3.5
 Zn,0,14.,0.,3.5
 Recover connectivity data from disk.
 Stoichiometry    C64H32N16Zn2
 Framework group  C2H[SGH(N4Zn2),X(C64H32N12)]
 Deg. of freedom    86
 Full point group                 C2H     NOp   4
 Largest Abelian subgroup         C2H     NOp   4
 Largest concise Abelian subgroup C2H     NOp   4
                         Standard orientation:                         
 ---------------------------------------------------------------------
 Center     Atomic      Atomic             Coordinates (Angstroms)
 Number     Number       Type             X           Y           Z
 ---------------------------------------------------------------------
      1          6           0        1.750000   11.138371    5.130673
      2          6           0        1.750000   12.130673    4.138371
      3          6           0        1.750000    9.787666    4.799485
      4          6           0        1.750000    9.454083    3.449643
      5          6           0        1.750000   10.449643    2.454083
      6          6           0        1.750000   11.799485    2.787666
      7          6           0        1.750000    8.173513    2.758029
      8          6           0        1.750000    9.758029    1.173513
      9          7           0        1.750000    8.406507    1.406507
     10          7           0        1.750000   10.380774   -0.000000
     11          7           0        1.750000    7.000000    3.380774
     12          1           0        1.750000   11.434605    6.175603
     13          1           0        1.750000   13.175603    4.434605
     14          1           0        1.750000    9.014157    5.561043
     15          1           0        1.750000   12.561043    2.014157
     16          6           0        1.750000    1.869327    4.138371
     17          6           0        1.750000    2.861629    5.130673
     18          6           0        1.750000    2.200515    2.787666
     19          6           0        1.750000    3.550357    2.454083
     20          6           0        1.750000    4.545917    3.449643
     21          6           0        1.750000    4.212334    4.799485
     22          6           0        1.750000    4.241971    1.173513
     23          6           0        1.750000    5.826487    2.758029
     24          7           0        1.750000    5.593493    1.406507
     25          7           0        1.750000    3.619226   -0.000000
     26          1           0        1.750000    0.824397    4.434605
     27          1           0        1.750000    2.565395    6.175603
     28          1           0        1.750000    1.438957    2.014157
     29          1           0        1.750000    4.985843    5.561043
     30          6           0        1.750000   12.130673   -4.138371
     31          6           0        1.750000   11.138371   -5.130673
     32          6           0        1.750000   11.799485   -2.787666
     33          6           0        1.750000   10.449643   -2.454083
     34          6           0        1.750000    9.454083   -3.449643
     35          6           0        1.750000    9.787666   -4.799485
     36          6           0        1.750000    9.758029   -1.173513
     37          6           0        1.750000    8.173513   -2.758029
     38          7           0        1.750000    8.406507   -1.406507
     39          7           0        1.750000    7.000000   -3.380774
     40          1           0        1.750000   13.175603   -4.434605
     41          1           0        1.750000   11.434605   -6.175603
     42          1           0        1.750000   12.561043   -2.014157
     43          1           0        1.750000    9.014157   -5.561043
     44          6           0        1.750000    2.861629   -5.130673
     45          6           0        1.750000    1.869327   -4.138371
     46          6           0        1.750000    4.212334   -4.799485
     47          6           0        1.750000    4.545917   -3.449643
     48          6           0        1.750000    3.550357   -2.454083
     49          6           0        1.750000    2.200515   -2.787666
     50          6           0        1.750000    5.826487   -2.758029
     51          6           0        1.750000    4.241971   -1.173513
     52          7           0        1.750000    5.593493   -1.406507
     53          1           0        1.750000    2.565395   -6.175603
     54          1           0        1.750000    0.824397   -4.434605
     55          1           0        1.750000    4.985843   -5.561043
     56          1           0        1.750000    1.438957   -2.014157
     57         30           0        1.750000    7.000000   -0.000000
     58          6           0       -1.750000   -2.861629    5.130673
     59          6           0       -1.750000   -1.869327    4.138371
     60          6           0       -1.750000   -4.212334    4.799485
     61          6           0       -1.750000   -4.545917    3.449643
     62          6           0       -1.750000   -3.550357    2.454083
     63          6           0       -1.750000   -2.200515    2.787666
     64          6           0       -1.750000   -5.826487    2.758029
     65          6           0       -1.750000   -4.241971    1.173513
     66          7           0       -1.750000   -5.593493    1.406507
     67          7           0       -1.750000   -3.619226   -0.000000
     68          7           0       -1.750000   -7.000000    3.380774
     69          1           0       -1.750000   -2.565395    6.175603
     70          1           0       -1.750000   -0.824397    4.434605
     71          1           0       -1.750000   -4.985843    5.561043
     72          1           0       -1.750000   -1.438957    2.014157
     73          6           0       -1.750000  -12.130673    4.138371
     74          6           0       -1.750000  -11.138371    5.130673
     75          6           0       -1.750000  -11.799485    2.787666
     76          6           0       -1.750000  -10.449643    2.454083
     77          6           0       -1.750000   -9.454083    3.449643
     78          6           0       -1.750000   -9.787666    4.799485
     79          6           0       -1.750000   -9.758029    1.173513
     80          6           0       -1.750000   -8.173513    2.758029
     81          7           0       -1.750000   -8.406507    1.406507
     82          7           0       -1.750000  -10.380774   -0.000000
     83          1           0       -1.750000  -13.175603    4.434605
     84          1           0       -1.750000  -11.434605    6.175603
     85          1           0       -1.750000  -12.561043    2.014157
     86          1           0       -1.750000   -9.014157    5.561043
     87          6           0       -1.750000   -1.869327   -4.138371
     88          6           0       -1.750000   -2.861629   -5.130673
     89          6           0       -1.750000   -2.200515   -2.787666
     90          6           0       -1.750000   -3.550357   -2.454083
     91          6           0       -1.750000   -4.545917   -3.449643
     92          6           0       -1.750000   -4.212334   -4.799485
     93          6           0       -1.750000   -4.241971   -1.173513
     94          6           0       -1.750000   -5.826487   -2.758029
     95          7           0       -1.750000   -5.593493   -1.406507
     96          7           0       -1.750000   -7.000000   -3.380774
     97          1           0       -1.750000   -0.824397   -4.434605
     98          1           0       -1.750000   -2.565395   -6.175603
     99          1           0       -1.750000   -1.438957   -2.014157
    100          1           0       -1.750000   -4.985843   -5.561043
    101          6           0       -1.750000  -11.138371   -5.130673
    102          6           0       -1.750000  -12.130673   -4.138371
    103          6           0       -1.750000   -9.787666   -4.799485
    104          6           0       -1.750000   -9.454083   -3.449643
    105          6           0       -1.750000  -10.449643   -2.454083
    106          6           0       -1.750000  -11.799485   -2.787666
    107          6           0       -1.750000   -8.173513   -2.758029
    108          6           0       -1.750000   -9.758029   -1.173513
    109          7           0       -1.750000   -8.406507   -1.406507
    110          1           0       -1.750000  -11.434605   -6.175603
    111          1           0       -1.750000  -13.175603   -4.434605
    112          1           0       -1.750000   -9.014157   -5.561043
    113          1           0       -1.750000  -12.561043   -2.014157
    114         30           0       -1.750000   -7.000000   -0.000000
 ---------------------------------------------------------------------
 Rotational constants (GHZ):      0.0425181      0.0070875      0.0061585
 General basis read from cards:  (5D, 7F)
 There are   618 symmetry adapted cartesian basis functions of AG  symmetry.
 There are   573 symmetry adapted cartesian basis functions of BG  symmetry.
 There are   573 symmetry adapted cartesian basis functions of AU  symmetry.
 There are   618 symmetry adapted cartesian basis functions of BU  symmetry.
 There are   570 symmetry adapted basis functions of AG  symmetry.
 There are   534 symmetry adapted basis functions of BG  symmetry.
 There are   534 symmetry adapted basis functions of AU  symmetry.
 There are   570 symmetry adapted basis functions of BU  symmetry.
  2208 basis functions,  3746 primitive gaussians,  2382 cartesian basis functions
   294 alpha electrons      294 beta electrons
       nuclear repulsion energy     13382.0852058764 Hartrees.
 NAtoms=  114 NActive=  114 NUniq=   30 SFac= 4.00D+00 NAtFMM=   60 NAOKFM=T Big=F
 Integral buffers will be    131072 words long.
 Raffenetti 1 integral format.
 Two-electron integral symmetry is turned on.
 One-electron integrals computed using PRISM.
 NBasis=  2208 RedAO= T EigKep=  1.24D-06  NBF=   570   534   534   570
 NBsUse=  2208 1.00D-06 EigRej= -1.00D+00 NBFU=   570   534   534   570
 Initial guess from the checkpoint file:  "ZnPc_35_140.chk"
 B after Tr=    -0.000000   -0.000000   -0.000000
         Rot=    1.000000    0.000000    0.000000    0.000000 Ang=   0.00 deg.
 Initial guess orbital symmetries:
       Occupied  (BU) (AG) (BU) (AG) (BU) (AG) (AG) (BU) (BG) (AU)
                 (BG) (AU) (BU) (AG) (AU) (BG) (BU) (AG) (BU) (AG)
                 (AU) (BG) (BU) (AG) (BU) (AG) (BU) (AG) (BG) (AU)
                 (BU) (AG) (BG) (AU) (BU) (AG) (BG) (AU) (BU) (AG)
                 (BG) (AU) (BG) (AU) (AG) (BU) (BG) (AU) (BU) (AG)
                 (BG) (AU) (BU) (AG) (BG) (AU) (BU) (AG) (BG) (BU)
                 (AU) (AG) (BU) (AG) (BG) (AU) (AU) (AG) (BG) (BU)
                 (AU) (BG) (AG) (BU) (AU) (BG) (AG) (BU) (BG) (AU)
                 (AG) (BU) (AU) (BG) (AG) (BU) (AU) (BG) (AG) (BU)
                 (BU) (AG) (BU) (AG) (AG) (BU) (BG) (AU) (AG) (BU)
                 (AU) (BG) (AG) (BU) (AU) (BG) (AG) (BU) (AU) (BG)
                 (AG) (BU) (AG) (BU) (AU) (AG) (BG) (BU) (AU) (BG)
                 (AG) (BU) (AU) (BG) (AG) (BU) (AU) (AG) (BG) (BU)
                 (AG) (BU) (AU) (BG) (AU) (BG) (AG) (BU) (AU) (BG)
                 (AG) (AU) (BG) (BU) (AU) (BG) (AG) (BU) (AU) (AG)
                 (BU) (BG) (AG) (BU) (AU) (BG) (AG) (BU) (AU) (AG)
                 (BU) (BG) (AU) (BG) (AG) (BU) (AG) (AU) (BG) (BU)
                 (AU) (BG) (AG) (AU) (BG) (BU) (AU) (BG) (AG) (BU)
                 (AG) (BU) (AU) (BG) (AG) (BU) (AU) (AG) (BU) (BG)
                 (AU) (AG) (BU) (BG) (AU) (AG) (BG) (BU) (AG) (BU)
                 (AU) (BG) (AU) (BG) (AU) (BG) (AG) (BU) (AG) (BU)
                 (AG) (BU) (AU) (AG) (BU) (BG) (AG) (BU) (AU) (BG)
                 (AU) (BG) (AG) (AU) (BG) (BU) (AU) (BG) (AG) (BU)
                 (AG) (BU) (AG) (BU) (AU) (AG) (BU) (BG) (AG) (BU)
                 (AU) (AG) (BU) (BG) (AU) (BG) (AU) (BG) (AU) (AG)
                 (BU) (BG) (AG) (BU) (AG) (AU) (BG) (BU) (AU) (BG)
                 (AG) (AU) (BG) (BU) (AG) (BU) (AU) (BG) (AG) (BU)
                 (AU) (BG) (AG) (BU) (AG) (BU) (AG) (BU) (AU) (AG)
                 (BU) (BG) (AG) (AU) (BG) (BU) (AU) (BG) (AU) (BG)
                 (AG) (BU) (AU) (BG)
       Virtual   (AG) (AU) (BG) (BU) (AG) (BU) (AU) (BG) (AG) (BU)
                 (AU) (AG) (BU) (BG) (AG) (BU) (AU) (BG) (AG) (AU)
                 (BG) (BU) (AG) (AU) (BG) (AU) (BU) (AG) (BG) (BU)
                 (AG) (AU) (AG) (BU) (BU) (BG) (AG) (BU) (AU) (AG)
                 (BG) (BU) (AG) (BU) (AU) (BG) (AG) (AU) (AU) (BU)
                 (BG) (AG) (BG) (BU) (AG) (AG) (BU) (BU) (AU) (BG)
                 (AU) (AG) (BU) (BG) (AU) (BG) (AG) (AU) (BU) (BG)
                 (AG) (BU) (AU) (BG) (AG) (BU) (AG) (AU) (BU) (BG)
                 (AU) (BG) (AG) (BU) (AG) (BU) (AG) (BG) (AU) (BU)
                 (AG) (BU) (AU) (BG) (AU) (AG) (BU) (BG) (AG) (BU)
                 (AG) (AU) (BG) (BU) (AU) (BG) (AU) (BG) (AU) (AG)
                 (BU) (BG) (AG) (BU) (AU) (AG) (BU) (BG) (AG) (BU)
                 (AU) (BG) (BG) (AU) (BG) (AU) (BU) (BG) (AU) (AG)
                 (AG) (BU) (BG) (AG) (BU) (AU) (AU) (BU) (AG) (BG)
                 (BU) (AG) (BU) (AU) (BG) (AG) (BU) (AU) (BG) (AG)
                 (AU) (BU) (AG) (BG) (BU) (AG) (BU) (AG) (BG) (BU)
                 (AG) (AU) (BG) (AU) (BG) (AG) (BU) (AU) (AU) (BG)
                 (AG) (BU) (AU) (BG) (AG) (AG) (BU) (BG) (AU) (BU)
                 (AG) (AU) (BG) (BU) (AU) (AG) (AU) (BU) (BG) (BG)
                 (AU) (BG) (AU) (BG) (AG) (BU) (AU) (AG) (BU) (AG)
                 (BG) (BU) (AG) (AU) (BU) (BG) (AG) (BU) (AG) (BU)
                 (AU) (AG) (BG) (BU) (AG) (BU) (AG) (AU) (BU) (AG)
                 (BU) (BG) (AU) (BG) (AU) (BG) (AU) (BG) (AU) (BG)
                 (AG) (AU) (BG) (BU) (AU) (AG) (AU) (BG) (BU) (BG)
                 (AG) (BU) (AG) (BU) (AG) (BU) (AU) (AG) (AU) (BU)
                 (BG) (AG) (BU) (BG) (AG) (BU) (AG) (BU) (AG) (AU)
                 (BG) (AU) (BU) (AU) (BG) (BG) (AG) (AU) (BU) (BG)
                 (AG) (BU) (AU) (AG) (BG) (BU) (AU) (AG) (BU) (BG)
                 (AG) (AU) (BG) (AU) (AG) (BU) (BG) (BU) (AG) (BU)
                 (AG) (BU) (AU) (BG) (AG) (BU) (BG) (AU) (AU) (BG)
                 (BG) (AU) (BU) (AG) (BG) (AU) (BU) (AU) (AG) (BG)
                 (AG) (AU) (BU) (BG) (BU) (AG) (AU) (BG) (AU) (BG)
                 (BU) (AG) (AU) (BG) (AG) (BU) (BU) (AU) (AG) (AG)
                 (BG) (BU) (AU) (BU) (AG) (AG) (BG) (BU) (BG) (AU)
                 (AG) (BG) (BU) (AU) (AU) (BU) (AG) (BG) (AU) (AG)
                 (BU) (BG) (AG) (AU) (BG) (BU) (AU) (BG) (AU) (BU)
                 (BG) (AG) (AU) (BG) (AU) (BG) (AG) (BU) (AG) (BU)
                 (AU) (AG) (BU) (BG) (AG) (BG) (AU) (BU) (AU) (BG)
                 (AG) (BU) (AU) (BG) (BU) (AG) (AG) (BU) (AU) (BG)
                 (BU) (AG) (BG) (AU) (AU) (BU) (AG) (BG) (AU) (BG)
                 (AG) (BU) (BU) (AG) (AU) (AG) (BG) (BU) (AU) (BG)
                 (AG) (BU) (AU) (AG) (BG) (BU) (AG) (AU) (BG) (BU)
                 (AG) (BU) (AU) (BG) (AU) (AG) (BU) (BG) (AG) (BU)
                 (AG) (BU) (BG) (AG) (BU) (AU) (BU) (AG) (BG) (AU)
                 (BG) (AG) (BU) (AU) (BG) (AU) (BU) (AG) (BG) (AU)
                 (BU) (AU) (BG) (AG) (BU) (AG) (BG) (AU) (AU) (BG)
                 (BU) (AG) (BU) (BG) (AU) (AG) (BU) (AG) (BG) (AU)
                 (BG) (BU) (AU) (AG) (BG) (BU) (AG) (AU) (BU) (AG)
                 (BG) (AU) (AG) (BU) (BU) (AG) (BG) (AU) (AG) (BG)
                 (BU) (AU) (AU) (BG) (AG) (BU) (AG) (BU) (AG) (BU)
                 (AG) (AU) (BU) (BG) (AU) (BG) (AG) (BU) (BG) (AU)
                 (BG) (AU) (AU) (BG) (BU) (AG) (AU) (BG) (AU) (AG)
                 (BU) (BG) (AG) (BU) (BG) (AU) (AG) (BU) (AG) (BU)
                 (AG) (AU) (BU) (BG) (AU) (BG) (BG) (AU) (AU) (BG)
                 (AG) (BG) (AU) (BU) (AG) (BG) (AU) (BU) (AU) (BG)
                 (AG) (BU) (BU) (AG) (AG) (BU) (AU) (BG) (BU) (BG)
                 (AU) (AG) (BG) (AU) (AG) (BU) (AU) (AG) (BG) (BU)
                 (AU) (BG) (AU) (AG) (BU) (BG) (AU) (BG) (AU) (AG)
                 (BG) (BU) (AU) (AG) (BU) (BG) (AG) (BU) (AG) (BU)
                 (AU) (AG) (BU) (BG) (AG) (AU) (BU) (AG) (BG) (AU)
                 (BG) (AU) (BU) (AG) (BU) (AG) (AU) (BG) (BU) (BG)
                 (AG) (AU) (BG) (BU) (AG) (BU) (AU) (BG) (AG) (BU)
                 (AG) (AU) (BG) (BU) (AU) (AG) (BU) (AU) (BG) (BG)
                 (AU) (AG) (BG) (BU) (AG) (BU) (AG) (AU) (BU) (BG)
                 (AG) (AU) (BU) (BG) (AU) (BG) (AG) (BU) (AG) (AU)
                 (BU) (BG) (AU) (AG) (BG) (BU) (AU) (BG) (AU) (AG)
                 (BU) (BG) (AG) (BU) (AU) (AG) (AU) (BU) (BG) (BG)
                 (AU) (BG) (AG) (AU) (BG) (BU) (AG) (BU) (AG) (BU)
                 (AG) (BU) (AU) (AG) (BG) (BU) (AG) (BU) (AU) (BG)
                 (AG) (AU) (BG) (BU) (AU) (BG) (BU) (AG) (BG) (AU)
                 (BU) (AG) (AG) (BU) (BG) (AU) (AU) (BG) (AU) (AG)
                 (BU) (BG) (AG) (BU) (BU) (AG) (BG) (AU) (BU) (AG)
                 (AG) (BU) (AU) (BG) (AG) (AU) (BG) (BU) (BG) (AU)
                 (BU) (BG) (AU) (AG) (AU) (BG) (BG) (AU) (AG) (BU)
                 (AU) (BU) (AG) (BG) (AG) (AU) (BG) (BU) (AG) (BU)
                 (AG) (AU) (AG) (AU) (BU) (BG) (BU) (AG) (BG) (AU)
                 (BG) (AU) (BU) (BG) (AU) (AG) (AU) (BU) (BG) (BG)
                 (AU) (BU) (AG) (BG) (AG) (BU) (AG) (AU) (BG) (AU)
                 (BG) (BU) (AG) (BU) (AG) (AU) (BG) (BU) (AG) (BU)
                 (AU) (BG) (BU) (AG) (BG) (BU) (AU) (AG) (AU) (BG)
                 (AU) (AU) (BG) (AG) (BU) (BG) (AG) (BU) (AG) (BU)
                 (AG) (AU) (BG) (BU) (AG) (BU) (AU) (BG) (AU) (AG)
                 (BU) (BG) (AU) (BG) (AU) (BG) (AG) (AU) (BU) (BG)
                 (AG) (BU) (AG) (BU) (AU) (AG) (BU) (BG) (AU) (BG)
                 (AU) (BG) (AU) (BG) (AU) (BG) (BU) (AG) (AG) (BU)
                 (AG) (BU) (AU) (AG) (BU) (BG) (BU) (AG) (BG) (AU)
                 (BU) (BG) (AG) (AU) (AG) (BU) (BU) (AG) (AG) (BG)
                 (AU) (BU) (AU) (BG) (AG) (BU) (BG) (AU) (AU) (BG)
                 (BG) (BU) (AG) (AU) (BU) (AG) (BG) (AU) (BG) (AU)
                 (BG) (BU) (AU) (AG) (AG) (BU) (BG) (AU) (AG) (AU)
                 (BG) (BU) (BU) (AG) (AG) (BU) (AG) (BU) (AU) (BG)
                 (BU) (AU) (BG) (AG) (AG) (BU) (BG) (AU) (AG) (BU)
                 (BU) (AG) (AG) (BU) (AG) (AU) (BG) (BU) (AU) (BG)
                 (AG) (BU) (AU) (BU) (AG) (BG) (AU) (BG) (AG) (BG)
                 (AU) (BU) (AG) (BU) (AU) (BG) (BG) (AU) (AG) (BG)
                 (AU) (BU) (AG) (BU) (AU) (BG) (AG) (BU) (AU) (BG)
                 (AU) (BG) (BG) (BU) (AG) (AU) (BG) (AU) (AG) (BU)
                 (BG) (AU) (BU) (AG) (BG) (AG) (BU) (AU) (BG) (AU)
                 (BU) (BG) (AU) (AG) (BU) (AG) (AG) (BU) (AU) (BU)
                 (AG) (BG) (BG) (AU) (AU) (BG) (AU) (AG) (BU) (BG)
                 (BU) (AG) (AU) (BG) (AG) (AU) (BG) (BU) (AG) (BU)
                 (AG) (AU) (BU) (BG) (AU) (BG) (AG) (BU) (AG) (BU)
                 (AU) (BG) (AG) (AU) (BG) (BU) (AU) (BG) (AU) (AG)
                 (BU) (BG) (AG) (BU) (AG) (BU) (AG) (BU) (AU) (BG)
                 (AU) (BU) (AG) (BG) (AU) (BU) (AG) (BG) (AG) (AG)
                 (AG) (AG) (AG) (AG) (AG) (AG) (AG) (AG) (AG) (AG)
                 (AG) (AG) (AG) (AG) (AG) (AG) (AG) (AG) (AG) (AG)
                 (AG) (AG) (AG) (AG) (AG) (AG) (AG) (AG) (AG) (AG)
                 (AG) (AG) (AG) (AG) (AG) (AG) (AG) (AG) (AG) (AG)
                 (AG) (AG) (AG) (AG) (AG) (AG) (AG) (AG) (AG) (AG)
                 (AG) (AG) (AG) (AG) (AG) (AG) (AG) (AG) (AG) (AG)
                 (AG) (AG) (AG) (AG) (AG) (AG) (AG) (AG) (AG) (AG)
                 (AG) (AG) (AG) (AG) (AG) (AG) (AG) (AG) (AG) (AG)
                 (AG) (AG) (AG) (AG) (AG) (AG) (AG) (AG) (AG) (AG)
                 (AG) (AG) (AG) (AG) (AG) (AG) (AG) (AG) (AG) (AG)
                 (AG) (AG) (AG) (AG) (AG) (AG) (AG) (AG) (AG) (AG)
                 (AG) (AG) (AG) (AG) (AG) (AG) (AG) (AG) (AG) (AG)
                 (AG) (AG) (AG) (AG) (AG) (AG) (AG) (AG) (AG) (AG)
                 (AG) (AG) (AG) (AG) (AG) (AG) (AG) (AG) (AG) (AG)
                 (AG) (AG) (AG) (AG) (AG) (AG) (AG) (AG) (AG) (AG)
                 (AG) (AG) (AG) (AG) (AG) (AG) (AG) (AG) (AG) (AG)
                 (AG) (AG) (AG) (AG) (AG) (AG) (AG) (AG) (AG) (AG)
                 (AG) (AG) (AG) (AG) (AG) (AG) (AG) (AG) (AG) (AG)
                 (AG) (AG) (AG) (AG) (AG) (AG) (AG) (AG) (AG) (AG)
                 (AG) (AG) (AG) (AG) (AG) (AG) (AG) (AG) (AG) (AG)
                 (AG) (AG) (AG) (AG) (AG) (AG) (AG) (AG) (AG) (AG)
                 (AG) (AG) (AG) (AG) (AG) (AG) (AG) (AG) (AG) (AG)
                 (AG) (BG) (BG) (BG) (BG) (BG) (BG) (BG) (BG) (BG)
                 (BG) (BG) (BG) (BG) (BG) (BG) (BG) (BG) (BG) (BG)
                 (BG) (BG) (BG) (BG) (BG) (BG) (BG) (BG) (BG) (BG)
                 (BG) (BG) (BG) (BG) (BG) (BG) (BG) (BG) (BG) (BG)
                 (BG) (BG) (BG) (BG) (BG) (BG) (BG) (BG) (BG) (BG)
                 (BG) (BG) (BG) (BG) (BG) (BG) (BG) (BG) (BG) (BG)
                 (BG) (BG) (BG) (BG) (BG) (BG) (BG) (BG) (BG) (BG)
                 (BG) (BG) (BG) (BG) (BG) (BG) (BG) (BG) (BG) (BG)
                 (BG) (BG) (BG) (BG) (BG) (BG) (BG) (BG) (BG) (BG)
                 (BG) (BG) (BG) (BG) (BG) (BG) (BG) (BG) (BG) (BG)
                 (BG) (BG) (BG) (BG) (BG) (BG) (BG) (BG) (BG) (BG)
                 (BG) (BG) (BG) (BG) (BG) (BG) (BG) (BG) (BG) (BG)
                 (BG) (BG) (BG) (BG) (BG) (BG) (BG) (BG) (BG) (BG)
                 (BG) (BG) (BG) (BG) (BG) (BG) (BG) (BG) (BG) (BG)
                 (BG) (BG) (BG) (BG) (BG) (BG) (BG) (BG) (BG) (BG)
                 (BG) (BG) (BG) (BG) (BG) (BG) (BG) (BG) (BG) (BG)
                 (BG) (BG) (BG) (BG) (BG) (BG) (BG) (BG) (BG) (BG)
                 (BG) (BG) (BG) (BG) (BG) (BG) (BG) (BG) (BG) (BG)
                 (BG) (BG) (BG) (BG) (BG) (BG) (BG) (BG) (BG) (BG)
                 (BG) (BG) (BG) (BG) (BG) (BG) (BG) (BG) (BG) (BG)
                 (BG) (BG) (BG) (BG) (BG) (BG) (BG) (BG) (BG) (BG)
                 (BG) (AU) (AU) (AU) (AU) (AU) (AU) (AU) (AU) (AU)
                 (AU) (AU) (AU) (AU) (AU) (AU) (AU) (AU) (AU) (AU)
                 (AU) (AU) (AU) (AU) (AU) (AU) (AU) (AU) (AU) (AU)
                 (AU) (AU) (AU) (AU) (AU) (AU) (AU) (AU) (AU) (AU)
                 (AU) (AU) (AU) (AU) (AU) (AU) (AU) (AU) (AU) (AU)
                 (AU) (AU) (AU) (AU) (AU) (AU) (AU) (AU) (AU) (AU)
                 (AU) (AU) (AU) (AU) (AU) (AU) (AU) (AU) (AU) (AU)
                 (AU) (AU) (AU) (AU) (AU) (AU) (AU) (AU) (AU) (AU)
                 (AU) (AU) (AU) (AU) (AU) (AU) (AU) (AU) (AU) (AU)
                 (AU) (AU) (AU) (AU) (AU) (AU) (AU) (AU) (AU) (AU)
                 (AU) (AU) (AU) (AU) (AU) (AU) (AU) (AU) (AU) (AU)
                 (AU) (AU) (AU) (AU) (AU) (AU) (AU) (AU) (AU) (AU)
                 (AU) (AU) (AU) (AU) (AU) (AU) (AU) (AU) (AU) (AU)
                 (AU) (AU) (AU) (AU) (AU) (AU) (AU) (AU) (AU) (AU)
                 (AU) (AU) (AU) (AU) (AU) (AU) (AU) (AU) (AU) (AU)
                 (AU) (AU) (AU) (AU) (AU) (AU) (AU) (AU) (AU) (AU)
                 (AU) (AU) (AU) (AU) (AU) (AU) (AU) (AU) (AU) (AU)
                 (AU) (AU) (AU) (AU) (AU) (AU) (AU) (AU) (AU) (AU)
                 (AU) (AU) (AU) (AU) (AU) (AU) (AU) (AU) (AU) (AU)
                 (AU) (AU) (AU) (AU) (AU) (AU) (AU) (AU) (AU) (AU)
                 (AU) (AU) (AU) (AU) (AU) (AU) (AU) (AU) (AU) (AU)
                 (AU) (BU) (BU) (BU) (BU) (BU) (BU) (BU) (BU) (BU)
                 (BU) (BU) (BU) (BU) (BU) (BU) (BU) (BU) (BU) (BU)
                 (BU) (BU) (BU) (BU) (BU) (BU) (BU) (BU) (BU) (BU)
                 (BU) (BU) (BU) (BU) (BU) (BU) (BU) (BU) (BU) (BU)
                 (BU) (BU) (BU) (BU) (BU) (BU) (BU) (BU) (BU) (BU)
                 (BU) (BU) (BU) (BU) (BU) (BU) (BU) (BU) (BU) (BU)
                 (BU) (BU) (BU) (BU) (BU) (BU) (BU) (BU) (BU) (BU)
                 (BU) (BU) (BU) (BU) (BU) (BU) (BU) (BU) (BU) (BU)
                 (BU) (BU) (BU) (BU) (BU) (BU) (BU) (BU) (BU) (BU)
                 (BU) (BU) (BU) (BU) (BU) (BU) (BU) (BU) (BU) (BU)
                 (BU) (BU) (BU) (BU) (BU) (BU) (BU) (BU) (BU) (BU)
                 (BU) (BU) (BU) (BU) (BU) (BU) (BU) (BU) (BU) (BU)
                 (BU) (BU) (BU) (BU) (BU) (BU) (BU) (BU) (BU) (BU)
                 (BU) (BU) (BU) (BU) (BU) (BU) (BU) (BU) (BU) (BU)
                 (BU) (BU) (BU) (BU) (BU) (BU) (BU) (BU) (BU) (BU)
                 (BU) (BU) (BU) (BU) (BU) (BU) (BU) (BU) (BU) (BU)
                 (BU) (BU) (BU) (BU) (BU) (BU) (BU) (BU) (BU) (BU)
                 (BU) (BU) (BU) (BU) (BU) (BU) (BU) (BU) (BU) (BU)
                 (BU) (BU) (BU) (BU) (BU) (BU) (BU) (BU) (BU) (BU)
                 (BU) (BU) (BU) (BU) (BU) (BU) (BU) (BU) (BU) (BU)
                 (BU) (BU) (BU) (BU) (BU) (BU) (BU) (BU) (BU) (BU)
                 (BU) (BU) (BU) (BU) (BU) (BU) (BU) (BU) (BU) (BU)
                 (BU) (BU) (BU) (BU)
 Requested convergence on RMS density matrix=1.00D-08 within 128 cycles.
 Requested convergence on MAX density matrix=1.00D-06.
 Requested convergence on             energy=1.00D-06.
 No special actions if energy rises.
 SCF Done:  E(RLC-B+HF-LYP) =  -6885.16834297     A.U. after   14 cycles
            NFock= 14  Conv=0.81D-08     -V/T= 2.0025
 ExpMin= 4.78D-02 ExpMax= 4.06D+05 ExpMxC= 3.92D+03 IAcc=3 IRadAn=         5 AccDes= 0.00D+00
 HarFok:  IExCor=  205 AccDes= 0.00D+00 IRadAn=         5 IDoV=-2 UseB2=F ITyADJ=14
 ICtDFT= 12500011 ScaDFX=  1.000000  1.000000  1.000000  1.000000
 Range of M.O.s used for correlation:    99  2208
 NBasis=  2208 NAE=   294 NBE=   294 NFC=    98 NFV=     0
 NROrb=   2110 NOA=   196 NOB=   196 NVA=  1914 NVB=  1914

 **** Warning!!: The largest alpha MO coefficient is  0.38381025D+02

 Would need an additional       7426252400000 words for in-memory AO integral storage.
 Orbital symmetries:
       Occupied  (AG) (BU) (AG) (BU) (BU) (AG) (AG) (BU) (BG) (AU)
                 (AU) (BG) (BU) (AG) (BG) (AU) (AG) (BU) (AU) (AG)
                 (BG) (BU) (BU) (AG) (BU) (AG) (AU) (BG) (AG) (BU)
                 (AU) (BG) (BU) (AG) (BG) (AU) (BU) (AG) (BG) (AU)
                 (BU) (AG) (BG) (AU) (BU) (AG) (BG) (AU) (AG) (BU)
                 (AU) (BG) (AG) (BU) (AU) (BG) (BU) (AG) (BG) (AU)
                 (AG) (BU) (BG) (AU) (BU) (AG) (BG) (AU) (BU) (AG)
                 (BG) (AU) (BU) (AG) (AU) (BG) (AG) (BU) (BG) (AU)
                 (AG) (BU) (AU) (AG) (BG) (BU) (BG) (AU) (BU) (AG)
                 (AG) (BU) (BU) (AG) (AG) (BU) (BG) (AU) (AG) (BU)
                 (AU) (BG) (AG) (BU) (AU) (BG) (AG) (BU) (AU) (BG)
                 (AG) (BU) (AG) (BU) (AU) (AG) (BG) (BU) (AU) (BG)
                 (AG) (BU) (AU) (BG) (AG) (BU) (AU) (BG) (AG) (BU)
                 (AG) (BU) (AU) (BG) (AU) (BG) (AG) (BU) (AU) (BG)
                 (AG) (AU) (BG) (BU) (AU) (BG) (AG) (BU) (AU) (AG)
                 (BU) (BG) (AG) (BU) (AU) (BG) (AU) (AG) (BU) (BG)
                 (AG) (BU) (AU) (BG) (AG) (BU) (AG) (AU) (BG) (BU)
                 (AU) (BG) (AG) (AU) (BG) (BU) (AU) (BG) (AG) (BU)
                 (AG) (BU) (AU) (BG) (AG) (BU) (AU) (BG) (AG) (BU)
                 (AU) (AG) (BU) (BG) (AG) (AU) (BG) (BU) (AG) (BU)
                 (AU) (BG) (AU) (BG) (AG) (BU) (AU) (BG) (AG) (BU)
                 (AG) (BU) (AU) (AG) (BU) (BG) (AG) (BU) (AU) (BG)
                 (AU) (BG) (AG) (AU) (BG) (BU) (AU) (BG) (AG) (BU)
                 (AG) (BU) (AG) (AU) (BU) (AG) (BU) (BG) (AG) (BU)
                 (AU) (AG) (BU) (BG) (AU) (BG) (AU) (BG) (AG) (AU)
                 (BU) (BG) (AG) (BU) (AG) (AU) (BG) (BU) (AU) (BG)
                 (AG) (AU) (BG) (BU) (AG) (BU) (AU) (BG) (AG) (BU)
                 (AU) (BG) (AG) (BU) (AG) (BU) (AG) (BU) (AU) (AG)
                 (BU) (BG) (AU) (BG) (AG) (AU) (BG) (BU) (AU) (BG)
                 (AG) (BU) (AU) (BG)
       Virtual   (AG) (AU) (BG) (BU) (AG) (BU) (AG) (AU) (BU) (BG)
                 (AU) (AG) (BU) (BG) (AG) (BU) (AG) (BU) (AU) (AG)
                 (BG) (AU) (BU) (BG) (AG) (AU) (BG) (BU) (AG) (AU)
                 (BU) (AG) (AG) (AU) (BG) (BG) (AU) (BU) (BG) (AG)
                 (BU) (AG) (BU) (AU) (AG) (BU) (BG) (BU) (AU) (AG)
                 (BG) (AU) (BG) (BU) (AG) (BU) (AG) (AU) (BG) (BU)
                 (AU) (AG) (BU) (AG) (BG) (BU) (AU) (AG) (BU) (AG)
                 (BG) (BU) (AU) (BG) (AU) (BU) (AG) (BG) (AU) (BU)
                 (AG) (BG) (AG) (AU) (BU) (BG) (BG) (BU) (AG) (AU)
                 (AG) (BG) (BU) (AU) (AG) (BU) (BG) (AU) (BG) (AU)
                 (AG) (AU) (AG) (BG) (BU) (AU) (BU) (BG) (AG) (AG)
                 (BU) (AU) (BU) (AU) (BG) (AG) (AG) (BU) (BG) (BU)
                 (AU) (BU) (AG) (BG) (BU) (AG) (AU) (BG) (BU) (AG)
                 (AU) (AG) (BU) (BG) (AU) (AG) (BU) (BG) (AG) (BG)
                 (AU) (BU) (AG) (AG) (BU) (BU) (AG) (AU) (BU) (BG)
                 (BG) (AU) (AU) (AG) (BG) (BG) (AU) (BU) (AU) (AG)
                 (BG) (AU) (BU) (AG) (BG) (BU) (AG) (BU) (AU) (BG)
                 (AU) (AG) (BU) (AU) (BG) (AG) (BG) (BU) (AG) (AU)
                 (AG) (BU) (BG) (BU) (BG) (AU) (AU) (BG) (BU) (AG)
                 (AG) (BU) (BU) (AU) (AG) (AG) (BG) (BU) (BG) (AU)
                 (BU) (AG) (AU) (AG) (AU) (AG) (BU) (BG) (BU) (AG)
                 (AU) (BG) (BU) (BG) (BU) (AG) (AU) (BG) (AG) (AU)
                 (AU) (BU) (BG) (AG) (AG) (BU) (BU) (AG) (BG) (AU)
                 (BU) (AG) (BG) (AG) (BU) (AU) (AU) (BG) (BG) (BU)
                 (AG) (AU) (BG) (BG) (AU) (BU) (AG) (BG) (BU) (AG)
                 (AU) (AU) (AG) (BU) (BU) (BG) (AU) (AU) (AG) (BG)
                 (BU) (AG) (BG) (AU) (BG) (BU) (AG) (AU) (BG) (BU)
                 (AG) (BU) (AU) (AG) (BU) (AG) (BG) (AU) (BG) (BU)
                 (AG) (BG) (BU) (AU) (AU) (BG) (AG) (AU) (BU) (BG)
                 (AU) (AU) (AG) (BU) (BG) (BU) (AG) (AG) (AG) (BG)
                 (BU) (BU) (BG) (AG) (AU) (BU) (BU) (AU) (BG) (AG)
                 (BG) (AU) (AG) (BG) (BU) (AU) (AG) (BU) (AG) (AU)
                 (BU) (BG) (AG) (BU) (AG) (BU) (AU) (AG) (BU) (BG)
                 (BG) (AG) (BU) (AU) (AG) (BU) (AU) (BG) (BU) (AG)
                 (AG) (AU) (BG) (BG) (AU) (BU) (BU) (AG) (BG) (AU)
                 (AG) (AU) (BG) (AU) (BG) (BU) (AG) (BU) (BU) (BG)
                 (AG) (AU) (AU) (AG) (BG) (BU) (AU) (BG) (AG) (BU)
                 (BU) (AG) (AU) (AG) (BG) (BU) (AU) (BG) (AU) (BU)
                 (BG) (AG) (AU) (AU) (AU) (BU) (AG) (BG) (BU) (BG)
                 (BG) (AU) (BG) (AG) (AU) (BU) (BG) (AG) (AU) (BG)
                 (AG) (BU) (AU) (BG) (AG) (AU) (AG) (BG) (AU) (BU)
                 (BU) (BG) (BU) (AG) (AU) (BU) (AG) (BG) (AG) (BU)
                 (AG) (AU) (BG) (BU) (AU) (AG) (BU) (AU) (BG) (BG)
                 (AG) (BU) (AG) (AU) (BU) (BG) (AU) (BG) (AU) (AG)
                 (BU) (AU) (BU) (AG) (BG) (BG) (AU) (BG) (AG) (BU)
                 (AU) (AG) (BU) (BG) (AU) (AG) (BG) (AU) (AG) (BU)
                 (BU) (BG) (AU) (AG) (BU) (AG) (AU) (BG) (BG) (BU)
                 (AG) (BG) (AU) (BU) (AU) (BG) (BU) (AG) (BU) (AG)
                 (AU) (BU) (AG) (BG) (AU) (BG) (AG) (BU) (AU) (AG)
                 (AG) (BU) (BG) (BG) (AU) (AU) (BG) (BU) (AG) (AU)
                 (BG) (BU) (AG) (BU) (AU) (BU) (AG) (BG) (BU) (AU)
                 (AG) (BG) (AU) (BU) (AG) (BG) (AG) (AU) (BU) (BG)
                 (AU) (BU) (AG) (AG) (BG) (BU) (AG) (BU) (AG) (AU)
                 (BU) (BG) (AG) (BU) (AG) (BU) (AG) (AU) (BG) (BU)
                 (AU) (AU) (BG) (BG) (AU) (AG) (AU) (BG) (BU) (BG)
                 (AU) (BG) (AU) (BU) (AG) (AG) (BU) (BG) (AG) (AU)
                 (AG) (BU) (BG) (BU) (AG) (AU) (BG) (BU) (AG) (AU)
                 (AU) (BG) (AU) (BG) (BU) (BG) (AG) (AU) (BG) (BU)
                 (AG) (AU) (BG) (BU) (AG) (BU) (AU) (BG) (AG) (AU)
                 (BU) (AG) (BG) (AU) (BU) (BG) (AG) (AU) (AG) (BU)
                 (BG) (BU) (AG) (AU) (BG) (BG) (AU) (BU) (AG) (BU)
                 (AU) (AG) (BU) (BG) (BG) (BU) (AG) (AU) (BG) (AU)
                 (AU) (AG) (BU) (BG) (AG) (BU) (AU) (AG) (BU) (BG)
                 (AU) (BG) (AG) (BU) (AU) (AG) (BU) (AG) (BU) (BG)
                 (AU) (BG) (AU) (BG) (AU) (AG) (BG) (AU) (AG) (BU)
                 (AG) (BU) (BG) (BU) (AG) (AU) (BU) (AG) (BG) (AU)
                 (AG) (BU) (BU) (BG) (AG) (BU) (AG) (AU) (BU) (AU)
                 (AG) (BG) (AU) (BU) (AG) (BG) (BU) (BG) (AU) (AG)
                 (BU) (BG) (BG) (AG) (AU) (BU) (BG) (AU) (AU) (AG)
                 (BG) (BU) (AU) (AG) (BU) (BG) (BU) (AG) (AG) (BU)
                 (AU) (AG) (BU) (BG) (AG) (BG) (AU) (BU) (AU) (BG)
                 (AG) (AU) (BU) (BG) (AU) (BG) (AU) (BG) (AG) (AU)
                 (AG) (BG) (BU) (AU) (BU) (AG) (AG) (BG) (BU) (AU)
                 (BG) (AU) (BU) (AG) (AU) (BG) (BU) (AU) (BG) (AG)
                 (BG) (BU) (AU) (BG) (AU) (AG) (BU) (BG) (AG) (AU)
                 (BU) (BG) (AG) (BU) (AG) (BU) (AU) (BG) (BU) (AG)
                 (BU) (BG) (AU) (AG) (AG) (BU) (BU) (AG) (AU) (BU)
                 (BG) (AG) (AU) (BG) (AU) (AG) (BU) (AG) (BG) (BU)
                 (AG) (AU) (BG) (BU) (AU) (BG) (AG) (BU) (AG) (AU)
                 (BG) (BU) (AU) (AG) (BG) (AU) (AG) (BG) (AU) (BU)
                 (BG) (AU) (BG) (AU) (BG) (BU) (BG) (AU) (AU) (AG)
                 (BU) (BU) (BG) (AG) (AU) (AG) (BU) (BG) (AG) (BU)
                 (AG) (AU) (BU) (BG) (AU) (BU) (BG) (AU) (AG) (AG)
                 (BU) (BG) (AU) (BG) (AU) (BG) (AG) (BU) (AU) (AG)
                 (BU) (AG) (BG) (BG) (AU) (BU) (AU) (AG) (BU) (BG)
                 (BG) (AU) (AU) (BG) (AG) (BU) (BU) (AU) (AG) (BG)
                 (AG) (AU) (BG) (BU) (AG) (BU) (BU) (AG) (BG) (AG)
                 (BU) (AU) (AG) (AU) (BU) (BG) (BG) (BU) (AU) (AG)
                 (BU) (AG) (BU) (AG) (BG) (BG) (AU) (BU) (BG) (AU)
                 (AG) (AG) (BU) (AU) (BU) (AG) (BU) (BG) (AU) (AG)
                 (AG) (BU) (BG) (AU) (AG) (BU) (AG) (BU) (AU) (BG)
                 (BG) (AU) (AG) (BU) (AU) (BG) (AU) (BG) (AU) (BG)
                 (AU) (BG) (AG) (AU) (BU) (BG) (AU) (BU) (AG) (BG)
                 (BG) (AU) (AG) (BU) (AU) (AG) (BG) (BU) (AG) (BU)
                 (AG) (BU) (AG) (AU) (BG) (BU) (AG) (AU) (BU) (BG)
                 (BU) (BG) (AG) (AU) (AU) (BG) (AG) (AU) (BG) (BU)
                 (AG) (BU) (BU) (AG) (AU) (BU) (BG) (AG) (AU) (BG)
                 (AG) (BU) (AU) (BG) (AG) (AU) (BG) (BU) (AU) (AG)
                 (BU) (BG) (BU) (AG) (AU) (BG) (AG) (BU) (BG) (BU)
                 (AG) (AU) (AU) (AG) (BG) (BU) (BG) (AU) (AU) (BG)
                 (AG) (AU) (BU) (BU) (BG) (BG) (AG) (AU) (AG) (AG)
                 (BU) (AG) (BU) (BU) (AG) (AU) (BG) (BU) (AU) (BU)
                 (AG) (BG) (AU) (AG) (BU) (BG) (AU) (BG) (AU) (BG)
                 (BU) (AG) (AG) (AU) (BG) (BU) (AG) (AU) (BG) (AU)
                 (BG) (BU) (AG) (BU) (AU) (BG) (BG) (AU) (AG) (BU)
                 (AG) (BU) (BU) (AU) (BG) (AG) (BU) (AG) (AG) (AU)
                 (BG) (BU) (AG) (BU) (AU) (AG) (BG) (BG) (AU) (AU)
                 (BU) (BG) (AU) (AG) (BU) (BG) (AU) (BG) (AU) (BG)
                 (AU) (BG) (AU) (AG) (BU) (BG) (AU) (AG) (BU) (BG)
                 (AG) (BU) (AG) (AU) (BU) (BG) (AG) (BU) (AU) (BG)
                 (AG) (AG) (AU) (BU) (BG) (BU) (AU) (BG) (AG) (BU)
                 (AG) (AU) (BG) (BU) (AU) (BG) (AG) (AU) (BU) (BG)
                 (AG) (BU) (AG) (BU) (AG) (AU) (BU) (BG) (AG) (AU)
                 (BG) (BU) (AU) (AG) (BG) (BU) (AU) (BG) (AU) (AG)
                 (BU) (BG) (AG) (BU) (AU) (AG) (AG) (BU) (BU) (AU)
                 (BG) (BG) (BU) (AG) (AG) (AU) (BG) (BU) (AG) (BU)
                 (AU) (BG) (AG) (AU) (BG) (BU) (BG) (BU) (AU) (AG)
                 (BG) (AU) (AU) (BG) (AG) (BU) (AU) (BG) (AG) (BU)
                 (AU) (AG) (BG) (BU) (AG) (BU) (AU) (BG) (AG) (BU)
                 (AU) (BG) (AG) (AU) (BG) (BU) (AG) (BU) (AU) (AG)
                 (BG) (AU) (BU) (BG) (AG) (BU) (AU) (BG) (AG) (BU)
                 (BG) (AG) (AU) (BU) (BU) (AG) (AU) (BG) (AU) (AG)
                 (BU) (BG) (AG) (BU) (AU) (BG) (AG) (AU) (BG) (BU)
                 (BU) (AG) (AU) (BG) (AU) (AG) (BG) (BU) (AG) (AG)
                 (BU) (BU) (AG) (AU) (BG) (BU) (BG) (AU) (AU) (AG)
                 (AG) (BG) (BU) (BU) (AU) (BG) (AG) (AU) (BG) (BU)
                 (AU) (BG) (BU) (AG) (AU) (BG) (BU) (AG) (BG) (AU)
                 (AG) (BU) (BU) (AG) (AG) (AU) (BG) (BU) (AG) (AU)
                 (BU) (BG) (AG) (BU) (AU) (BG) (AU) (BG) (AG) (BU)
                 (AG) (AU) (BU) (BG) (AG) (BU) (BG) (AU) (AG) (AU)
                 (BG) (BU) (AG) (BU) (AU) (BG) (AU) (BG) (AU) (BG)
                 (BU) (AG) (AU) (BU) (BG) (AG) (BU) (AU) (AG) (BG)
                 (AG) (BU) (AG) (AU) (BG) (BU) (BG) (AU) (AG) (BU)
                 (AU) (BG) (BU) (AG) (AG) (BU) (AU) (AG) (BG) (BU)
                 (BU) (AU) (AG) (BG) (BG) (AU) (AG) (BU) (AG) (AU)
                 (BG) (BU) (AG) (BU) (AG) (AU) (AU) (BG) (BU) (BG)
                 (AU) (AG) (BU) (AU) (BG) (BG) (BG) (AU) (AG) (BU)
                 (AU) (AG) (BU) (BG) (AG) (BU) (AG) (AU) (BU) (BG)
                 (AG) (BU) (AG) (BU) (AU) (AG) (AU) (BG) (BU) (AU)
                 (BG) (BG) (AU) (BG) (AG) (AU) (BU) (BG) (AG) (AU)
                 (BU) (AG) (BG) (AU) (BG) (BU) (AG) (AU) (BG) (BU)
                 (AG) (AU) (BU) (AU) (AG) (BG) (BG) (BU) (AG) (BU)
                 (AU) (BU) (BG) (AG) (AG) (BU) (AU) (BG) (AG) (AU)
                 (BU) (BG) (AG) (AU) (BG) (BU) (AU) (BG) (AG) (BU)
                 (AG) (BU) (AU) (AG) (BU) (BG) (AU) (BG) (AU) (AG)
                 (BU) (BG) (AU) (AU) (BG) (AG) (AG) (BU) (BU) (BG)
                 (AG) (AU) (BU) (AG) (BG) (BU) (AG) (AU) (AU) (BG)
                 (BG) (AG) (BU) (BU) (AU) (BG) (AU) (AG) (AU) (BG)
                 (BG) (BU) (AG) (AG) (BU) (BG) (AU) (BU) (AG) (AU)
                 (AG) (BU) (AU) (BG) (BU) (BU) (AG) (BG) (BG) (AU)
                 (AU) (BU) (AG) (BG) (AU) (BG) (AU) (BG) (AG) (AU)
                 (BG) (BU) (AG) (BU) (BU) (AG) (BG) (AG) (AU) (BU)
                 (AU) (BG) (AG) (BU) (AU) (BG) (AG) (BU) (AG) (BU)
                 (AG) (BU) (AG) (AU) (BG) (AU) (BU) (AG) (BU) (BG)
                 (BU) (BG) (AU) (AG) (AU) (BG) (BU) (BU) (AG) (AG)
                 (AU) (BG) (BG) (AU) (AG) (BU) (AU) (BU) (BG) (AG)
                 (BG) (AU) (AG) (BU) (BG) (BU) (AG) (AU) (BG) (AU)
                 (AG) (AU) (BU) (BG) (AG) (BU) (AU) (BG) (AU) (AG)
                 (BU) (BG) (BG) (AU) (BU) (BG) (AU) (AG) (BU) (AG)
                 (BG) (AU) (AU) (BG) (AU) (BU) (AG) (BG) (BG) (AU)
                 (BU) (AU) (AG) (BG) (BU) (AG) (BG) (AU) (AG) (BU)
                 (AG) (BG) (AU) (BU) (AU) (AG) (BU) (BG) (BU) (AG)
                 (AU) (BG) (AG) (BU) (BG) (AU) (AG) (BU) (AU) (AG)
                 (BU) (BG) (AG) (BG) (BU) (AU) (AU) (BG) (BG) (AU)
                 (AU) (BG) (AG) (AU) (BU) (AG) (BG) (BU) (AG) (BU)
                 (AG) (BU) (AU) (AG) (BU) (BG) (AG) (BU) (AU) (BG)
                 (AU) (BG) (AU) (AG) (BU) (BG) (AG) (BU) (AU) (BG)
                 (AG) (BU) (BG) (AU) (AG) (BG) (AU) (BU) (AG) (BU)
                 (AU) (BG) (AU) (AG) (BU) (BG) (BG) (AU) (BG) (AU)
                 (AG) (BU) (AG) (BU) (AU) (BG) (BU) (AG) (AG) (BG)
                 (AU) (BU) (AG) (BU) (BG) (AU) (AU) (AG) (BU) (BG)
                 (AU) (BG) (AG) (BU) (AU) (AG) (BU) (BG) (AU) (BG)
                 (BU) (AG) (AU) (BG) (AG) (BG) (AU) (BU) (BU) (AG)
                 (AG) (BU) (AU) (BG) (AU) (AG) (BG) (BU) (AG) (AU)
                 (BG) (BU) (AG) (BU) (AG) (BU) (AU) (BG) (AU) (AG)
                 (BU) (BG) (AG) (AU) (BU) (BG) (AG) (BU) (AU) (BG)
                 (AG) (BU) (AU) (BG) (AG) (BU) (AG) (BG) (AU) (BU)
                 (AG) (BU) (AG) (BU) (AG) (BG) (AU) (BU) (AG) (AU)
                 (BG) (BU) (AU) (BG) (BG) (AU) (BU) (AU) (BG) (AG)
                 (BG) (AU) (AU) (AG) (BG) (BU) (AG) (BU) (AU) (AG)
                 (BU) (BG) (AU) (BG) (AU) (BG) (AG) (BU) (AG) (BG)
                 (AU) (BU) (AG) (BU) (BU) (AG) (AG) (BU) (AU) (BG)
                 (AG) (BU) (AG) (BU) (AU) (BG) (BU) (AU) (BG) (AG)
                 (AU) (BU) (AG) (BG) (AG) (BU) (BG) (AG) (AU) (BU)
                 (BG) (AU) (BU) (AG) (BU) (AU) (BG) (AG) (AU) (BG)
                 (BU) (AG) (BG) (AG) (BU) (AU) (BU) (AG) (AU) (BG)
                 (BU) (BG) (AU) (AG) (BG) (AU) (AG) (BU) (AU) (BG)
                 (BU) (AG) (AU) (BG) (AG) (BU) (BG) (BU) (AG) (AU)
                 (BU) (AG) (BG) (AU) (AG) (BG) (AU) (BU) (AU) (BG)
                 (BU) (AG) (AU) (BU) (AG) (BG) (AU) (BG) (BU) (BG)
                 (AG) (AU) (BU) (AG) (BG) (AU) (BG) (AG) (AU) (BU)
                 (AG) (BU) (AG) (BU)
    16 initial guesses have been made.
 Convergence on wavefunction:    0.001000000000000
 Iteration     1 Dimension    16 NMult     0 NNew     16
 CISAX will form    16 AO SS matrices at one time.
 New state      1 was old state      2
 New state      2 was old state      1
 Iteration     2 Dimension    24 NMult    16 NNew      8
 New state      1 was old state      2
 New state      2 was old state      1
 New state      3 was old state      4
 New state      4 was old state      3
 Iteration     3 Dimension    32 NMult    24 NNew      8
 Iteration     4 Dimension    40 NMult    32 NNew      8
 Iteration     5 Dimension    48 NMult    40 NNew      8
 Iteration     6 Dimension    56 NMult    48 NNew      8
 Iteration     7 Dimension    64 NMult    56 NNew      8
 ***********************************************************************
 Excited states from <AA,BB:AA,BB> singles matrix:
 ***********************************************************************
 
 Ground to excited state transition densities written to RWF  633
 Ground to excited state transition electric dipole moments (Au):
       state          X           Y           Z        Dip. S.      Osc.
         1         0.0000      0.0000     -0.0000      0.0000      0.0000
         2         0.0558      4.8784      0.0000     23.8022      1.0601
         3         0.0000      0.0000      0.0000      0.0000      0.0000
         4         0.0000      0.0000     -4.3678     19.0778      0.8706
 Ground to excited state transition velocity dipole moments (Au):
       state          X           Y           Z        Dip. S.      Osc.
         1        -0.0000     -0.0000     -0.0000      0.0000      0.0000
         2        -0.0036     -0.3271     -0.0000      0.1070      1.0676
         3        -0.0000     -0.0000     -0.0000      0.0000      0.0000
         4         0.0000     -0.0000      0.3003      0.0902      0.8781
 Ground to excited state transition magnetic dipole moments (Au):
       state          X           Y           Z
         1         4.3093     -1.0885      0.0000
         2        -0.0000      0.0000      0.0000
         3         0.0000     -0.0000     -1.0034
         4         0.0000     -0.0000     -0.0000
 Ground to excited state transition velocity quadrupole moments (Au):
       state          XX          YY          ZZ          XY          XZ          YZ
         1        -0.0000      0.0000     -0.0000      0.0000      1.0518      4.1264
         2        -0.0000      0.0000     -0.0000      0.0000     -0.0000     -0.0000
         3         0.0192     -7.9311      0.0416     -0.9630      0.0000      0.0000
         4         0.0000     -0.0000      0.0000     -0.0000      0.0000      0.0000
 <0|del|b> * <b|rxdel|0> + <0|del|b> * <b|delr+rdel|0>
 Rotatory Strengths (R) in cgs (10**-40 erg-esu-cm/Gauss)
       state          XX          YY          ZZ    R(velocity)    E-M Angle
         1         0.0000     -0.0000      0.0000      0.0000       90.00
         2        -0.0000      0.0000     -0.0000     -0.0000       90.00
         3         0.0000      0.0000      0.0000      0.0000       90.00
         4        -0.0000     -0.0000      0.0000     -0.0000       90.00
 1/2[<0|r|b>*<b|rxdel|0> + (<0|rxdel|b>*<b|r|0>)*]
 Rotatory Strengths (R) in cgs (10**-40 erg-esu-cm/Gauss)
       state          XX          YY          ZZ     R(length)
         1        -0.0000      0.0000      0.0000      0.0000
         2         0.0000     -0.0000     -0.0000     -0.0000
         3        -0.0000      0.0000      0.0000      0.0000
         4        -0.0000      0.0000     -0.0000     -0.0000
  1/2[<0|del|b>*<b|r|0> + (<0|r|b>*<b|del|0>)*] (Au)
       state          X           Y           Z        Dip. S.   Osc.(frdel)
         1        -0.0000     -0.0000      0.0000      0.0000      0.0000
         2        -0.0002     -1.5956     -0.0000      1.5958      1.0638
         3        -0.0000     -0.0000     -0.0000      0.0000      0.0000
         4         0.0000     -0.0000     -1.3115      1.3115      0.8743

 Excitation energies and oscillator strengths:
 
 Excited State   1:      Singlet-BG     1.8159 eV  682.78 nm  f=0.0000  <S**2>=0.000
     291 -> 297       -0.12117
     292 -> 296       -0.12117
     293 -> 298       -0.48219
     294 -> 295        0.48500
 This state for optimization and/or second-order correction.
 Total Energy, E(TD-HF/TD-KS) =  -6885.10161109    
 Copying the excited state density for this state as the 1-particle RhoCI density.
 
 Excited State   2:      Singlet-BU     1.8180 eV  682.00 nm  f=1.0601  <S**2>=0.000
     291 -> 298       -0.12084
     292 -> 295        0.12059
     293 -> 297        0.48280
     294 -> 296        0.48461
 
 Excited State   3:      Singlet-AG     1.8617 eV  665.98 nm  f=0.0000  <S**2>=0.000
     291 -> 295        0.12835
     292 -> 298       -0.12804
     293 -> 296        0.48131
     294 -> 297        0.48172
 
 Excited State   4:      Singlet-AU     1.8626 eV  665.64 nm  f=0.8706  <S**2>=0.000
     291 -> 296       -0.12788
     292 -> 297       -0.12767
     293 -> 295        0.48176
     294 -> 298       -0.48140
 SavETr:  write IOETrn=   770 NScale= 10 NData=  16 NLR=1 NState=    4 LETran=      82.
 Hyperfine terms turned off by default for NAtoms > 100.

 **********************************************************************

            Population analysis using the SCF density.

 **********************************************************************

 Orbital symmetries:
       Occupied  (AG) (BU) (AG) (BU) (BU) (AG) (AG) (BU) (BG) (AU)
                 (AU) (BG) (BU) (AG) (BG) (AU) (AG) (BU) (AU) (AG)
                 (BG) (BU) (BU) (AG) (BU) (AG) (AU) (BG) (AG) (BU)
                 (AU) (BG) (BU) (AG) (BG) (AU) (BU) (AG) (BG) (AU)
                 (BU) (AG) (BG) (AU) (BU) (AG) (BG) (AU) (AG) (BU)
                 (AU) (BG) (AG) (BU) (AU) (BG) (BU) (AG) (BG) (AU)
                 (AG) (BU) (BG) (AU) (BU) (AG) (BG) (AU) (BU) (AG)
                 (BG) (AU) (BU) (AG) (AU) (BG) (AG) (BU) (BG) (AU)
                 (AG) (BU) (AU) (AG) (BG) (BU) (BG) (AU) (BU) (AG)
                 (AG) (BU) (BU) (AG) (AG) (BU) (BG) (AU) (AG) (BU)
                 (AU) (BG) (AG) (BU) (AU) (BG) (AG) (BU) (AU) (BG)
                 (AG) (BU) (AG) (BU) (AU) (AG) (BG) (BU) (AU) (BG)
                 (AG) (BU) (AU) (BG) (AG) (BU) (AU) (BG) (AG) (BU)
                 (AG) (BU) (AU) (BG) (AU) (BG) (AG) (BU) (AU) (BG)
                 (AG) (AU) (BG) (BU) (AU) (BG) (AG) (BU) (AU) (AG)
                 (BU) (BG) (AG) (BU) (AU) (BG) (AU) (AG) (BU) (BG)
                 (AG) (BU) (AU) (BG) (AG) (BU) (AG) (AU) (BG) (BU)
                 (AU) (BG) (AG) (AU) (BG) (BU) (AU) (BG) (AG) (BU)
                 (AG) (BU) (AU) (BG) (AG) (BU) (AU) (BG) (AG) (BU)
                 (AU) (AG) (BU) (BG) (AG) (AU) (BG) (BU) (AG) (BU)
                 (AU) (BG) (AU) (BG) (AG) (BU) (AU) (BG) (AG) (BU)
                 (AG) (BU) (AU) (AG) (BU) (BG) (AG) (BU) (AU) (BG)
                 (AU) (BG) (AG) (AU) (BG) (BU) (AU) (BG) (AG) (BU)
                 (AG) (BU) (AG) (AU) (BU) (AG) (BU) (BG) (AG) (BU)
                 (AU) (AG) (BU) (BG) (AU) (BG) (AU) (BG) (AG) (AU)
                 (BU) (BG) (AG) (BU) (AG) (AU) (BG) (BU) (AU) (BG)
                 (AG) (AU) (BG) (BU) (AG) (BU) (AU) (BG) (AG) (BU)
                 (AU) (BG) (AG) (BU) (AG) (BU) (AG) (BU) (AU) (AG)
                 (BU) (BG) (AU) (BG) (AG) (AU) (BG) (BU) (AU) (BG)
                 (AG) (BU) (AU) (BG)
       Virtual   (AG) (AU) (BG) (BU) (AG) (BU) (AG) (AU) (BU) (BG)
                 (AU) (AG) (BU) (BG) (AG) (BU) (AG) (BU) (AU) (AG)
                 (BG) (AU) (BU) (BG) (AG) (AU) (BG) (BU) (AG) (AU)
                 (BU) (AG) (AG) (AU) (BG) (BG) (AU) (BU) (BG) (AG)
                 (BU) (AG) (BU) (AU) (AG) (BU) (BG) (BU) (AU) (AG)
                 (BG) (AU) (BG) (BU) (AG) (BU) (AG) (AU) (BG) (BU)
                 (AU) (AG) (BU) (AG) (BG) (BU) (AU) (AG) (BU) (AG)
                 (BG) (BU) (AU) (BG) (AU) (BU) (AG) (BG) (AU) (BU)
                 (AG) (BG) (AG) (AU) (BU) (BG) (BG) (BU) (AG) (AU)
                 (AG) (BG) (BU) (AU) (AG) (BU) (BG) (AU) (BG) (AU)
                 (AG) (AU) (AG) (BG) (BU) (AU) (BU) (BG) (AG) (AG)
                 (BU) (AU) (BU) (AU) (BG) (AG) (AG) (BU) (BG) (BU)
                 (AU) (BU) (AG) (BG) (BU) (AG) (AU) (BG) (BU) (AG)
                 (AU) (AG) (BU) (BG) (AU) (AG) (BU) (BG) (AG) (BG)
                 (AU) (BU) (AG) (AG) (BU) (BU) (AG) (AU) (BU) (BG)
                 (BG) (AU) (AU) (AG) (BG) (BG) (AU) (BU) (AU) (AG)
                 (BG) (AU) (BU) (AG) (BG) (BU) (AG) (BU) (AU) (BG)
                 (AU) (AG) (BU) (AU) (BG) (AG) (BG) (BU) (AG) (AU)
                 (AG) (BU) (BG) (BU) (BG) (AU) (AU) (BG) (BU) (AG)
                 (AG) (BU) (BU) (AU) (AG) (AG) (BG) (BU) (BG) (AU)
                 (BU) (AG) (AU) (AG) (AU) (AG) (BU) (BG) (BU) (AG)
                 (AU) (BG) (BU) (BG) (BU) (AG) (AU) (BG) (AG) (AU)
                 (AU) (BU) (BG) (AG) (AG) (BU) (BU) (AG) (BG) (AU)
                 (BU) (AG) (BG) (AG) (BU) (AU) (AU) (BG) (BG) (BU)
                 (AG) (AU) (BG) (BG) (AU) (BU) (AG) (BG) (BU) (AG)
                 (AU) (AU) (AG) (BU) (BU) (BG) (AU) (AU) (AG) (BG)
                 (BU) (AG) (BG) (AU) (BG) (BU) (AG) (AU) (BG) (BU)
                 (AG) (BU) (AU) (AG) (BU) (AG) (BG) (AU) (BG) (BU)
                 (AG) (BG) (BU) (AU) (AU) (BG) (AG) (AU) (BU) (BG)
                 (AU) (AU) (AG) (BU) (BG) (BU) (AG) (AG) (AG) (BG)
                 (BU) (BU) (BG) (AG) (AU) (BU) (BU) (AU) (BG) (AG)
                 (BG) (AU) (AG) (BG) (BU) (AU) (AG) (BU) (AG) (AU)
                 (BU) (BG) (AG) (BU) (AG) (BU) (AU) (AG) (BU) (BG)
                 (BG) (AG) (BU) (AU) (AG) (BU) (AU) (BG) (BU) (AG)
                 (AG) (AU) (BG) (BG) (AU) (BU) (BU) (AG) (BG) (AU)
                 (AG) (AU) (BG) (AU) (BG) (BU) (AG) (BU) (BU) (BG)
                 (AG) (AU) (AU) (AG) (BG) (BU) (AU) (BG) (AG) (BU)
                 (BU) (AG) (AU) (AG) (BG) (BU) (AU) (BG) (AU) (BU)
                 (BG) (AG) (AU) (AU) (AU) (BU) (AG) (BG) (BU) (BG)
                 (BG) (AU) (BG) (AG) (AU) (BU) (BG) (AG) (AU) (BG)
                 (AG) (BU) (AU) (BG) (AG) (AU) (AG) (BG) (AU) (BU)
                 (BU) (BG) (BU) (AG) (AU) (BU) (AG) (BG) (AG) (BU)
                 (AG) (AU) (BG) (BU) (AU) (AG) (BU) (AU) (BG) (BG)
                 (AG) (BU) (AG) (AU) (BU) (BG) (AU) (BG) (AU) (AG)
                 (BU) (AU) (BU) (AG) (BG) (BG) (AU) (BG) (AG) (BU)
                 (AU) (AG) (BU) (BG) (AU) (AG) (BG) (AU) (AG) (BU)
                 (BU) (BG) (AU) (AG) (BU) (AG) (AU) (BG) (BG) (BU)
                 (AG) (BG) (AU) (BU) (AU) (BG) (BU) (AG) (BU) (AG)
                 (AU) (BU) (AG) (BG) (AU) (BG) (AG) (BU) (AU) (AG)
                 (AG) (BU) (BG) (BG) (AU) (AU) (BG) (BU) (AG) (AU)
                 (BG) (BU) (AG) (BU) (AU) (BU) (AG) (BG) (BU) (AU)
                 (AG) (BG) (AU) (BU) (AG) (BG) (AG) (AU) (BU) (BG)
                 (AU) (BU) (AG) (AG) (BG) (BU) (AG) (BU) (AG) (AU)
                 (BU) (BG) (AG) (BU) (AG) (BU) (AG) (AU) (BG) (BU)
                 (AU) (AU) (BG) (BG) (AU) (AG) (AU) (BG) (BU) (BG)
                 (AU) (BG) (AU) (BU) (AG) (AG) (BU) (BG) (AG) (AU)
                 (AG) (BU) (BG) (BU) (AG) (AU) (BG) (BU) (AG) (AU)
                 (AU) (BG) (AU) (BG) (BU) (BG) (AG) (AU) (BG) (BU)
                 (AG) (AU) (BG) (BU) (AG) (BU) (AU) (BG) (AG) (AU)
                 (BU) (AG) (BG) (AU) (BU) (BG) (AG) (AU) (AG) (BU)
                 (BG) (BU) (AG) (AU) (BG) (BG) (AU) (BU) (AG) (BU)
                 (AU) (AG) (BU) (BG) (BG) (BU) (AG) (AU) (BG) (AU)
                 (AU) (AG) (BU) (BG) (AG) (BU) (AU) (AG) (BU) (BG)
                 (AU) (BG) (AG) (BU) (AU) (AG) (BU) (AG) (BU) (BG)
                 (AU) (BG) (AU) (BG) (AU) (AG) (BG) (AU) (AG) (BU)
                 (AG) (BU) (BG) (BU) (AG) (AU) (BU) (AG) (BG) (AU)
                 (AG) (BU) (BU) (BG) (AG) (BU) (AG) (AU) (BU) (AU)
                 (AG) (BG) (AU) (BU) (AG) (BG) (BU) (BG) (AU) (AG)
                 (BU) (BG) (BG) (AG) (AU) (BU) (BG) (AU) (AU) (AG)
                 (BG) (BU) (AU) (AG) (BU) (BG) (BU) (AG) (AG) (BU)
                 (AU) (AG) (BU) (BG) (AG) (BG) (AU) (BU) (AU) (BG)
                 (AG) (AU) (BU) (BG) (AU) (BG) (AU) (BG) (AG) (AU)
                 (AG) (BG) (BU) (AU) (BU) (AG) (AG) (BG) (BU) (AU)
                 (BG) (AU) (BU) (AG) (AU) (BG) (BU) (AU) (BG) (AG)
                 (BG) (BU) (AU) (BG) (AU) (AG) (BU) (BG) (AG) (AU)
                 (BU) (BG) (AG) (BU) (AG) (BU) (AU) (BG) (BU) (AG)
                 (BU) (BG) (AU) (AG) (AG) (BU) (BU) (AG) (AU) (BU)
                 (BG) (AG) (AU) (BG) (AU) (AG) (BU) (AG) (BG) (BU)
                 (AG) (AU) (BG) (BU) (AU) (BG) (AG) (BU) (AG) (AU)
                 (BG) (BU) (AU) (AG) (BG) (AU) (AG) (BG) (AU) (BU)
                 (BG) (AU) (BG) (AU) (BG) (BU) (BG) (AU) (AU) (AG)
                 (BU) (BU) (BG) (AG) (AU) (AG) (BU) (BG) (AG) (BU)
                 (AG) (AU) (BU) (BG) (AU) (BU) (BG) (AU) (AG) (AG)
                 (BU) (BG) (AU) (BG) (AU) (BG) (AG) (BU) (AU) (AG)
                 (BU) (AG) (BG) (BG) (AU) (BU) (AU) (AG) (BU) (BG)
                 (BG) (AU) (AU) (BG) (AG) (BU) (BU) (AU) (AG) (BG)
                 (AG) (AU) (BG) (BU) (AG) (BU) (BU) (AG) (BG) (AG)
                 (BU) (AU) (AG) (AU) (BU) (BG) (BG) (BU) (AU) (AG)
                 (BU) (AG) (BU) (AG) (BG) (BG) (AU) (BU) (BG) (AU)
                 (AG) (AG) (BU) (AU) (BU) (AG) (BU) (BG) (AU) (AG)
                 (AG) (BU) (BG) (AU) (AG) (BU) (AG) (BU) (AU) (BG)
                 (BG) (AU) (AG) (BU) (AU) (BG) (AU) (BG) (AU) (BG)
                 (AU) (BG) (AG) (AU) (BU) (BG) (AU) (BU) (AG) (BG)
                 (BG) (AU) (AG) (BU) (AU) (AG) (BG) (BU) (AG) (BU)
                 (AG) (BU) (AG) (AU) (BG) (BU) (AG) (AU) (BU) (BG)
                 (BU) (BG) (AG) (AU) (AU) (BG) (AG) (AU) (BG) (BU)
                 (AG) (BU) (BU) (AG) (AU) (BU) (BG) (AG) (AU) (BG)
                 (AG) (BU) (AU) (BG) (AG) (AU) (BG) (BU) (AU) (AG)
                 (BU) (BG) (BU) (AG) (AU) (BG) (AG) (BU) (BG) (BU)
                 (AG) (AU) (AU) (AG) (BG) (BU) (BG) (AU) (AU) (BG)
                 (AG) (AU) (BU) (BU) (BG) (BG) (AG) (AU) (AG) (AG)
                 (BU) (AG) (BU) (BU) (AG) (AU) (BG) (BU) (AU) (BU)
                 (AG) (BG) (AU) (AG) (BU) (BG) (AU) (BG) (AU) (BG)
                 (BU) (AG) (AG) (AU) (BG) (BU) (AG) (AU) (BG) (AU)
                 (BG) (BU) (AG) (BU) (AU) (BG) (BG) (AU) (AG) (BU)
                 (AG) (BU) (BU) (AU) (BG) (AG) (BU) (AG) (AG) (AU)
                 (BG) (BU) (AG) (BU) (AU) (AG) (BG) (BG) (AU) (AU)
                 (BU) (BG) (AU) (AG) (BU) (BG) (AU) (BG) (AU) (BG)
                 (AU) (BG) (AU) (AG) (BU) (BG) (AU) (AG) (BU) (BG)
                 (AG) (BU) (AG) (AU) (BU) (BG) (AG) (BU) (AU) (BG)
                 (AG) (AG) (AU) (BU) (BG) (BU) (AU) (BG) (AG) (BU)
                 (AG) (AU) (BG) (BU) (AU) (BG) (AG) (AU) (BU) (BG)
                 (AG) (BU) (AG) (BU) (AG) (AU) (BU) (BG) (AG) (AU)
                 (BG) (BU) (AU) (AG) (BG) (BU) (AU) (BG) (AU) (AG)
                 (BU) (BG) (AG) (BU) (AU) (AG) (AG) (BU) (BU) (AU)
                 (BG) (BG) (BU) (AG) (AG) (AU) (BG) (BU) (AG) (BU)
                 (AU) (BG) (AG) (AU) (BG) (BU) (BG) (BU) (AU) (AG)
                 (BG) (AU) (AU) (BG) (AG) (BU) (AU) (BG) (AG) (BU)
                 (AU) (AG) (BG) (BU) (AG) (BU) (AU) (BG) (AG) (BU)
                 (AU) (BG) (AG) (AU) (BG) (BU) (AG) (BU) (AU) (AG)
                 (BG) (AU) (BU) (BG) (AG) (BU) (AU) (BG) (AG) (BU)
                 (BG) (AG) (AU) (BU) (BU) (AG) (AU) (BG) (AU) (AG)
                 (BU) (BG) (AG) (BU) (AU) (BG) (AG) (AU) (BG) (BU)
                 (BU) (AG) (AU) (BG) (AU) (AG) (BG) (BU) (AG) (AG)
                 (BU) (BU) (AG) (AU) (BG) (BU) (BG) (AU) (AU) (AG)
                 (AG) (BG) (BU) (BU) (AU) (BG) (AG) (AU) (BG) (BU)
                 (AU) (BG) (BU) (AG) (AU) (BG) (BU) (AG) (BG) (AU)
                 (AG) (BU) (BU) (AG) (AG) (AU) (BG) (BU) (AG) (AU)
                 (BU) (BG) (AG) (BU) (AU) (BG) (AU) (BG) (AG) (BU)
                 (AG) (AU) (BU) (BG) (AG) (BU) (BG) (AU) (AG) (AU)
                 (BG) (BU) (AG) (BU) (AU) (BG) (AU) (BG) (AU) (BG)
                 (BU) (AG) (AU) (BU) (BG) (AG) (BU) (AU) (AG) (BG)
                 (AG) (BU) (AG) (AU) (BG) (BU) (BG) (AU) (AG) (BU)
                 (AU) (BG) (BU) (AG) (AG) (BU) (AU) (AG) (BG) (BU)
                 (BU) (AU) (AG) (BG) (BG) (AU) (AG) (BU) (AG) (AU)
                 (BG) (BU) (AG) (BU) (AG) (AU) (AU) (BG) (BU) (BG)
                 (AU) (AG) (BU) (AU) (BG) (BG) (BG) (AU) (AG) (BU)
                 (AU) (AG) (BU) (BG) (AG) (BU) (AG) (AU) (BU) (BG)
                 (AG) (BU) (AG) (BU) (AU) (AG) (AU) (BG) (BU) (AU)
                 (BG) (BG) (AU) (BG) (AG) (AU) (BU) (BG) (AG) (AU)
                 (BU) (AG) (BG) (AU) (BG) (BU) (AG) (AU) (BG) (BU)
                 (AG) (AU) (BU) (AU) (AG) (BG) (BG) (BU) (AG) (BU)
                 (AU) (BU) (BG) (AG) (AG) (BU) (AU) (BG) (AG) (AU)
                 (BU) (BG) (AG) (AU) (BG) (BU) (AU) (BG) (AG) (BU)
                 (AG) (BU) (AU) (AG) (BU) (BG) (AU) (BG) (AU) (AG)
                 (BU) (BG) (AU) (AU) (BG) (AG) (AG) (BU) (BU) (BG)
                 (AG) (AU) (BU) (AG) (BG) (BU) (AG) (AU) (AU) (BG)
                 (BG) (AG) (BU) (BU) (AU) (BG) (AU) (AG) (AU) (BG)
                 (BG) (BU) (AG) (AG) (BU) (BG) (AU) (BU) (AG) (AU)
                 (AG) (BU) (AU) (BG) (BU) (BU) (AG) (BG) (BG) (AU)
                 (AU) (BU) (AG) (BG) (AU) (BG) (AU) (BG) (AG) (AU)
                 (BG) (BU) (AG) (BU) (BU) (AG) (BG) (AG) (AU) (BU)
                 (AU) (BG) (AG) (BU) (AU) (BG) (AG) (BU) (AG) (BU)
                 (AG) (BU) (AG) (AU) (BG) (AU) (BU) (AG) (BU) (BG)
                 (BU) (BG) (AU) (AG) (AU) (BG) (BU) (BU) (AG) (AG)
                 (AU) (BG) (BG) (AU) (AG) (BU) (AU) (BU) (BG) (AG)
                 (BG) (AU) (AG) (BU) (BG) (BU) (AG) (AU) (BG) (AU)
                 (AG) (AU) (BU) (BG) (AG) (BU) (AU) (BG) (AU) (AG)
                 (BU) (BG) (BG) (AU) (BU) (BG) (AU) (AG) (BU) (AG)
                 (BG) (AU) (AU) (BG) (AU) (BU) (AG) (BG) (BG) (AU)
                 (BU) (AU) (AG) (BG) (BU) (AG) (BG) (AU) (AG) (BU)
                 (AG) (BG) (AU) (BU) (AU) (AG) (BU) (BG) (BU) (AG)
                 (AU) (BG) (AG) (BU) (BG) (AU) (AG) (BU) (AU) (AG)
                 (BU) (BG) (AG) (BG) (BU) (AU) (AU) (BG) (BG) (AU)
                 (AU) (BG) (AG) (AU) (BU) (AG) (BG) (BU) (AG) (BU)
                 (AG) (BU) (AU) (AG) (BU) (BG) (AG) (BU) (AU) (BG)
                 (AU) (BG) (AU) (AG) (BU) (BG) (AG) (BU) (AU) (BG)
                 (AG) (BU) (BG) (AU) (AG) (BG) (AU) (BU) (AG) (BU)
                 (AU) (BG) (AU) (AG) (BU) (BG) (BG) (AU) (BG) (AU)
                 (AG) (BU) (AG) (BU) (AU) (BG) (BU) (AG) (AG) (BG)
                 (AU) (BU) (AG) (BU) (BG) (AU) (AU) (AG) (BU) (BG)
                 (AU) (BG) (AG) (BU) (AU) (AG) (BU) (BG) (AU) (BG)
                 (BU) (AG) (AU) (BG) (AG) (BG) (AU) (BU) (BU) (AG)
                 (AG) (BU) (AU) (BG) (AU) (AG) (BG) (BU) (AG) (AU)
                 (BG) (BU) (AG) (BU) (AG) (BU) (AU) (BG) (AU) (AG)
                 (BU) (BG) (AG) (AU) (BU) (BG) (AG) (BU) (AU) (BG)
                 (AG) (BU) (AU) (BG) (AG) (BU) (AG) (BG) (AU) (BU)
                 (AG) (BU) (AG) (BU) (AG) (BG) (AU) (BU) (AG) (AU)
                 (BG) (BU) (AU) (BG) (BG) (AU) (BU) (AU) (BG) (AG)
                 (BG) (AU) (AU) (AG) (BG) (BU) (AG) (BU) (AU) (AG)
                 (BU) (BG) (AU) (BG) (AU) (BG) (AG) (BU) (AG) (BG)
                 (AU) (BU) (AG) (BU) (BU) (AG) (AG) (BU) (AU) (BG)
                 (AG) (BU) (AG) (BU) (AU) (BG) (BU) (AU) (BG) (AG)
                 (AU) (BU) (AG) (BG) (AG) (BU) (BG) (AG) (AU) (BU)
                 (BG) (AU) (BU) (AG) (BU) (AU) (BG) (AG) (AU) (BG)
                 (BU) (AG) (BG) (AG) (BU) (AU) (BU) (AG) (AU) (BG)
                 (BU) (BG) (AU) (AG) (BG) (AU) (AG) (BU) (AU) (BG)
                 (BU) (AG) (AU) (BG) (AG) (BU) (BG) (BU) (AG) (AU)
                 (BU) (AG) (BG) (AU) (AG) (BG) (AU) (BU) (AU) (BG)
                 (BU) (AG) (AU) (BU) (AG) (BG) (AU) (BG) (BU) (BG)
                 (AG) (AU) (BU) (AG) (BG) (AU) (BG) (AG) (AU) (BU)
                 (AG) (BU) (AG) (BU)
 The electronic state is 1-AG.
 Alpha  occ. eigenvalues -- -345.97280-345.97280 -41.84152 -41.84152 -36.92448
 Alpha  occ. eigenvalues --  -36.92448 -36.91604 -36.91604 -36.91604 -36.91604
 Alpha  occ. eigenvalues --  -14.20543 -14.20543 -14.20542 -14.20542 -14.20539
 Alpha  occ. eigenvalues --  -14.20539 -14.20539 -14.20539 -14.19692 -14.19692
 Alpha  occ. eigenvalues --  -14.19692 -14.19692 -14.19689 -14.19689 -14.19689
 Alpha  occ. eigenvalues --  -14.19689 -10.16892 -10.16892 -10.16889 -10.16889
 Alpha  occ. eigenvalues --  -10.16887 -10.16887 -10.16886 -10.16886 -10.16884
 Alpha  occ. eigenvalues --  -10.16884 -10.16882 -10.16882 -10.16879 -10.16879
 Alpha  occ. eigenvalues --  -10.16876 -10.16876 -10.09979 -10.09979 -10.09979
 Alpha  occ. eigenvalues --  -10.09979 -10.09972 -10.09972 -10.09972 -10.09972
 Alpha  occ. eigenvalues --  -10.09948 -10.09948 -10.09947 -10.09947 -10.09941
 Alpha  occ. eigenvalues --  -10.09941 -10.09940 -10.09940 -10.09792 -10.09792
 Alpha  occ. eigenvalues --  -10.09792 -10.09792 -10.09778 -10.09778 -10.09778
 Alpha  occ. eigenvalues --  -10.09778 -10.09775 -10.09775 -10.09774 -10.09774
 Alpha  occ. eigenvalues --  -10.09771 -10.09771 -10.09770 -10.09770 -10.09624
 Alpha  occ. eigenvalues --  -10.09624 -10.09624 -10.09624 -10.09613 -10.09613
 Alpha  occ. eigenvalues --  -10.09613 -10.09613 -10.09582 -10.09582 -10.09582
 Alpha  occ. eigenvalues --  -10.09581 -10.09577 -10.09577 -10.09577 -10.09577
 Alpha  occ. eigenvalues --   -4.79023  -4.79023  -3.23650  -3.23650  -3.22222
 Alpha  occ. eigenvalues --   -3.22222  -3.22222  -3.22222  -1.13277  -1.13277
 Alpha  occ. eigenvalues --   -1.11817  -1.11817  -1.11816  -1.11816  -1.09010
 Alpha  occ. eigenvalues --   -1.09010  -1.06809  -1.06809  -1.02664  -1.02664
 Alpha  occ. eigenvalues --   -1.02663  -1.02663  -0.99555  -0.99555  -0.98250
 Alpha  occ. eigenvalues --   -0.98249  -0.98248  -0.98248  -0.98203  -0.98202
 Alpha  occ. eigenvalues --   -0.98171  -0.98170  -0.90161  -0.90160  -0.88822
 Alpha  occ. eigenvalues --   -0.88819  -0.88605  -0.88604  -0.88604  -0.88600
 Alpha  occ. eigenvalues --   -0.88217  -0.88216  -0.88216  -0.88210  -0.88037
 Alpha  occ. eigenvalues --   -0.88034  -0.87897  -0.87894  -0.84397  -0.84394
 Alpha  occ. eigenvalues --   -0.81752  -0.81751  -0.81750  -0.81748  -0.76302
 Alpha  occ. eigenvalues --   -0.76300  -0.76098  -0.76094  -0.75272  -0.75271
 Alpha  occ. eigenvalues --   -0.75269  -0.75266  -0.74653  -0.74648  -0.74323
 Alpha  occ. eigenvalues --   -0.74321  -0.71812  -0.71812  -0.71806  -0.71804
 Alpha  occ. eigenvalues --   -0.71758  -0.71757  -0.70653  -0.70644  -0.68126
 Alpha  occ. eigenvalues --   -0.68118  -0.67178  -0.67176  -0.67172  -0.67168
 Alpha  occ. eigenvalues --   -0.65697  -0.65688  -0.65511  -0.65509  -0.65508
 Alpha  occ. eigenvalues --   -0.65503  -0.61929  -0.61928  -0.61844  -0.61832
 Alpha  occ. eigenvalues --   -0.61688  -0.61680  -0.61286  -0.61277  -0.59899
 Alpha  occ. eigenvalues --   -0.59898  -0.59858  -0.59858  -0.59858  -0.59858
 Alpha  occ. eigenvalues --   -0.59747  -0.59742  -0.59738  -0.59727  -0.58429
 Alpha  occ. eigenvalues --   -0.58429  -0.58419  -0.58419  -0.57682  -0.57680
 Alpha  occ. eigenvalues --   -0.57523  -0.57513  -0.57008  -0.57005  -0.56876
 Alpha  occ. eigenvalues --   -0.56875  -0.56755  -0.56754  -0.56754  -0.56754
 Alpha  occ. eigenvalues --   -0.55988  -0.55972  -0.55443  -0.55440  -0.55432
 Alpha  occ. eigenvalues --   -0.55426  -0.55361  -0.55349  -0.54879  -0.54877
 Alpha  occ. eigenvalues --   -0.54332  -0.54318  -0.54105  -0.54098  -0.54095
 Alpha  occ. eigenvalues --   -0.54079  -0.52849  -0.52831  -0.51847  -0.51842
 Alpha  occ. eigenvalues --   -0.51028  -0.51028  -0.48977  -0.48962  -0.48954
 Alpha  occ. eigenvalues --   -0.48951  -0.48951  -0.48950  -0.47956  -0.47930
 Alpha  occ. eigenvalues --   -0.47701  -0.47697  -0.47679  -0.47675  -0.46982
 Alpha  occ. eigenvalues --   -0.46968  -0.46899  -0.46885  -0.46877  -0.46877
 Alpha  occ. eigenvalues --   -0.46872  -0.46859  -0.46198  -0.46184  -0.45027
 Alpha  occ. eigenvalues --   -0.45026  -0.45022  -0.45016  -0.44868  -0.44858
 Alpha  occ. eigenvalues --   -0.43295  -0.43293  -0.43292  -0.43286  -0.42162
 Alpha  occ. eigenvalues --   -0.42161  -0.39217  -0.39217  -0.39213  -0.39212
 Alpha  occ. eigenvalues --   -0.38326  -0.38311  -0.37394  -0.37394  -0.36412
 Alpha  occ. eigenvalues --   -0.36399  -0.36082  -0.36058  -0.35852  -0.35841
 Alpha  occ. eigenvalues --   -0.35832  -0.35819  -0.35312  -0.35311  -0.35029
 Alpha  occ. eigenvalues --   -0.35023  -0.35012  -0.35002  -0.34839  -0.34821
 Alpha  occ. eigenvalues --   -0.34188  -0.34179  -0.24152  -0.24135
 Alpha virt. eigenvalues --   -0.06347  -0.06341  -0.06329  -0.06323   0.02199
 Alpha virt. eigenvalues --    0.02268   0.03257   0.03269   0.03304   0.03314
 Alpha virt. eigenvalues --    0.04256   0.04263   0.04319   0.04325   0.07712
 Alpha virt. eigenvalues --    0.07723   0.08058   0.08076   0.09133   0.09361
 Alpha virt. eigenvalues --    0.09439   0.09509   0.09611   0.09613   0.09796
 Alpha virt. eigenvalues --    0.10612   0.11137   0.11191   0.11231   0.11518
 Alpha virt. eigenvalues --    0.11724   0.11997   0.12143   0.12279   0.12322
 Alpha virt. eigenvalues --    0.12324   0.12339   0.12354   0.12832   0.13121
 Alpha virt. eigenvalues --    0.13137   0.13401   0.13403   0.13404   0.14219
 Alpha virt. eigenvalues --    0.14267   0.14409   0.15028   0.15151   0.15662
 Alpha virt. eigenvalues --    0.15852   0.16350   0.16383   0.16447   0.16569
 Alpha virt. eigenvalues --    0.16663   0.17226   0.17442   0.17581   0.17715
 Alpha virt. eigenvalues --    0.18545   0.18666   0.18692   0.19129   0.19154
 Alpha virt. eigenvalues --    0.19169   0.19273   0.19607   0.19635   0.19912
 Alpha virt. eigenvalues --    0.20050   0.20127   0.20227   0.20570   0.20575
 Alpha virt. eigenvalues --    0.20843   0.21050   0.21145   0.21471   0.21883
 Alpha virt. eigenvalues --    0.22123   0.22541   0.23466   0.23550   0.23616
 Alpha virt. eigenvalues --    0.23618   0.23821   0.23907   0.23928   0.23966
 Alpha virt. eigenvalues --    0.24018   0.24461   0.24604   0.24658   0.24951
 Alpha virt. eigenvalues --    0.25119   0.25216   0.25259   0.25584   0.25598
 Alpha virt. eigenvalues --    0.26207   0.26482   0.26673   0.26705   0.26814
 Alpha virt. eigenvalues --    0.26910   0.26929   0.26948   0.27051   0.27065
 Alpha virt. eigenvalues --    0.27202   0.27389   0.27390   0.27640   0.27661
 Alpha virt. eigenvalues --    0.27722   0.27905   0.27914   0.27921   0.28007
 Alpha virt. eigenvalues --    0.28108   0.28332   0.28381   0.28479   0.28719
 Alpha virt. eigenvalues --    0.28799   0.28985   0.29010   0.29111   0.29265
 Alpha virt. eigenvalues --    0.29313   0.29478   0.29521   0.29691   0.29724
 Alpha virt. eigenvalues --    0.29800   0.29881   0.30059   0.30095   0.30146
 Alpha virt. eigenvalues --    0.30159   0.30215   0.30283   0.30414   0.30421
 Alpha virt. eigenvalues --    0.30719   0.30816   0.30819   0.30881   0.30916
 Alpha virt. eigenvalues --    0.31116   0.31147   0.31453   0.31511   0.31915
 Alpha virt. eigenvalues --    0.32145   0.32152   0.32289   0.32369   0.32691
 Alpha virt. eigenvalues --    0.32847   0.32861   0.33021   0.33079   0.33138
 Alpha virt. eigenvalues --    0.33228   0.33302   0.33337   0.33492   0.33876
 Alpha virt. eigenvalues --    0.34536   0.34632   0.34693   0.34699   0.34705
 Alpha virt. eigenvalues --    0.34922   0.35064   0.35088   0.35272   0.35381
 Alpha virt. eigenvalues --    0.35405   0.35559   0.35779   0.36045   0.36312
 Alpha virt. eigenvalues --    0.36491   0.36570   0.36632   0.36683   0.36820
 Alpha virt. eigenvalues --    0.37538   0.37699   0.37758   0.37822   0.37891
 Alpha virt. eigenvalues --    0.37979   0.37995   0.38062   0.38173   0.38373
 Alpha virt. eigenvalues --    0.39085   0.39105   0.39131   0.39287   0.39575
 Alpha virt. eigenvalues --    0.39586   0.39632   0.39658   0.40027   0.40326
 Alpha virt. eigenvalues --    0.40327   0.40381   0.40535   0.40557   0.40771
 Alpha virt. eigenvalues --    0.40804   0.40815   0.40944   0.41021   0.41101
 Alpha virt. eigenvalues --    0.41505   0.41603   0.41690   0.41732   0.41849
 Alpha virt. eigenvalues --    0.42077   0.42217   0.42256   0.42389   0.42448
 Alpha virt. eigenvalues --    0.42458   0.42522   0.42706   0.42798   0.42824
 Alpha virt. eigenvalues --    0.42849   0.42916   0.42977   0.43355   0.43583
 Alpha virt. eigenvalues --    0.43825   0.43974   0.44032   0.44220   0.44294
 Alpha virt. eigenvalues --    0.44430   0.44780   0.44961   0.44999   0.45029
 Alpha virt. eigenvalues --    0.45118   0.45496   0.45537   0.45781   0.45825
 Alpha virt. eigenvalues --    0.46084   0.46412   0.46611   0.46661   0.46705
 Alpha virt. eigenvalues --    0.46808   0.46872   0.46898   0.46909   0.47268
 Alpha virt. eigenvalues --    0.47357   0.47382   0.47637   0.47857   0.47859
 Alpha virt. eigenvalues --    0.47943   0.48094   0.48199   0.48432   0.48448
 Alpha virt. eigenvalues --    0.48648   0.48786   0.48944   0.49035   0.49077
 Alpha virt. eigenvalues --    0.49108   0.49287   0.49298   0.49358   0.49522
 Alpha virt. eigenvalues --    0.49727   0.49750   0.49758   0.49836   0.50001
 Alpha virt. eigenvalues --    0.50251   0.50450   0.50513   0.50531   0.50759
 Alpha virt. eigenvalues --    0.50966   0.50975   0.51318   0.51639   0.51684
 Alpha virt. eigenvalues --    0.51737   0.51868   0.51982   0.52141   0.52226
 Alpha virt. eigenvalues --    0.52513   0.52981   0.53045   0.53136   0.53357
 Alpha virt. eigenvalues --    0.53385   0.53642   0.53886   0.54084   0.54105
 Alpha virt. eigenvalues --    0.54426   0.54551   0.54708   0.54818   0.55120
 Alpha virt. eigenvalues --    0.55143   0.55315   0.55497   0.55621   0.55763
 Alpha virt. eigenvalues --    0.56127   0.56418   0.56460   0.56870   0.56996
 Alpha virt. eigenvalues --    0.57233   0.57396   0.57404   0.57428   0.57615
 Alpha virt. eigenvalues --    0.57647   0.57711   0.57884   0.58066   0.58142
 Alpha virt. eigenvalues --    0.58314   0.58432   0.58481   0.58541   0.58558
 Alpha virt. eigenvalues --    0.58758   0.58990   0.59015   0.59133   0.59311
 Alpha virt. eigenvalues --    0.59451   0.59619   0.59751   0.59979   0.60050
 Alpha virt. eigenvalues --    0.60051   0.60096   0.60441   0.60584   0.60718
 Alpha virt. eigenvalues --    0.60745   0.60846   0.61378   0.61922   0.61947
 Alpha virt. eigenvalues --    0.62078   0.62183   0.62341   0.64315   0.64349
 Alpha virt. eigenvalues --    0.64374   0.64485   0.64515   0.64735   0.64841
 Alpha virt. eigenvalues --    0.64957   0.65576   0.65583   0.65816   0.66113
 Alpha virt. eigenvalues --    0.66178   0.66185   0.66500   0.66543   0.66589
 Alpha virt. eigenvalues --    0.66630   0.66646   0.66681   0.66687   0.66752
 Alpha virt. eigenvalues --    0.66840   0.67036   0.67056   0.67154   0.67292
 Alpha virt. eigenvalues --    0.67322   0.67577   0.67642   0.68460   0.68554
 Alpha virt. eigenvalues --    0.68586   0.68602   0.68605   0.69137   0.69900
 Alpha virt. eigenvalues --    0.69944   0.70071   0.70072   0.70077   0.70126
 Alpha virt. eigenvalues --    0.70346   0.70592   0.70620   0.70894   0.71385
 Alpha virt. eigenvalues --    0.71421   0.71431   0.71473   0.71522   0.71563
 Alpha virt. eigenvalues --    0.72034   0.72298   0.72481   0.72645   0.73229
 Alpha virt. eigenvalues --    0.73324   0.73605   0.73624   0.73671   0.73858
 Alpha virt. eigenvalues --    0.74225   0.74441   0.74445   0.74828   0.74843
 Alpha virt. eigenvalues --    0.75187   0.75678   0.75731   0.76844   0.76909
 Alpha virt. eigenvalues --    0.76998   0.77028   0.77035   0.77036   0.77067
 Alpha virt. eigenvalues --    0.77274   0.77361   0.77459   0.77941   0.78018
 Alpha virt. eigenvalues --    0.78082   0.78205   0.78299   0.78405   0.78471
 Alpha virt. eigenvalues --    0.78475   0.78605   0.78647   0.78667   0.78713
 Alpha virt. eigenvalues --    0.78912   0.78977   0.79439   0.79528   0.79714
 Alpha virt. eigenvalues --    0.79746   0.79786   0.79798   0.80023   0.80133
 Alpha virt. eigenvalues --    0.80176   0.80186   0.80206   0.80618   0.80834
 Alpha virt. eigenvalues --    0.81367   0.81488   0.81503   0.81533   0.81538
 Alpha virt. eigenvalues --    0.81550   0.81624   0.81686   0.81922   0.81953
 Alpha virt. eigenvalues --    0.82019   0.82301   0.82323   0.82380   0.82388
 Alpha virt. eigenvalues --    0.82437   0.82451   0.82482   0.82683   0.82722
 Alpha virt. eigenvalues --    0.82892   0.82957   0.83128   0.83236   0.83272
 Alpha virt. eigenvalues --    0.83366   0.83385   0.83450   0.84071   0.84285
 Alpha virt. eigenvalues --    0.84332   0.84349   0.84352   0.85049   0.85201
 Alpha virt. eigenvalues --    0.85305   0.85324   0.86404   0.86565   0.86652
 Alpha virt. eigenvalues --    0.86701   0.86827   0.86899   0.86945   0.87040
 Alpha virt. eigenvalues --    0.87160   0.87345   0.87406   0.87468   0.87846
 Alpha virt. eigenvalues --    0.87974   0.88385   0.88472   0.89036   0.89089
 Alpha virt. eigenvalues --    0.89154   0.89329   0.89391   0.89560   0.89694
 Alpha virt. eigenvalues --    0.89742   0.90502   0.90539   0.90543   0.90590
 Alpha virt. eigenvalues --    0.90990   0.91271   0.91320   0.91399   0.91494
 Alpha virt. eigenvalues --    0.91620   0.91621   0.91679   0.91764   0.91832
 Alpha virt. eigenvalues --    0.92122   0.92381   0.92415   0.92456   0.92475
 Alpha virt. eigenvalues --    0.93197   0.93562   0.93703   0.95694   0.95804
 Alpha virt. eigenvalues --    0.95815   0.95820   0.95842   0.96239   0.96914
 Alpha virt. eigenvalues --    0.96950   0.97087   0.97177   0.97178   0.97282
 Alpha virt. eigenvalues --    0.97358   0.97358   0.97558   0.97573   0.97625
 Alpha virt. eigenvalues --    0.97843   0.99050   0.99435   0.99438   1.00040
 Alpha virt. eigenvalues --    1.00053   1.00090   1.00162   1.00516   1.01138
 Alpha virt. eigenvalues --    1.01246   1.02067   1.02098   1.02128   1.02407
 Alpha virt. eigenvalues --    1.02725   1.02775   1.02781   1.02849   1.03131
 Alpha virt. eigenvalues --    1.03245   1.03246   1.03348   1.03368   1.03457
 Alpha virt. eigenvalues --    1.03605   1.03779   1.04119   1.04198   1.04779
 Alpha virt. eigenvalues --    1.05046   1.05280   1.05305   1.05841   1.06188
 Alpha virt. eigenvalues --    1.06380   1.06462   1.06501   1.06552   1.07119
 Alpha virt. eigenvalues --    1.07231   1.07257   1.07308   1.08753   1.08763
 Alpha virt. eigenvalues --    1.10424   1.10469   1.10656   1.10810   1.10922
 Alpha virt. eigenvalues --    1.11137   1.12373   1.12918   1.12940   1.13120
 Alpha virt. eigenvalues --    1.13331   1.13500   1.13518   1.13541   1.13655
 Alpha virt. eigenvalues --    1.13669   1.14056   1.14236   1.14352   1.14599
 Alpha virt. eigenvalues --    1.15310   1.16073   1.16097   1.16196   1.16445
 Alpha virt. eigenvalues --    1.16647   1.16707   1.16711   1.16801   1.16815
 Alpha virt. eigenvalues --    1.16940   1.17209   1.17494   1.17576   1.18774
 Alpha virt. eigenvalues --    1.18956   1.19112   1.19142   1.19399   1.20105
 Alpha virt. eigenvalues --    1.20185   1.20301   1.20416   1.20591   1.21023
 Alpha virt. eigenvalues --    1.21205   1.21225   1.21470   1.21569   1.21760
 Alpha virt. eigenvalues --    1.21793   1.21822   1.21840   1.22085   1.22262
 Alpha virt. eigenvalues --    1.22431   1.22515   1.22730   1.23353   1.23384
 Alpha virt. eigenvalues --    1.23535   1.23544   1.23957   1.24025   1.24058
 Alpha virt. eigenvalues --    1.24104   1.24309   1.24358   1.26195   1.26211
 Alpha virt. eigenvalues --    1.26240   1.26287   1.27505   1.27531   1.27631
 Alpha virt. eigenvalues --    1.27654   1.27769   1.27805   1.28231   1.28518
 Alpha virt. eigenvalues --    1.29081   1.29100   1.29250   1.29266   1.29318
 Alpha virt. eigenvalues --    1.29357   1.29373   1.29632   1.30567   1.30613
 Alpha virt. eigenvalues --    1.31109   1.31131   1.31314   1.31482   1.31916
 Alpha virt. eigenvalues --    1.32496   1.33201   1.33351   1.33460   1.33699
 Alpha virt. eigenvalues --    1.33768   1.33773   1.33812   1.33843   1.33899
 Alpha virt. eigenvalues --    1.34074   1.34140   1.34167   1.34188   1.34193
 Alpha virt. eigenvalues --    1.34372   1.35314   1.35341   1.35480   1.35677
 Alpha virt. eigenvalues --    1.35700   1.35881   1.35926   1.35938   1.36543
 Alpha virt. eigenvalues --    1.36855   1.37087   1.37645   1.37810   1.37822
 Alpha virt. eigenvalues --    1.37825   1.37856   1.38556   1.38688   1.38777
 Alpha virt. eigenvalues --    1.38834   1.38902   1.39397   1.39639   1.40357
 Alpha virt. eigenvalues --    1.40518   1.40554   1.40885   1.41395   1.41575
 Alpha virt. eigenvalues --    1.41635   1.41742   1.41820   1.42000   1.42698
 Alpha virt. eigenvalues --    1.42931   1.43769   1.43950   1.43962   1.44087
 Alpha virt. eigenvalues --    1.44186   1.44206   1.44457   1.44483   1.44751
 Alpha virt. eigenvalues --    1.44797   1.44905   1.44991   1.45111   1.45123
 Alpha virt. eigenvalues --    1.45301   1.45454   1.45502   1.45673   1.45706
 Alpha virt. eigenvalues --    1.45845   1.47064   1.47148   1.47190   1.47501
 Alpha virt. eigenvalues --    1.47543   1.47699   1.47801   1.47923   1.47959
 Alpha virt. eigenvalues --    1.48039   1.48051   1.48171   1.48244   1.48268
 Alpha virt. eigenvalues --    1.48414   1.48678   1.48922   1.49086   1.49116
 Alpha virt. eigenvalues --    1.49492   1.51012   1.51205   1.51779   1.51886
 Alpha virt. eigenvalues --    1.51891   1.51953   1.51973   1.52024   1.52122
 Alpha virt. eigenvalues --    1.52295   1.52489   1.52537   1.53552   1.53562
 Alpha virt. eigenvalues --    1.53735   1.54105   1.54197   1.54427   1.55161
 Alpha virt. eigenvalues --    1.55161   1.55280   1.55297   1.55334   1.55449
 Alpha virt. eigenvalues --    1.55467   1.55520   1.55607   1.55639   1.55830
 Alpha virt. eigenvalues --    1.56058   1.56308   1.56580   1.57337   1.57389
 Alpha virt. eigenvalues --    1.57494   1.57498   1.57566   1.57784   1.57785
 Alpha virt. eigenvalues --    1.57859   1.58032   1.58350   1.58449   1.58470
 Alpha virt. eigenvalues --    1.59066   1.59069   1.59751   1.60247   1.60299
 Alpha virt. eigenvalues --    1.60336   1.60365   1.60418   1.60470   1.60797
 Alpha virt. eigenvalues --    1.62979   1.63012   1.63183   1.63302   1.64501
 Alpha virt. eigenvalues --    1.64794   1.64881   1.64944   1.65383   1.65407
 Alpha virt. eigenvalues --    1.65506   1.65507   1.65535   1.65547   1.65554
 Alpha virt. eigenvalues --    1.65716   1.67104   1.67112   1.67198   1.67201
 Alpha virt. eigenvalues --    1.67297   1.67786   1.68770   1.68814   1.69056
 Alpha virt. eigenvalues --    1.69276   1.69277   1.69408   1.69688   1.69729
 Alpha virt. eigenvalues --    1.69784   1.70191   1.70257   1.70442   1.70511
 Alpha virt. eigenvalues --    1.70959   1.71570   1.71601   1.71658   1.71697
 Alpha virt. eigenvalues --    1.71735   1.71781   1.71905   1.71944   1.72100
 Alpha virt. eigenvalues --    1.72141   1.72268   1.72358   1.72366   1.72592
 Alpha virt. eigenvalues --    1.72688   1.72877   1.73155   1.73192   1.73624
 Alpha virt. eigenvalues --    1.73741   1.74067   1.74410   1.74479   1.74632
 Alpha virt. eigenvalues --    1.74834   1.74877   1.75144   1.75188   1.75347
 Alpha virt. eigenvalues --    1.75421   1.76106   1.76188   1.76267   1.76474
 Alpha virt. eigenvalues --    1.78424   1.78444   1.78535   1.78535   1.78554
 Alpha virt. eigenvalues --    1.78629   1.78681   1.78829   1.78984   1.79087
 Alpha virt. eigenvalues --    1.79114   1.79148   1.79303   1.79315   1.79390
 Alpha virt. eigenvalues --    1.79436   1.80255   1.80261   1.80397   1.80543
 Alpha virt. eigenvalues --    1.80994   1.80998   1.81003   1.81038   1.81312
 Alpha virt. eigenvalues --    1.81355   1.83510   1.83515   1.83579   1.83590
 Alpha virt. eigenvalues --    1.83668   1.83740   1.83811   1.83864   1.84029
 Alpha virt. eigenvalues --    1.84123   1.84123   1.84147   1.84272   1.84403
 Alpha virt. eigenvalues --    1.85970   1.86053   1.87789   1.87925   1.87942
 Alpha virt. eigenvalues --    1.87969   1.88032   1.88097   1.88098   1.88098
 Alpha virt. eigenvalues --    1.88129   1.88135   1.89137   1.89217   1.89274
 Alpha virt. eigenvalues --    1.89439   1.89948   1.90014   1.91205   1.91324
 Alpha virt. eigenvalues --    1.91339   1.91589   1.92728   1.92733   1.92763
 Alpha virt. eigenvalues --    1.92846   1.93950   1.94085   1.94252   1.94402
 Alpha virt. eigenvalues --    1.94477   1.94484   1.94743   1.94941   1.94952
 Alpha virt. eigenvalues --    1.95013   1.95066   1.95095   1.95926   1.96022
 Alpha virt. eigenvalues --    1.96044   1.96065   1.96102   1.96359   1.99118
 Alpha virt. eigenvalues --    1.99159   1.99175   1.99289   2.00020   2.00036
 Alpha virt. eigenvalues --    2.00063   2.00070   2.00812   2.00869   2.00967
 Alpha virt. eigenvalues --    2.01078   2.02037   2.02288   2.03898   2.04095
 Alpha virt. eigenvalues --    2.05010   2.05010   2.05475   2.05491   2.05570
 Alpha virt. eigenvalues --    2.05607   2.05985   2.06026   2.06069   2.06089
 Alpha virt. eigenvalues --    2.06208   2.06233   2.07322   2.07346   2.08623
 Alpha virt. eigenvalues --    2.08638   2.10089   2.10099   2.10709   2.10834
 Alpha virt. eigenvalues --    2.11870   2.12009   2.13263   2.13294   2.13326
 Alpha virt. eigenvalues --    2.13370   2.13998   2.14029   2.14536   2.14546
 Alpha virt. eigenvalues --    2.14606   2.14619   2.15945   2.16022   2.16553
 Alpha virt. eigenvalues --    2.16562   2.16616   2.16629   2.16663   2.16692
 Alpha virt. eigenvalues --    2.16709   2.16709   2.18164   2.18184   2.18210
 Alpha virt. eigenvalues --    2.18261   2.19163   2.19192   2.19671   2.19844
 Alpha virt. eigenvalues --    2.24455   2.24526   2.24918   2.24935   2.25009
 Alpha virt. eigenvalues --    2.25012   2.26205   2.26213   2.26365   2.26501
 Alpha virt. eigenvalues --    2.26624   2.26990   2.28650   2.28657   2.28691
 Alpha virt. eigenvalues --    2.28716   2.28838   2.29066   2.29524   2.29740
 Alpha virt. eigenvalues --    2.30702   2.30808   2.30844   2.30886   2.31034
 Alpha virt. eigenvalues --    2.31190   2.31794   2.32134   2.34375   2.34710
 Alpha virt. eigenvalues --    2.34772   2.34793   2.34928   2.34998   2.35133
 Alpha virt. eigenvalues --    2.35553   2.36099   2.36100   2.36407   2.36501
 Alpha virt. eigenvalues --    2.36650   2.36768   2.37810   2.37866   2.38292
 Alpha virt. eigenvalues --    2.38344   2.38367   2.38440   2.38475   2.38581
 Alpha virt. eigenvalues --    2.38731   2.38898   2.38953   2.39268   2.39302
 Alpha virt. eigenvalues --    2.39615   2.42199   2.42272   2.42726   2.42731
 Alpha virt. eigenvalues --    2.42737   2.42757   2.42898   2.42904   2.43020
 Alpha virt. eigenvalues --    2.43052   2.43077   2.43081   2.43165   2.43290
 Alpha virt. eigenvalues --    2.43293   2.43394   2.43879   2.43884   2.46363
 Alpha virt. eigenvalues --    2.46384   2.46505   2.46614   2.47467   2.47488
 Alpha virt. eigenvalues --    2.47665   2.47736   2.48204   2.48214   2.48218
 Alpha virt. eigenvalues --    2.48237   2.48375   2.48534   2.48535   2.48634
 Alpha virt. eigenvalues --    2.48634   2.48873   2.49399   2.49403   2.50415
 Alpha virt. eigenvalues --    2.50556   2.50584   2.50688   2.50707   2.50770
 Alpha virt. eigenvalues --    2.50843   2.50844   2.50857   2.50863   2.51173
 Alpha virt. eigenvalues --    2.51195   2.51443   2.51632   2.53346   2.53507
 Alpha virt. eigenvalues --    2.53944   2.54167   2.54532   2.54651   2.54651
 Alpha virt. eigenvalues --    2.54659   2.54690   2.55054   2.55159   2.55197
 Alpha virt. eigenvalues --    2.55207   2.55227   2.55397   2.55854   2.56871
 Alpha virt. eigenvalues --    2.56892   2.59245   2.59246   2.63292   2.63323
 Alpha virt. eigenvalues --    2.64442   2.64461   2.64480   2.64526   2.64832
 Alpha virt. eigenvalues --    2.64846   2.67392   2.67443   2.69808   2.69824
 Alpha virt. eigenvalues --    2.69873   2.69884   2.69936   2.69976   2.72573
 Alpha virt. eigenvalues --    2.72636   2.73968   2.74000   2.74006   2.74044
 Alpha virt. eigenvalues --    2.74315   2.74330   2.74957   2.74970   2.75301
 Alpha virt. eigenvalues --    2.75328   2.75358   2.75365   2.75561   2.75628
 Alpha virt. eigenvalues --    2.75700   2.75882   2.76499   2.76516   2.76532
 Alpha virt. eigenvalues --    2.76633   2.76656   2.76659   2.77475   2.77513
 Alpha virt. eigenvalues --    2.77594   2.77654   2.77667   2.77722   2.77796
 Alpha virt. eigenvalues --    2.78226   2.79488   2.79500   2.79522   2.79567
 Alpha virt. eigenvalues --    2.79626   2.79801   2.80841   2.80856   2.81807
 Alpha virt. eigenvalues --    2.81882   2.86057   2.86061   2.86079   2.86088
 Alpha virt. eigenvalues --    2.86327   2.86329   2.87457   2.87461   2.89242
 Alpha virt. eigenvalues --    2.89270   2.89332   2.89339   2.89345   2.89356
 Alpha virt. eigenvalues --    2.89384   2.89399   2.89427   2.89481   2.89739
 Alpha virt. eigenvalues --    2.89745   2.90044   2.90065   2.91294   2.91315
 Alpha virt. eigenvalues --    2.91417   2.91424   2.91424   2.91438   2.92032
 Alpha virt. eigenvalues --    2.92120   2.92576   2.92590   2.93125   2.93170
 Alpha virt. eigenvalues --    2.93225   2.93323   2.94590   2.94754   2.94766
 Alpha virt. eigenvalues --    2.94961   2.95284   2.95350   2.95377   2.95611
 Alpha virt. eigenvalues --    2.96513   2.96818   2.97235   2.97277   2.97329
 Alpha virt. eigenvalues --    2.97358   2.99392   2.99470   2.99520   2.99523
 Alpha virt. eigenvalues --    2.99589   3.00000   3.00678   3.00753   3.00799
 Alpha virt. eigenvalues --    3.01000   3.01004   3.01319   3.01855   3.01957
 Alpha virt. eigenvalues --    3.03117   3.03208   3.03715   3.03778   3.04273
 Alpha virt. eigenvalues --    3.04279   3.04351   3.04427   3.04543   3.04685
 Alpha virt. eigenvalues --    3.05340   3.05349   3.05384   3.05417   3.05799
 Alpha virt. eigenvalues --    3.05804   3.05804   3.05822   3.06246   3.06258
 Alpha virt. eigenvalues --    3.06279   3.06463   3.06558   3.06750   3.07323
 Alpha virt. eigenvalues --    3.07344   3.07458   3.07461   3.07544   3.07629
 Alpha virt. eigenvalues --    3.07634   3.07687   3.08059   3.08078   3.08177
 Alpha virt. eigenvalues --    3.08430   3.09297   3.09299   3.09597   3.10042
 Alpha virt. eigenvalues --    3.11370   3.11645   3.11724   3.12413   3.12504
 Alpha virt. eigenvalues --    3.12512   3.13415   3.13417   3.13418   3.13445
 Alpha virt. eigenvalues --    3.13564   3.13584   3.14735   3.14941   3.15624
 Alpha virt. eigenvalues --    3.15646   3.15796   3.15810   3.16371   3.16467
 Alpha virt. eigenvalues --    3.16469   3.16481   3.16487   3.16686   3.16790
 Alpha virt. eigenvalues --    3.16870   3.16893   3.17107   3.17882   3.18192
 Alpha virt. eigenvalues --    3.18332   3.18535   3.18536   3.18558   3.18619
 Alpha virt. eigenvalues --    3.18665   3.18753   3.18764   3.18938   3.19084
 Alpha virt. eigenvalues --    3.19211   3.19250   3.19391   3.19412   3.19422
 Alpha virt. eigenvalues --    3.19469   3.19674   3.19762   3.20479   3.20719
 Alpha virt. eigenvalues --    3.20772   3.20829   3.20916   3.20940   3.21172
 Alpha virt. eigenvalues --    3.21217   3.21972   3.22014   3.24127   3.24182
 Alpha virt. eigenvalues --    3.24186   3.24207   3.24222   3.24230   3.24610
 Alpha virt. eigenvalues --    3.24637   3.24838   3.25222   3.25362   3.25971
 Alpha virt. eigenvalues --    3.25991   3.26136   3.28347   3.28367   3.28431
 Alpha virt. eigenvalues --    3.28483   3.28661   3.28690   3.31528   3.31581
 Alpha virt. eigenvalues --    3.31632   3.31695   3.31809   3.31937   3.31970
 Alpha virt. eigenvalues --    3.32040   3.32122   3.32134   3.32373   3.32653
 Alpha virt. eigenvalues --    3.33971   3.34107   3.34151   3.34196   3.34555
 Alpha virt. eigenvalues --    3.34613   3.35528   3.35565   3.35603   3.35811
 Alpha virt. eigenvalues --    3.35887   3.36032   3.36046   3.36082   3.37390
 Alpha virt. eigenvalues --    3.37540   3.38939   3.38966   3.39031   3.39140
 Alpha virt. eigenvalues --    3.39161   3.39210   3.39374   3.39836   3.39840
 Alpha virt. eigenvalues --    3.39851   3.39871   3.39922   3.40043   3.40054
 Alpha virt. eigenvalues --    3.40128   3.40151   3.40364   3.40518   3.40644
 Alpha virt. eigenvalues --    3.40803   3.40819   3.40829   3.41339   3.41339
 Alpha virt. eigenvalues --    3.41848   3.41904   3.41906   3.42015   3.44239
 Alpha virt. eigenvalues --    3.44603   3.44807   3.44997   3.46181   3.46217
 Alpha virt. eigenvalues --    3.46293   3.46362   3.46944   3.47036   3.48741
 Alpha virt. eigenvalues --    3.48744   3.48758   3.48777   3.48823   3.48882
 Alpha virt. eigenvalues --    3.49736   3.49759   3.50063   3.50065   3.50065
 Alpha virt. eigenvalues --    3.50067   3.50402   3.50414   3.53483   3.53583
 Alpha virt. eigenvalues --    3.53734   3.53756   3.53998   3.54022   3.54094
 Alpha virt. eigenvalues --    3.54106   3.54108   3.54119   3.54155   3.54163
 Alpha virt. eigenvalues --    3.54579   3.54588   3.54629   3.54632   3.54889
 Alpha virt. eigenvalues --    3.55018   3.56167   3.56284   3.56290   3.56385
 Alpha virt. eigenvalues --    3.56483   3.56493   3.57731   3.57801   3.58478
 Alpha virt. eigenvalues --    3.58541   3.59855   3.59873   3.59922   3.59942
 Alpha virt. eigenvalues --    3.60249   3.60251   3.61931   3.61942   3.61981
 Alpha virt. eigenvalues --    3.62034   3.62082   3.62126   3.63102   3.63145
 Alpha virt. eigenvalues --    3.64280   3.64282   3.64319   3.64320   3.65058
 Alpha virt. eigenvalues --    3.65223   3.67686   3.67706   3.67953   3.67980
 Alpha virt. eigenvalues --    3.68022   3.68077   3.68409   3.68412   3.70433
 Alpha virt. eigenvalues --    3.70434   3.70438   3.70438   3.70542   3.70545
 Alpha virt. eigenvalues --    3.71340   3.71342   3.72158   3.72433   3.73315
 Alpha virt. eigenvalues --    3.73328   3.73351   3.73404   3.74176   3.74207
 Alpha virt. eigenvalues --    3.74336   3.74338   3.74429   3.74469   3.75969
 Alpha virt. eigenvalues --    3.76055   3.76928   3.76957   3.77592   3.77692
 Alpha virt. eigenvalues --    3.79735   3.79749   3.79826   3.79873   3.81442
 Alpha virt. eigenvalues --    3.81503   3.81556   3.81613   3.82861   3.82982
 Alpha virt. eigenvalues --    3.84424   3.84728   3.85836   3.85927   3.86005
 Alpha virt. eigenvalues --    3.86182   3.90255   3.90257   3.93043   3.93051
 Alpha virt. eigenvalues --    3.93055   3.93066   3.95989   3.96010   3.96028
 Alpha virt. eigenvalues --    3.96045   3.96335   3.96365   3.98817   3.98832
 Alpha virt. eigenvalues --    3.99999   4.00036   4.00043   4.00049   4.00060
 Alpha virt. eigenvalues --    4.00119   4.00177   4.00179   4.03434   4.03462
 Alpha virt. eigenvalues --    4.05279   4.05325   4.06269   4.06330   4.06484
 Alpha virt. eigenvalues --    4.06543   4.07152   4.07178   4.07183   4.07189
 Alpha virt. eigenvalues --    4.07981   4.08198   4.09841   4.09888   4.09904
 Alpha virt. eigenvalues --    4.09970   4.11091   4.11097   4.12855   4.12904
 Alpha virt. eigenvalues --    4.13623   4.13811   4.15485   4.15531   4.19598
 Alpha virt. eigenvalues --    4.19636   4.19642   4.19716   4.21913   4.21934
 Alpha virt. eigenvalues --    4.23973   4.24111   4.25098   4.25117   4.25137
 Alpha virt. eigenvalues --    4.25169   4.26786   4.26802   4.32246   4.32247
 Alpha virt. eigenvalues --    4.32248   4.32271   4.32391   4.32420   4.34472
 Alpha virt. eigenvalues --    4.34476   4.34727   4.34774   4.34939   4.34945
 Alpha virt. eigenvalues --    4.34972   4.34975   4.37040   4.37133   4.39903
 Alpha virt. eigenvalues --    4.39908   4.41490   4.41496   4.41513   4.41523
 Alpha virt. eigenvalues --    4.42227   4.42270   4.47881   4.47942   4.48470
 Alpha virt. eigenvalues --    4.48490   4.48547   4.48562   4.50408   4.50441
 Alpha virt. eigenvalues --    4.57907   4.57927   4.61622   4.61654   4.61861
 Alpha virt. eigenvalues --    4.61866   4.61867   4.61867   4.66025   4.66036
 Alpha virt. eigenvalues --    4.70393   4.70395   4.74046   4.74049   4.75237
 Alpha virt. eigenvalues --    4.75238   4.75240   4.75244   4.78350   4.78355
 Alpha virt. eigenvalues --    4.78356   4.78366   4.79925   4.79939   4.82646
 Alpha virt. eigenvalues --    4.82648   4.84825   4.84831   4.91196   4.91198
 Alpha virt. eigenvalues --    4.91198   4.91199   4.96394   4.96397   4.96402
 Alpha virt. eigenvalues --    4.96404   4.97425   4.97432   4.99273   4.99275
 Alpha virt. eigenvalues --    5.01183   5.01210   5.01534   5.01535   5.01774
 Alpha virt. eigenvalues --    5.01795   5.03061   5.03065   5.03065   5.03110
 Alpha virt. eigenvalues --    5.03383   5.03403   5.11933   5.11934   5.12727
 Alpha virt. eigenvalues --    5.12732   5.12734   5.12741   5.18291   5.18294
 Alpha virt. eigenvalues --    5.18294   5.18299   5.23539   5.23554   5.30251
 Alpha virt. eigenvalues --    5.30261   5.30615   5.30623   5.30637   5.30644
 Alpha virt. eigenvalues --    5.36649   5.36666   5.40011   5.40013   5.40016
 Alpha virt. eigenvalues --    5.40017   5.40590   5.40608   5.43278   5.43280
 Alpha virt. eigenvalues --    5.43283   5.43296   5.47405   5.47432   5.54964
 Alpha virt. eigenvalues --    5.54969   5.63830   5.63837   5.66061   5.66062
 Alpha virt. eigenvalues --    5.66076   5.66097   5.67446   5.67475   5.89395
 Alpha virt. eigenvalues --    5.89412   5.95267   5.95289   6.09688   6.09717
 Alpha virt. eigenvalues --    6.58645   6.58646   6.59357   6.59357   6.60371
 Alpha virt. eigenvalues --    6.60371   6.61721   6.61722   6.61722   6.61723
 Alpha virt. eigenvalues --    6.74963   6.74964   6.74967   6.74969  21.59543
 Alpha virt. eigenvalues --   21.59775  21.73037  21.73040  21.73080  21.73135
 Alpha virt. eigenvalues --   21.76429  21.76479  21.92598  21.92656  22.01753
 Alpha virt. eigenvalues --   22.01766  22.01778  22.01778  22.08287  22.08291
 Alpha virt. eigenvalues --   22.14904  22.14948  22.17176  22.17307  22.17346
 Alpha virt. eigenvalues --   22.17557  22.18321  22.18529  22.18724  22.18736
 Alpha virt. eigenvalues --   22.18740  22.18848  22.19072  22.19183  22.23865
 Alpha virt. eigenvalues --   22.23943  22.45092  22.45110  22.45127  22.45159
 Alpha virt. eigenvalues --   22.45539  22.45556  22.46051  22.46123  22.54540
 Alpha virt. eigenvalues --   22.54573  22.56028  22.56044  22.56046  22.56073
 Alpha virt. eigenvalues --   22.57980  22.57987  22.64412  22.64413  22.70669
 Alpha virt. eigenvalues --   22.70698  22.70711  22.70736  22.77242  22.77245
 Alpha virt. eigenvalues --   23.29465  23.29477  23.32836  23.32856  23.32884
 Alpha virt. eigenvalues --   23.32926  23.38917  23.38981  32.10525  32.10527
 Alpha virt. eigenvalues --   32.10530  32.10533  32.14221  32.14227  32.45772
 Alpha virt. eigenvalues --   32.45787  32.52752  32.52754  32.52763  32.52766
 Alpha virt. eigenvalues --   32.53891  32.53898  32.59938  32.59973
          Condensed to atoms (all electrons):
 Mulliken charges:
               1
     1  C   -0.088108
     2  C   -0.088148
     3  C   -0.201346
     4  C    0.091747
     5  C    0.091689
     6  C   -0.201278
     7  C    0.331175
     8  C    0.331264
     9  N   -0.269234
    10  N   -0.534397
    11  N   -0.534421
    12  H    0.122325
    13  H    0.122359
    14  H    0.139795
    15  H    0.139931
    16  C   -0.097455
    17  C   -0.086634
    18  C   -0.207344
    19  C    0.094676
    20  C    0.092438
    21  C   -0.201557
    22  C    0.330416
    23  C    0.330963
    24  N   -0.269139
    25  N   -0.533847
    26  H    0.129031
    27  H    0.121988
    28  H    0.143477
    29  H    0.139714
    30  C   -0.088148
    31  C   -0.088108
    32  C   -0.201278
    33  C    0.091689
    34  C    0.091747
    35  C   -0.201346
    36  C    0.331264
    37  C    0.331175
    38  N   -0.269234
    39  N   -0.534421
    40  H    0.122359
    41  H    0.122325
    42  H    0.139931
    43  H    0.139795
    44  C   -0.086634
    45  C   -0.097455
    46  C   -0.201557
    47  C    0.092438
    48  C    0.094676
    49  C   -0.207344
    50  C    0.330963
    51  C    0.330416
    52  N   -0.269139
    53  H    0.121988
    54  H    0.129031
    55  H    0.139714
    56  H    0.143477
    57  Zn   0.051592
    58  C   -0.086634
    59  C   -0.097455
    60  C   -0.201557
    61  C    0.092438
    62  C    0.094676
    63  C   -0.207344
    64  C    0.330963
    65  C    0.330416
    66  N   -0.269139
    67  N   -0.533847
    68  N   -0.534421
    69  H    0.121988
    70  H    0.129031
    71  H    0.139714
    72  H    0.143477
    73  C   -0.088148
    74  C   -0.088108
    75  C   -0.201278
    76  C    0.091689
    77  C    0.091747
    78  C   -0.201346
    79  C    0.331264
    80  C    0.331175
    81  N   -0.269234
    82  N   -0.534397
    83  H    0.122359
    84  H    0.122325
    85  H    0.139931
    86  H    0.139795
    87  C   -0.097455
    88  C   -0.086634
    89  C   -0.207344
    90  C    0.094676
    91  C    0.092438
    92  C   -0.201557
    93  C    0.330416
    94  C    0.330963
    95  N   -0.269139
    96  N   -0.534421
    97  H    0.129031
    98  H    0.121988
    99  H    0.143477
   100  H    0.139714
   101  C   -0.088108
   102  C   -0.088148
   103  C   -0.201346
   104  C    0.091747
   105  C    0.091689
   106  C   -0.201278
   107  C    0.331175
   108  C    0.331264
   109  N   -0.269234
   110  H    0.122325
   111  H    0.122359
   112  H    0.139795
   113  H    0.139931
   114  Zn   0.051592
 Sum of Mulliken charges =  -0.00000
 Mulliken charges with hydrogens summed into heavy atoms:
               1
     1  C    0.034217
     2  C    0.034211
     3  C   -0.061550
     4  C    0.091747
     5  C    0.091689
     6  C   -0.061347
     7  C    0.331175
     8  C    0.331264
     9  N   -0.269234
    10  N   -0.534397
    11  N   -0.534421
    16  C    0.031575
    17  C    0.035353
    18  C   -0.063867
    19  C    0.094676
    20  C    0.092438
    21  C   -0.061842
    22  C    0.330416
    23  C    0.330963
    24  N   -0.269139
    25  N   -0.533847
    30  C    0.034211
    31  C    0.034217
    32  C   -0.061347
    33  C    0.091689
    34  C    0.091747
    35  C   -0.061550
    36  C    0.331264
    37  C    0.331175
    38  N   -0.269234
    39  N   -0.534421
    44  C    0.035353
    45  C    0.031575
    46  C   -0.061842
    47  C    0.092438
    48  C    0.094676
    49  C   -0.063867
    50  C    0.330963
    51  C    0.330416
    52  N   -0.269139
    57  Zn   0.051592
    58  C    0.035353
    59  C    0.031575
    60  C   -0.061842
    61  C    0.092438
    62  C    0.094676
    63  C   -0.063867
    64  C    0.330963
    65  C    0.330416
    66  N   -0.269139
    67  N   -0.533847
    68  N   -0.534421
    73  C    0.034211
    74  C    0.034217
    75  C   -0.061347
    76  C    0.091689
    77  C    0.091747
    78  C   -0.061550
    79  C    0.331264
    80  C    0.331175
    81  N   -0.269234
    82  N   -0.534397
    87  C    0.031575
    88  C    0.035353
    89  C   -0.063867
    90  C    0.094676
    91  C    0.092438
    92  C   -0.061842
    93  C    0.330416
    94  C    0.330963
    95  N   -0.269139
    96  N   -0.534421
   101  C    0.034217
   102  C    0.034211
   103  C   -0.061550
   104  C    0.091747
   105  C    0.091689
   106  C   -0.061347
   107  C    0.331175
   108  C    0.331264
   109  N   -0.269234
   114  Zn   0.051592
 Electronic spatial extent (au):  <R**2>=         153373.2673
 Charge=              0.0000 electrons
 Dipole moment (field-independent basis, Debye):
    X=             -0.0000    Y=              0.0000    Z=              0.0000  Tot=              0.0000
 Quadrupole moment (field-independent basis, Debye-Ang):
   XX=           -497.4229   YY=           -418.8436   ZZ=           -420.6730
   XY=              0.5938   XZ=              0.0000   YZ=             -0.0000
 Traceless Quadrupole moment (field-independent basis, Debye-Ang):
   XX=            -51.7764   YY=             26.8029   ZZ=             24.9735
   XY=              0.5938   XZ=              0.0000   YZ=             -0.0000
 Octapole moment (field-independent basis, Debye-Ang**2):
  XXX=              0.0000  YYY=              0.0000  ZZZ=              0.0000  XYY=             -0.0000
  XXY=             -0.0000  XXZ=             -0.0000  XZZ=              0.0000  YZZ=             -0.0000
  YYZ=             -0.0000  XYZ=             -0.0000
 Hexadecapole moment (field-independent basis, Debye-Ang**3):
 XXXX=          -9703.3478 YYYY=        -151095.3612 ZZZZ=         -27824.1553 XXXY=         -18294.4482
 XXXZ=              0.0000 YYYX=         -15393.1074 YYYZ=             -0.0000 ZZZX=              0.0000
 ZZZY=              0.0000 XXYY=         -31468.4619 XXZZ=          -7075.1620 YYZZ=         -29073.2055
 XXYZ=              0.0000 YYXZ=              0.0000 ZZXY=          -5140.1909
 N-N= 1.338208520588D+04 E-N=-4.302908596114D+04  KE= 6.867865603052D+03
 Symmetry AG   KE= 2.410867563153D+03
 Symmetry BG   KE= 1.023065361583D+03
 Symmetry AU   KE= 1.023011422800D+03
 Symmetry BU   KE= 2.410921255517D+03

 Test job not archived.
 1\1\ WCSS.PL-BEM-KETKOV-PC1\SP\RLC-BLYP TD-FC\Gen\C64H32N16Zn2\SERGEY\
 12-Apr-2026\0\\# td(nstates=4) lc-blyp/gen iop(3/107=0350000000,3/108=
 0350000000) geom=check guess=read\\def2tzvp-f, monomer geom r2scan-3c\
 \0,1\C,0,-4.138371,5.130673,0.\C,0,-5.130673,4.138371,0.\C,0,-2.787666
 ,4.799485,0.\C,0,-2.454083,3.449643,0.\C,0,-3.449643,2.454083,0.\C,0,-
 4.799485,2.787666,0.\C,0,-1.173513,2.758029,0.\C,0,-2.758029,1.173513,
 0.\N,0,-1.406507,1.406507,0.\N,0,-3.380774,0.,0.\N,0,0.,3.380774,0.\H,
 0,-4.434605,6.175603,0.\H,0,-6.175603,4.434605,0.\H,0,-2.014157,5.5610
 43,0.\H,0,-5.561043,2.014157,0.\C,0,5.130673,4.138371,0.\C,0,4.138371,
 5.130673,0.\C,0,4.799485,2.787666,0.\C,0,3.449643,2.454083,0.\C,0,2.45
 4083,3.449643,0.\C,0,2.787666,4.799485,0.\C,0,2.758029,1.173513,0.\C,0
 ,1.173513,2.758029,0.\N,0,1.406507,1.406507,0.\N,0,3.380774,0.,0.\H,0,
 6.175603,4.434605,0.\H,0,4.434605,6.175603,0.\H,0,5.561043,2.014157,0.
 \H,0,2.014157,5.561043,0.\C,0,-5.130673,-4.138371,0.\C,0,-4.138371,-5.
 130673,0.\C,0,-4.799485,-2.787666,0.\C,0,-3.449643,-2.454083,0.\C,0,-2
 .454083,-3.449643,0.\C,0,-2.787666,-4.799485,0.\C,0,-2.758029,-1.17351
 3,0.\C,0,-1.173513,-2.758029,0.\N,0,-1.406507,-1.406507,0.\N,0,0.,-3.3
 80774,0.\H,0,-6.175603,-4.434605,0.\H,0,-4.434605,-6.175603,0.\H,0,-5.
 561043,-2.014157,0.\H,0,-2.014157,-5.561043,0.\C,0,4.138371,-5.130673,
 0.\C,0,5.130673,-4.138371,0.\C,0,2.787666,-4.799485,0.\C,0,2.454083,-3
 .449643,0.\C,0,3.449643,-2.454083,0.\C,0,4.799485,-2.787666,0.\C,0,1.1
 73513,-2.758029,0.\C,0,2.758029,-1.173513,0.\N,0,1.406507,-1.406507,0.
 \H,0,4.434605,-6.175603,0.\H,0,6.175603,-4.434605,0.\H,0,2.014157,-5.5
 61043,0.\H,0,5.561043,-2.014157,0.\Zn,0,0.,0.,0.\C,0,9.861629,5.130673
 ,3.5\C,0,8.869327,4.138371,3.5\C,0,11.212334,4.799485,3.5\C,0,11.54591
 7,3.449643,3.5\C,0,10.550357,2.454083,3.5\C,0,9.200515,2.787666,3.5\C,
 0,12.826487,2.758029,3.5\C,0,11.241971,1.173513,3.5\N,0,12.593493,1.40
 6507,3.5\N,0,10.619226,0.,3.5\N,0,14.,3.380774,3.5\H,0,9.565395,6.1756
 03,3.5\H,0,7.824397,4.434605,3.5\H,0,11.985843,5.561043,3.5\H,0,8.4389
 57,2.014157,3.5\C,0,19.130673,4.138371,3.5\C,0,18.138371,5.130673,3.5\
 C,0,18.799485,2.787666,3.5\C,0,17.449643,2.454083,3.5\C,0,16.454083,3.
 449643,3.5\C,0,16.787666,4.799485,3.5\C,0,16.758029,1.173513,3.5\C,0,1
 5.173513,2.758029,3.5\N,0,15.406507,1.406507,3.5\N,0,17.380774,0.,3.5\
 H,0,20.175603,4.434605,3.5\H,0,18.434605,6.175603,3.5\H,0,19.561043,2.
 014157,3.5\H,0,16.014157,5.561043,3.5\C,0,8.869327,-4.138371,3.5\C,0,9
 .861629,-5.130673,3.5\C,0,9.200515,-2.787666,3.5\C,0,10.550357,-2.4540
 83,3.5\C,0,11.545917,-3.449643,3.5\C,0,11.212334,-4.799485,3.5\C,0,11.
 241971,-1.173513,3.5\C,0,12.826487,-2.758029,3.5\N,0,12.593493,-1.4065
 07,3.5\N,0,14.,-3.380774,3.5\H,0,7.824397,-4.434605,3.5\H,0,9.565395,-
 6.175603,3.5\H,0,8.438957,-2.014157,3.5\H,0,11.985843,-5.561043,3.5\C,
 0,18.138371,-5.130673,3.5\C,0,19.130673,-4.138371,3.5\C,0,16.787666,-4
 .799485,3.5\C,0,16.454083,-3.449643,3.5\C,0,17.449643,-2.454083,3.5\C,
 0,18.799485,-2.787666,3.5\C,0,15.173513,-2.758029,3.5\C,0,16.758029,-1
 .173513,3.5\N,0,15.406507,-1.406507,3.5\H,0,18.434605,-6.175603,3.5\H,
 0,20.175603,-4.434605,3.5\H,0,16.014157,-5.561043,3.5\H,0,19.561043,-2
 .014157,3.5\Zn,0,14.,0.,3.5\\Version=ES64L-G09RevE.01\State=1-AG\HF=-6
 885.168343\RMSD=8.099e-09\PG=C02H [SGH(N4Zn2),X(C64H32N12)]\\@


 IF OTHER PEOPLE ARE GOING TO TALK, CONVERSATION IS SIMPLY IMPOSSIBLE.

                                               -- WHISTLER'S PRINCIPLE
 Job cpu time:       0 days  8 hours 58 minutes 37.0 seconds.
 File lengths (MBytes):  RWF=   6949 Int=      0 D2E=      0 Chk=    886 Scr=      1
 Normal termination of Gaussian 09 at Sun Apr 12 12:03:41 2026.
