 Entering Gaussian System, Link 0=g09
 Input=ZnPc2_35_70.gjf
 Output=ZnPc2_35_70.log
 Initial command:
 /opt/g09/l1.exe "/home/sergey/scratch/Gau-2525672.inp" -scrdir="/home/sergey/scratch/"
 Entering Link 1 = /opt/g09/l1.exe PID=   2525674.
  
 Copyright (c) 1988,1990,1992,1993,1995,1998,2003,2009,2015,
            Gaussian, Inc.  All Rights Reserved.
  
 This is part of the Gaussian(R) 09 program.  It is based on
 the Gaussian(R) 03 system (copyright 2003, Gaussian, Inc.),
 the Gaussian(R) 98 system (copyright 1998, Gaussian, Inc.),
 the Gaussian(R) 94 system (copyright 1995, Gaussian, Inc.),
 the Gaussian 92(TM) system (copyright 1992, Gaussian, Inc.),
 the Gaussian 90(TM) system (copyright 1990, Gaussian, Inc.),
 the Gaussian 88(TM) system (copyright 1988, Gaussian, Inc.),
 the Gaussian 86(TM) system (copyright 1986, Carnegie Mellon
 University), and the Gaussian 82(TM) system (copyright 1983,
 Carnegie Mellon University). Gaussian is a federally registered
 trademark of Gaussian, Inc.
  
 This software contains proprietary and confidential information,
 including trade secrets, belonging to Gaussian, Inc.
  
 This software is provided under written license and may be
 used, copied, transmitted, or stored only in accord with that
 written license.
  
 The following legend is applicable only to US Government
 contracts under FAR:
  
                    RESTRICTED RIGHTS LEGEND
  
 Use, reproduction and disclosure by the US Government is
 subject to restrictions as set forth in subparagraphs (a)
 and (c) of the Commercial Computer Software - Restricted
 Rights clause in FAR 52.227-19.
  
 Gaussian, Inc.
 340 Quinnipiac St., Bldg. 40, Wallingford CT 06492
  
  
 ---------------------------------------------------------------
 Warning -- This program may not be used in any manner that
 competes with the business of Gaussian, Inc. or will provide
 assistance to any competitor of Gaussian, Inc.  The licensee
 of this program is prohibited from giving any competitor of
 Gaussian, Inc. access to this program.  By using this program,
 the user acknowledges that Gaussian, Inc. is engaged in the
 business of creating and licensing software in the field of
 computational chemistry and represents and warrants to the
 licensee that it is not a competitor of Gaussian, Inc. and that
 it will not use this program in any manner prohibited above.
 ---------------------------------------------------------------
  

 Cite this work as:
 Gaussian 09, Revision E.01,
 M. J. Frisch, G. W. Trucks, H. B. Schlegel, G. E. Scuseria, 
 M. A. Robb, J. R. Cheeseman, G. Scalmani, V. Barone, B. Mennucci, 
 G. A. Petersson, H. Nakatsuji, M. Caricato, X. Li, H. P. Hratchian, 
 A. F. Izmaylov, J. Bloino, G. Zheng, J. L. Sonnenberg, M. Hada, 
 M. Ehara, K. Toyota, R. Fukuda, J. Hasegawa, M. Ishida, T. Nakajima, 
 Y. Honda, O. Kitao, H. Nakai, T. Vreven, J. A. Montgomery, Jr., 
 J. E. Peralta, F. Ogliaro, M. Bearpark, J. J. Heyd, E. Brothers, 
 K. N. Kudin, V. N. Staroverov, T. Keith, R. Kobayashi, J. Normand, 
 K. Raghavachari, A. Rendell, J. C. Burant, S. S. Iyengar, J. Tomasi, 
 M. Cossi, N. Rega, J. M. Millam, M. Klene, J. E. Knox, J. B. Cross, 
 V. Bakken, C. Adamo, J. Jaramillo, R. Gomperts, R. E. Stratmann, 
 O. Yazyev, A. J. Austin, R. Cammi, C. Pomelli, J. W. Ochterski, 
 R. L. Martin, K. Morokuma, V. G. Zakrzewski, G. A. Voth, 
 P. Salvador, J. J. Dannenberg, S. Dapprich, A. D. Daniels, 
 O. Farkas, J. B. Foresman, J. V. Ortiz, J. Cioslowski, 
 and D. J. Fox, Gaussian, Inc., Wallingford CT, 2013.
 
 ******************************************
 Gaussian 09:  ES64L-G09RevE.01 30-Nov-2015
                20-Apr-2026 
 ******************************************
 %chk=ZnPc2_35_70.chk
 %mem=16GB
 %nproc=8
 Will use up to    8 processors via shared memory.
 Default route:  MaxDisk=100GW
 --------------------------------------------------------
 # lc-blyp/def2svp iop(3/107=0350000000,3/108=0350000000)
 --------------------------------------------------------
 1/38=1/1;
 2/12=2,17=6,18=5,40=1/2;
 3/5=43,7=101,11=2,16=1,25=1,30=1,74=1000402,107=350000000,108=350000000/1,2,3;
 4//1;
 5/5=2,38=5/2;
 6/7=2,8=2,9=2,10=2,28=1/1;
 99/5=1,9=1/99;
 ----------------------
 monomer geom r2scan-3c
 ----------------------
 Symbolic Z-matrix:
 Charge =  0 Multiplicity = 1
 C                     0.70166   6.5542    0. 
 C                    -0.70166   6.5542    0. 
 C                     1.42257   5.36493   0. 
 C                     0.70397   4.17457   0. 
 C                    -0.70397   4.17457   0. 
 C                    -1.42257   5.36493   0. 
 C                     1.12042   2.78002   0. 
 C                    -1.12042   2.78002   0. 
 N                     0.        1.9891    0. 
 N                    -2.39057   2.39057   0. 
 N                     2.39057   2.39057   0. 
 H                     1.23107   7.50255   0. 
 H                    -1.23107   7.50255   0. 
 H                     2.50803   5.35648   0. 
 H                    -2.50803   5.35648   0. 
 C                     6.5542   -0.70166   0. 
 C                     6.5542    0.70166   0. 
 C                     5.36493  -1.42257   0. 
 C                     4.17457  -0.70397   0. 
 C                     4.17457   0.70397   0. 
 C                     5.36493   1.42257   0. 
 C                     2.78002  -1.12042   0. 
 C                     2.78002   1.12042   0. 
 N                     1.9891    0.        0. 
 N                     2.39057  -2.39057   0. 
 H                     7.50255  -1.23107   0. 
 H                     7.50255   1.23107   0. 
 H                     5.35648  -2.50803   0. 
 H                     5.35648   2.50803   0. 
 C                    -6.5542    0.70166   0. 
 C                    -6.5542   -0.70166   0. 
 C                    -5.36493   1.42257   0. 
 C                    -4.17457   0.70397   0. 
 C                    -4.17457  -0.70397   0. 
 C                    -5.36493  -1.42257   0. 
 C                    -2.78002   1.12042   0. 
 C                    -2.78002  -1.12042   0. 
 N                    -1.9891    0.        0. 
 N                    -2.39057  -2.39057   0. 
 H                    -7.50255   1.23107   0. 
 H                    -7.50255  -1.23107   0. 
 H                    -5.35648   2.50803   0. 
 H                    -5.35648  -2.50803   0. 
 C                    -0.70166  -6.5542    0. 
 C                     0.70166  -6.5542    0. 
 C                    -1.42257  -5.36493   0. 
 C                    -0.70397  -4.17457   0. 
 C                     0.70397  -4.17457   0. 
 C                     1.42257  -5.36493   0. 
 C                    -1.12042  -2.78002   0. 
 C                     1.12042  -2.78002   0. 
 N                     0.       -1.9891    0. 
 H                    -1.23107  -7.50255   0. 
 H                     1.23107  -7.50255   0. 
 H                    -2.50803  -5.35648   0. 
 H                     2.50803  -5.35648   0. 
 Zn                    0.        0.        0. 
 C                     7.70166   6.5542    3.5 
 C                     6.29834   6.5542    3.5 
 C                     8.42257   5.36493   3.5 
 C                     7.70397   4.17457   3.5 
 C                     6.29603   4.17457   3.5 
 C                     5.57743   5.36493   3.5 
 C                     8.12042   2.78002   3.5 
 C                     5.87958   2.78002   3.5 
 N                     7.        1.9891    3.5 
 N                     4.60943   2.39057   3.5 
 N                     9.39057   2.39057   3.5 
 H                     8.23107   7.50255   3.5 
 H                     5.76893   7.50255   3.5 
 H                     9.50803   5.35648   3.5 
 H                     4.49197   5.35648   3.5 
 C                     13.5542  -0.70166   3.5 
 C                     13.5542   0.70166   3.5 
 C                     12.36493  -1.42257   3.5 
 C                     11.17456  -0.70397   3.5 
 C                     11.17456   0.70397   3.5 
 C                     12.36493   1.42257   3.5 
 C                     9.78002  -1.12042   3.5 
 C                     9.78002   1.12042   3.5 
 N                     8.9891    0.        3.5 
 N                     9.39057  -2.39057   3.5 
 H                     14.50255  -1.23107   3.5 
 H                     14.50255   1.23107   3.5 
 H                     12.35647  -2.50803   3.5 
 H                     12.35647   2.50803   3.5 
 C                     0.4458    0.70166   3.5 
 C                     0.4458   -0.70166   3.5 
 C                     1.63507   1.42257   3.5 
 C                     2.82544   0.70397   3.5 
 C                     2.82544  -0.70397   3.5 
 C                     1.63507  -1.42257   3.5 
 C                     4.21998   1.12042   3.5 
 C                     4.21998  -1.12042   3.5 
 N                     5.0109    0.        3.5 
 N                     4.60943  -2.39057   3.5 
 H                    -0.50255   1.23107   3.5 
 H                    -0.50255  -1.23107   3.5 
 H                     1.64353   2.50803   3.5 
 H                     1.64353  -2.50803   3.5 
 C                     6.29834  -6.5542    3.5 
 C                     7.70166  -6.5542    3.5 
 C                     5.57743  -5.36493   3.5 
 C                     6.29603  -4.17457   3.5 
 C                     7.70397  -4.17457   3.5 
 C                     8.42257  -5.36493   3.5 
 C                     5.87958  -2.78002   3.5 
 C                     8.12042  -2.78002   3.5 
 N                     7.       -1.9891    3.5 
 H                     5.76893  -7.50255   3.5 
 H                     8.23107  -7.50255   3.5 
 H                     4.49197  -5.35648   3.5 
 H                     9.50803  -5.35648   3.5 
 Zn                    7.        0.        3.5 
 
 Stoichiometry    C64H32N16Zn2
 Framework group  C2H[SGH(N4Zn2),X(C64H32N12)]
 Deg. of freedom    86
 Full point group                 C2H     NOp   4
 Largest Abelian subgroup         C2H     NOp   4
 Largest concise Abelian subgroup C2H     NOp   4
                         Standard orientation:                         
 ---------------------------------------------------------------------
 Center     Atomic      Atomic             Coordinates (Angstroms)
 Number     Number       Type             X           Y           Z
 ---------------------------------------------------------------------
      1          6           0        1.750000    2.798337    6.554204
      2          6           0        1.750000    4.201663    6.554204
      3          6           0        1.750000    2.077429    5.364926
      4          6           0        1.750000    2.796033    4.174565
      5          6           0        1.750000    4.203967    4.174565
      6          6           0        1.750000    4.922571    5.364926
      7          6           0        1.750000    2.379578    2.780020
      8          6           0        1.750000    4.620422    2.780020
      9          7           0        1.750000    3.500000    1.989101
     10          7           0        1.750000    5.890568    2.390568
     11          7           0        1.750000    1.109432    2.390568
     12          1           0        1.750000    2.268929    7.502550
     13          1           0        1.750000    4.731071    7.502550
     14          1           0        1.750000    0.991973    5.356475
     15          1           0        1.750000    6.008027    5.356475
     16          6           0        1.750000   -3.054204   -0.701663
     17          6           0        1.750000   -3.054204    0.701663
     18          6           0        1.750000   -1.864926   -1.422571
     19          6           0        1.750000   -0.674565   -0.703967
     20          6           0        1.750000   -0.674565    0.703967
     21          6           0        1.750000   -1.864926    1.422571
     22          6           0        1.750000    0.719980   -1.120422
     23          6           0        1.750000    0.719980    1.120422
     24          7           0        1.750000    1.510899   -0.000000
     25          7           0        1.750000    1.109432   -2.390568
     26          1           0        1.750000   -4.002550   -1.231071
     27          1           0        1.750000   -4.002550    1.231071
     28          1           0        1.750000   -1.856475   -2.508027
     29          1           0        1.750000   -1.856475    2.508027
     30          6           0        1.750000   10.054204    0.701663
     31          6           0        1.750000   10.054204   -0.701663
     32          6           0        1.750000    8.864926    1.422571
     33          6           0        1.750000    7.674565    0.703967
     34          6           0        1.750000    7.674565   -0.703967
     35          6           0        1.750000    8.864926   -1.422571
     36          6           0        1.750000    6.280020    1.120422
     37          6           0        1.750000    6.280020   -1.120422
     38          7           0        1.750000    5.489101   -0.000000
     39          7           0        1.750000    5.890568   -2.390568
     40          1           0        1.750000   11.002550    1.231071
     41          1           0        1.750000   11.002550   -1.231071
     42          1           0        1.750000    8.856475    2.508027
     43          1           0        1.750000    8.856475   -2.508027
     44          6           0        1.750000    4.201663   -6.554204
     45          6           0        1.750000    2.798337   -6.554204
     46          6           0        1.750000    4.922571   -5.364926
     47          6           0        1.750000    4.203967   -4.174565
     48          6           0        1.750000    2.796033   -4.174565
     49          6           0        1.750000    2.077429   -5.364926
     50          6           0        1.750000    4.620422   -2.780020
     51          6           0        1.750000    2.379578   -2.780020
     52          7           0        1.750000    3.500000   -1.989101
     53          1           0        1.750000    4.731071   -7.502550
     54          1           0        1.750000    2.268929   -7.502550
     55          1           0        1.750000    6.008027   -5.356475
     56          1           0        1.750000    0.991973   -5.356475
     57         30           0        1.750000    3.500000   -0.000000
     58          6           0       -1.750000   -4.201663    6.554204
     59          6           0       -1.750000   -2.798337    6.554204
     60          6           0       -1.750000   -4.922571    5.364926
     61          6           0       -1.750000   -4.203967    4.174565
     62          6           0       -1.750000   -2.796033    4.174565
     63          6           0       -1.750000   -2.077429    5.364926
     64          6           0       -1.750000   -4.620422    2.780020
     65          6           0       -1.750000   -2.379578    2.780020
     66          7           0       -1.750000   -3.500000    1.989101
     67          7           0       -1.750000   -1.109432    2.390568
     68          7           0       -1.750000   -5.890568    2.390568
     69          1           0       -1.750000   -4.731071    7.502550
     70          1           0       -1.750000   -2.268929    7.502550
     71          1           0       -1.750000   -6.008027    5.356475
     72          1           0       -1.750000   -0.991973    5.356475
     73          6           0       -1.750000  -10.054204   -0.701663
     74          6           0       -1.750000  -10.054204    0.701663
     75          6           0       -1.750000   -8.864926   -1.422571
     76          6           0       -1.750000   -7.674565   -0.703967
     77          6           0       -1.750000   -7.674565    0.703967
     78          6           0       -1.750000   -8.864926    1.422571
     79          6           0       -1.750000   -6.280020   -1.120422
     80          6           0       -1.750000   -6.280020    1.120422
     81          7           0       -1.750000   -5.489101    0.000000
     82          7           0       -1.750000   -5.890568   -2.390568
     83          1           0       -1.750000  -11.002550   -1.231071
     84          1           0       -1.750000  -11.002550    1.231071
     85          1           0       -1.750000   -8.856475   -2.508027
     86          1           0       -1.750000   -8.856475    2.508027
     87          6           0       -1.750000    3.054204    0.701663
     88          6           0       -1.750000    3.054204   -0.701663
     89          6           0       -1.750000    1.864926    1.422571
     90          6           0       -1.750000    0.674565    0.703967
     91          6           0       -1.750000    0.674565   -0.703967
     92          6           0       -1.750000    1.864926   -1.422571
     93          6           0       -1.750000   -0.719980    1.120422
     94          6           0       -1.750000   -0.719980   -1.120422
     95          7           0       -1.750000   -1.510899    0.000000
     96          7           0       -1.750000   -1.109432   -2.390568
     97          1           0       -1.750000    4.002550    1.231071
     98          1           0       -1.750000    4.002550   -1.231071
     99          1           0       -1.750000    1.856475    2.508027
    100          1           0       -1.750000    1.856475   -2.508027
    101          6           0       -1.750000   -2.798337   -6.554204
    102          6           0       -1.750000   -4.201663   -6.554204
    103          6           0       -1.750000   -2.077429   -5.364926
    104          6           0       -1.750000   -2.796033   -4.174565
    105          6           0       -1.750000   -4.203967   -4.174565
    106          6           0       -1.750000   -4.922571   -5.364926
    107          6           0       -1.750000   -2.379578   -2.780020
    108          6           0       -1.750000   -4.620422   -2.780020
    109          7           0       -1.750000   -3.500000   -1.989101
    110          1           0       -1.750000   -2.268929   -7.502550
    111          1           0       -1.750000   -4.731071   -7.502550
    112          1           0       -1.750000   -0.991973   -5.356475
    113          1           0       -1.750000   -6.008027   -5.356475
    114         30           0       -1.750000   -3.500000    0.000000
 ---------------------------------------------------------------------
 Rotational constants (GHZ):      0.0395646      0.0174486      0.0130140
 Standard basis: def2SVP (5D, 7F)
 There are   372 symmetry adapted cartesian basis functions of AG  symmetry.
 There are   344 symmetry adapted cartesian basis functions of BG  symmetry.
 There are   344 symmetry adapted cartesian basis functions of AU  symmetry.
 There are   372 symmetry adapted cartesian basis functions of BU  symmetry.
 There are   347 symmetry adapted basis functions of AG  symmetry.
 There are   324 symmetry adapted basis functions of BG  symmetry.
 There are   324 symmetry adapted basis functions of AU  symmetry.
 There are   347 symmetry adapted basis functions of BU  symmetry.
  1342 basis functions,  2386 primitive gaussians,  1432 cartesian basis functions
   294 alpha electrons      294 beta electrons
       nuclear repulsion energy     15728.1473015476 Hartrees.
 NAtoms=  114 NActive=  114 NUniq=   30 SFac= 4.00D+00 NAtFMM=   60 NAOKFM=T Big=F
 Integral buffers will be    131072 words long.
 Raffenetti 2 integral format.
 Two-electron integral symmetry is turned on.
 One-electron integrals computed using PRISM.
   4 Symmetry operations used in ECPInt.
 ECPInt:  NShTT=  179101 NPrTT=  695647 LenC2=  115634 LenP2D=  262385.
 LDataN:  DoStor=T MaxTD1= 6 Len=  172
 NBasis=  1342 RedAO= T EigKep=  1.18D-04  NBF=   347   324   324   347
 NBsUse=  1342 1.00D-06 EigRej= -1.00D+00 NBFU=   347   324   324   347
 ExpMin= 4.23D-02 ExpMax= 8.20D+04 ExpMxC= 1.23D+04 IAcc=2 IRadAn=         4 AccDes= 0.00D+00
 Harris functional with IExCor=10402 and IRadAn=       4 diagonalized for initial guess.
 HarFok:  IExCor=10402 AccDes= 0.00D+00 IRadAn=         4 IDoV= 1 UseB2=F ITyADJ=14
 ICtDFT=  3500011 ScaDFX=  1.000000  1.000000  1.000000  1.000000
 FoFCou: FMM=F IPFlag=           0 FMFlag=      100000 FMFlg1=        2000
         NFxFlg=           0 DoJE=T BraDBF=F KetDBF=T FulRan=T
         wScrn=  0.000000 ICntrl=     500 IOpCl=  0 I1Cent=   200000004 NGrid=           0
         NMat0=    1 NMatS0=      1 NMatT0=    0 NMatD0=    1 NMtDS0=    0 NMtDT0=    0
 Petite list used in FoFCou.
 Initial guess orbital symmetries:
       Occupied  (AG) (BU) (AG) (BU) (BG) (AU) (AG) (BU) (BU) (AG)
                 (BU) (AG) (BG) (AU) (BU) (AG) (BU) (AG) (BU) (BG)
                 (AG) (AU) (BU) (AG) (BG) (AU) (BG) (AU) (BG) (AU)
                 (AG) (BU) (BG) (AU) (BU) (AG) (AG) (BU) (AU) (BG)
                 (AG) (BU) (BU) (AG) (BG) (AU) (BG) (BU) (AU) (AG)
                 (BU) (AG) (AU) (BG) (AG) (BU) (AU) (BG) (BU) (BG)
                 (AG) (AU) (BG) (AU) (AG) (BU) (BG) (AG) (BU) (AU)
                 (AU) (BG) (BU) (AG) (AU) (BG) (BU) (AG) (BG) (AU)
                 (BU) (AG) (BG) (AU) (BU) (AG) (BG) (AU) (BU) (AG)
                 (BU) (AG) (BG) (AU) (AG) (BU) (BU) (AG) (AG) (BU)
                 (AG) (AU) (BG) (BU) (AG) (BU) (AU) (BG) (BU) (AU)
                 (AG) (BG) (BU) (AG) (BU) (AG) (BU) (AG) (AU) (BG)
                 (AG) (BU) (AU) (BG) (BG) (AU) (AG) (BU) (AG) (BG)
                 (AU) (BU) (AG) (BU) (BG) (AU) (BU) (AG) (AU) (BG)
                 (AU) (AG) (BU) (BG) (BU) (AG) (AG) (AU) (BU) (BG)
                 (AG) (BU) (AU) (BG) (AG) (BU) (BG) (AU) (BU) (AG)
                 (BG) (AU) (AU) (BG) (BU) (AG) (AG) (BG) (AU) (BU)
                 (AG) (BU) (BU) (AU) (BG) (AG) (AG) (BU) (BU) (AG)
                 (AU) (BG) (AU) (BG) (AU) (BG) (BU) (AG) (BU) (AU)
                 (BG) (AG) (AG) (BU) (AU) (BG) (AU) (BG) (AG) (BU)
                 (AU) (BG) (AG) (BU) (AG) (AU) (BU) (AG) (BG) (AU)
                 (BG) (BU) (AG) (AU) (BG) (BU) (BU) (AG) (AG) (BU)
                 (BG) (AU) (BG) (AU) (BU) (AG) (AG) (BU) (BU) (AU)
                 (BG) (AG) (BU) (AG) (AU) (BU) (AG) (BG) (AU) (BU)
                 (BG) (AG) (AU) (BG) (AG) (BU) (AG) (BU) (AU) (AG)
                 (BG) (BU) (AU) (AG) (BU) (BG) (AG) (AU) (BU) (BG)
                 (AG) (AU) (BU) (BG) (AU) (BG) (BG) (AU) (AG) (BG)
                 (BU) (AG) (BU) (AU) (AG) (AU) (BG) (BU) (AG) (BU)
                 (BU) (AG) (BU) (AG) (AU) (BG) (BU) (AU) (BG) (AG)
                 (AU) (BG) (BU) (AG)
       Virtual   (AU) (AG) (BU) (BG) (AU) (AG) (BG) (BU) (BU) (AG)
                 (AG) (AU) (BG) (BU) (BG) (AU) (AU) (BG) (BU) (AG)
                 (AG) (BU) (BU) (BG) (AG) (AU) (AG) (AU) (BU) (AG)
                 (BU) (AG) (BG) (BU) (AG) (AU) (BU) (BG) (AG) (AU)
                 (BG) (AG) (BU) (AU) (BG) (BU) (AG) (AU) (BU) (BG)
                 (AG) (AU) (BG) (BU) (AU) (BG) (AG) (AU) (BU) (BG)
                 (AG) (AU) (AG) (BG) (BU) (AU) (BG) (AG) (BU) (AU)
                 (BU) (AG) (BG) (BU) (AU) (AU) (BG) (AG) (BU) (BG)
                 (BG) (AU) (AG) (AG) (BU) (BU) (BG) (AU) (AG) (BU)
                 (AU) (BG) (BG) (AG) (AU) (BU) (BG) (AU) (BG) (AU)
                 (BU) (AG) (AG) (BG) (AU) (BU) (AU) (AG) (AU) (BU)
                 (BG) (AG) (BU) (BG) (BU) (AG) (AU) (BU) (AG) (AG)
                 (BG) (BU) (AG) (AU) (BU) (AG) (AG) (BU) (BG) (AG)
                 (BU) (AU) (BG) (BU) (AU) (BG) (AG) (AU) (BU) (AG)
                 (BU) (AU) (BG) (BU) (AG) (BG) (AG) (AU) (BG) (AU)
                 (BU) (BG) (AG) (AG) (AU) (BG) (BU) (BG) (AU) (BU)
                 (BG) (BU) (AU) (AG) (BG) (AG) (BU) (AG) (BU) (AG)
                 (AU) (AU) (BG) (AU) (BU) (AG) (BG) (AG) (AU) (BU)
                 (BU) (BG) (AG) (BG) (BU) (AU) (AG) (BU) (AU) (AG)
                 (AU) (BG) (BU) (BG) (BU) (AU) (AG) (BG) (AU) (BU)
                 (AG) (BG) (AU) (AG) (BU) (AG) (AU) (BG) (AG) (BU)
                 (AU) (BG) (AU) (BU) (AG) (BG) (BU) (AG) (BU) (AU)
                 (BG) (BG) (AG) (BG) (AU) (BU) (AG) (AU) (BU) (BG)
                 (AG) (AU) (BU) (BG) (AG) (AU) (BG) (AG) (AU) (BU)
                 (BG) (BG) (AU) (AG) (BU) (BG) (AU) (BU) (BU) (AG)
                 (AG) (AU) (BG) (AU) (BG) (AG) (BU) (AU) (BG) (BU)
                 (AU) (AG) (BG) (AU) (BU) (BU) (AG) (BG) (AU) (BG)
                 (AG) (AU) (BG) (BU) (AU) (AG) (BU) (AG) (BG) (AG)
                 (BU) (AU) (AG) (BU) (AG) (BU) (BG) (BU) (AU) (AU)
                 (AG) (BG) (BU) (AG) (BU) (BG) (AG) (AU) (AU) (BG)
                 (BU) (AG) (BG) (AU) (BU) (BG) (AG) (AU) (BU) (AG)
                 (AU) (BG) (AU) (BU) (BG) (AG) (BU) (AG) (BU) (BG)
                 (AU) (BU) (AU) (BG) (AG) (BG) (AU) (AG) (BG) (AU)
                 (BG) (BU) (AU) (BG) (AG) (AG) (AU) (BU) (AG) (BG)
                 (AU) (AU) (BG) (BU) (BG) (BG) (BU) (AU) (AG) (AU)
                 (BU) (AG) (BG) (AU) (BG) (BU) (AG) (AU) (BU) (BG)
                 (AG) (AU) (BU) (BG) (AG) (BU) (BU) (AU) (AG) (BG)
                 (AU) (BU) (AG) (BG) (BU) (AU) (AG) (BU) (BG) (AG)
                 (BU) (AG) (AG) (AU) (BU) (BG) (BG) (BU) (AU) (BG)
                 (AU) (AG) (BG) (BU) (AG) (AU) (AU) (BG) (AU) (BU)
                 (AG) (BG) (AU) (BG) (AG) (BG) (BU) (AU) (AU) (BG)
                 (AU) (AG) (BU) (AG) (BG) (BU) (AU) (BU) (AG) (BG)
                 (BU) (AG) (BU) (AG) (AG) (BG) (AU) (BU) (AG) (AG)
                 (AU) (BG) (AU) (BU) (BG) (BU) (AG) (BU) (BG) (AU)
                 (BU) (AG) (BG) (AU) (AU) (BG) (BU) (AG) (AU) (BG)
                 (BU) (BG) (AU) (AG) (AU) (AG) (BU) (BU) (BG) (AG)
                 (AG) (BG) (AU) (BU) (BG) (AG) (BU) (AG) (AU) (BG)
                 (BU) (AU) (AG) (BU) (BU) (AG) (BU) (AU) (AG) (BG)
                 (AG) (BU) (AU) (AG) (BG) (AG) (BU) (BU) (BG) (AU)
                 (BU) (AG) (BG) (AU) (BG) (BU) (AU) (AG) (AG) (BG)
                 (BU) (AG) (AU) (BU) (AU) (BG) (BU) (AG) (BG) (BU)
                 (AG) (AU) (BU) (AG) (AG) (BU) (AU) (BG) (AG) (AU)
                 (BU) (BG) (AU) (AG) (BU) (BG) (BG) (AU) (BU) (AU)
                 (BG) (AG) (BU) (AG) (AU) (BG) (BU) (AG) (AU) (BG)
                 (AG) (AU) (BU) (AU) (BU) (AG) (BG) (AG) (AU) (BG)
                 (BU) (BG) (AU) (BG) (AU) (AG) (BU) (BG) (AU) (AG)
                 (AG) (BU) (BG) (AG) (AU) (BU) (BG) (AU) (BU) (BG)
                 (BU) (AG) (BG) (AU) (AG) (BU) (BG) (AU) (AG) (AU)
                 (BG) (BU) (AG) (AU) (BG) (BU) (BU) (AU) (BG) (AG)
                 (AG) (BU) (BU) (AG) (AU) (AG) (BG) (BU) (AG) (BU)
                 (AG) (BU) (BU) (AG) (AU) (BG) (AU) (AG) (BG) (BU)
                 (AU) (BG) (AU) (AG) (AU) (BG) (AU) (BG) (BU) (AG)
                 (BG) (BU) (AU) (BU) (AG) (AU) (AG) (BG) (BU) (AG)
                 (BG) (AG) (BU) (BU) (AG) (BU) (AU) (AG) (BG) (BU)
                 (AG) (AU) (BG) (AG) (BG) (BG) (AU) (BU) (AU) (BU)
                 (AU) (BG) (AG) (BU) (AG) (BG) (AU) (BU) (BG) (AG)
                 (AU) (BG) (BU) (AU) (AG) (BG) (BU) (AU) (AG) (BU)
                 (AU) (BG) (AG) (BG) (AU) (BU) (BU) (AG) (AG) (AU)
                 (BU) (AG) (AU) (BG) (BG) (BU) (BG) (AU) (BG) (AU)
                 (BU) (AG) (AU) (BG) (BU) (AG) (BU) (AG) (BU) (AG)
                 (AU) (BG) (BU) (BG) (AU) (AG) (BU) (BU) (AU) (BG)
                 (AG) (AG) (BG) (AU) (AG) (BU) (BG) (AG) (BU) (AU)
                 (AU) (BU) (BG) (AG) (BG) (BU) (AG) (AG) (BU) (AU)
                 (BU) (BG) (AU) (AG) (AU) (BG) (BU) (AG) (BU) (AG)
                 (AU) (BG) (BU) (AG) (BG) (BU) (AU) (AG) (BG) (AU)
                 (AG) (BU) (AU) (AG) (BU) (AU) (BG) (BU) (AU) (BG)
                 (AG) (BG) (BU) (AG) (AG) (AU) (BG) (BU) (AU) (BG)
                 (BG) (BU) (AG) (AU) (AG) (AU) (BG) (AU) (BU) (BU)
                 (BG) (AU) (BU) (AU) (AG) (BG) (BG) (AG) (AU) (AU)
                 (BG) (BU) (AU) (BG) (AG) (BU) (AG) (AU) (BG) (BU)
                 (AU) (BG) (AG) (BG) (AG) (BU) (AG) (AU) (BG) (AU)
                 (BU) (AG) (BU) (BG) (AU) (BG) (BU) (AG) (BG) (AU)
                 (AG) (BU) (BG) (AU) (AG) (BU) (BU) (AG) (AG) (AU)
                 (BG) (AU) (BG) (AG) (BU) (AU) (BU) (BG) (AU) (BG)
                 (BU) (AG) (AG) (AG) (BU) (AU) (BG) (BU) (BU) (AG)
                 (AU) (BG) (BU) (AG) (AU) (BG) (AU) (BU) (BG) (AG)
                 (AG) (AU) (BG) (BU) (BG) (AU) (BG) (AU) (BU) (AG)
                 (BG) (AU) (AG) (BU) (BG) (AU) (BU) (BG) (AG) (BU)
                 (AU) (AG) (BG) (AU) (BU) (BG) (AG) (AU) (AG) (BU)
                 (BG) (AU) (AG) (AU) (BU) (BG) (AG) (AU) (BG) (AU)
                 (BU) (BG) (AG) (BU) (AU) (BG) (AU) (BG) (BG) (AG)
                 (BU) (BG) (AU) (BU) (AG) (AU) (AG) (AU) (BU) (BG)
                 (AG) (BU) (AU) (AG) (BU) (BG) (AU) (BG) (AG) (BU)
                 (AG) (BU) (AG) (AU) (BG) (BU) (AG) (BU) (BG) (BU)
                 (AG) (AU) (BG) (AU) (BG) (AU) (BU) (AG) (AU) (BG)
                 (AG) (BU) (AG) (BU) (BG) (AU) (BG) (AU) (AG) (AU)
                 (AG) (BU) (BG) (AU) (BG) (BU) (AG) (BU) (AU) (BG)
                 (AG) (AU) (BU) (BG) (AU) (BG) (AG) (BU) (AU) (BG)
                 (BG) (AG) (AU) (BU) (AU) (BG) (AG) (BU) (BU) (AU)
                 (BG) (AG) (AU) (BU) (AG) (BG) (AG) (AU) (BU) (BG)
                 (BU) (AG) (BG) (AU) (AG) (BU) (BG) (AU) (BG) (AU)
                 (AG) (AU) (BG) (BU) (AG) (BU) (BG) (AU) (AG) (BU)
                 (AU) (BG) (AU) (AG) (BU) (BG) (AU) (BG) (AG) (BG)
                 (AU) (BU) (AU) (BG) (BG) (AU) (AG) (BU) (AG) (BU)
                 (AG) (AU) (BU) (BG) (AG) (BG) (AU) (BU)
 The electronic state of the initial guess is 1-AG.
 Requested convergence on RMS density matrix=1.00D-08 within 128 cycles.
 Requested convergence on MAX density matrix=1.00D-06.
 Requested convergence on             energy=1.00D-06.
 No special actions if energy rises.
 SCF Done:  E(RLC-B+HF-LYP) =  -6881.17545064     A.U. after   17 cycles
            NFock= 17  Conv=0.97D-08     -V/T= 2.0056
 Hyperfine terms turned off by default for NAtoms > 100.

 **********************************************************************

            Population analysis using the SCF density.

 **********************************************************************

 Orbital symmetries:
       Occupied  (AG) (BU) (AG) (BU) (BU) (AG) (BG) (AU) (AG) (BU)
                 (BU) (AG) (BG) (AU) (BU) (AG) (BU) (AG) (BU) (AG)
                 (BG) (AU) (BU) (BG) (AG) (AU) (AU) (BG) (BU) (AG)
                 (BG) (AU) (BU) (AG) (AU) (BG) (BU) (AG) (BG) (AU)
                 (BU) (AG) (BG) (AU) (AG) (BU) (BU) (AG) (BG) (AU)
                 (BG) (AU) (BU) (AG) (BG) (AU) (AG) (BU) (AU) (AG)
                 (BG) (BU) (BU) (AG) (BG) (AU) (BG) (AU) (BU) (AG)
                 (BU) (AG) (AU) (AG) (BG) (BU) (BG) (AU) (BU) (AG)
                 (BG) (AU) (BU) (AG) (BG) (AU) (AU) (AG) (BG) (BU)
                 (BU) (AG) (BU) (AG) (AU) (BG) (AG) (BU) (AG) (BU)
                 (AG) (AU) (BG) (BU) (AG) (BU) (AU) (BG) (AU) (AG)
                 (BU) (BG) (AG) (BU) (BU) (AG) (AU) (BG) (AG) (BU)
                 (BU) (AG) (AU) (BG) (AG) (BU) (AU) (AG) (BU) (BG)
                 (BG) (AG) (BU) (AU) (BU) (AG) (BG) (AU) (AU) (BG)
                 (AU) (AG) (BU) (BG) (AG) (BU) (BU) (AG) (AG) (AU)
                 (BU) (BG) (AU) (BG) (AG) (BU) (AU) (BG) (BU) (AG)
                 (AU) (BG) (BG) (AU) (AG) (BU) (AG) (AU) (BU) (BG)
                 (AG) (BU) (AG) (BU) (BG) (AU) (AU) (BG) (AU) (BG)
                 (AG) (BU) (BU) (AG) (AG) (BU) (AG) (AU) (BG) (BU)
                 (AG) (AU) (BG) (BU) (BU) (AG) (AU) (BG) (AG) (BU)
                 (AU) (BG) (BU) (AG) (AG) (AU) (BG) (AU) (BG) (BU)
                 (AG) (BU) (AG) (AU) (BG) (BU) (AU) (BG) (AG) (BU)
                 (AU) (BG) (BU) (AU) (AG) (BG) (BU) (AG) (BU) (AG)
                 (AU) (BG) (BU) (AU) (AG) (BU) (BG) (AG) (BG) (AU)
                 (BG) (AU) (BU) (AG) (BU) (AG) (AU) (BG) (AG) (AU)
                 (BG) (BU) (AG) (BU) (AU) (BU) (AG) (BG) (AG) (BU)
                 (AU) (AG) (BU) (BG) (AG) (BU) (AG) (AU) (BG) (BU)
                 (AU) (BG) (AU) (BG) (AG) (BG) (AU) (BU) (BG) (AG)
                 (BU) (AU) (BU) (AU) (AG) (BU) (BG) (AG) (BU) (AG)
                 (BU) (AG) (AU) (BG)
       Virtual   (AU) (AG) (BU) (BG) (AU) (BG) (AG) (BU) (BU) (AG)
                 (AG) (AU) (BG) (BU) (AG) (BG) (BU) (AU) (AU) (BG)
                 (BU) (AG) (AG) (BU) (AU) (AG) (BU) (AG) (BU) (BG)
                 (AG) (BG) (AU) (BU) (AG) (AU) (BU) (BG) (AG) (AU)
                 (BG) (BU) (AG) (AU) (BU) (BG) (AU) (AG) (BG) (AG)
                 (BG) (BU) (BU) (AU) (AU) (BG) (AG) (BU) (AG) (AU)
                 (BU) (AG) (BG) (BU) (AG) (AU) (BG) (AU) (BU) (BG)
                 (AG) (AU) (BU) (BG) (AU) (AG) (AU) (BG) (BU) (BG)
                 (AG) (BU) (BG) (AU) (AU) (BG) (AG) (AG) (BU) (BU)
                 (AU) (BG) (AU) (BG) (BG) (AG) (BU) (AU) (BG) (AU)
                 (BU) (AG) (AG) (AU) (BG) (AG) (BU) (AU) (AU) (BU)
                 (BG) (AG) (BU) (BU) (BG) (AU) (AG) (BG) (AG) (BU)
                 (AG) (BU) (AU) (AG) (BU) (AG) (BG) (AG) (AU) (BU)
                 (BU) (BG) (AG) (AU) (BG) (AG) (BU) (BU) (AU) (AG)
                 (BU) (AU) (BG) (AG) (BU) (BG) (BG) (BU) (AG) (AG)
                 (AU) (AU) (BG) (AU) (BG) (AG) (BU) (BG) (AU) (BU)
                 (AG) (BG) (BU) (AU) (BU) (AG) (BG) (AU) (AG) (BU)
                 (AG) (AG) (BU) (AU) (BG) (AU) (BU) (BU) (BG) (AU)
                 (BG) (AG) (AG) (BG) (BU) (AU) (AG) (AU) (BU) (BU)
                 (AG) (BG) (AU) (AG) (AU) (BU) (BG) (AG) (BU) (AU)
                 (BG) (AU) (BG) (AG) (BU) (BU) (AG) (AG) (BG) (BU)
                 (AU) (BG) (AU) (BU) (AG) (AG) (AU) (AG) (BU) (BG)
                 (BG) (AU) (BG) (BG) (BU) (AU) (AG) (BU) (AU) (AG)
                 (AU) (BG) (AG) (BU) (BG) (AU) (BU) (AG) (BG) (AU)
                 (BG) (AG) (BU) (BG) (AU) (AU) (BG) (BU) (AG) (BU)
                 (AG) (AU) (AU) (BG) (BG) (AG) (BU) (AU) (BU) (AU)
                 (BG) (AG) (BG) (AU) (AG) (BG) (BU) (BU) (AG) (AG)
                 (AU) (BU) (AU) (BG) (BU) (AG) (AG) (BG) (AU) (BU)
                 (BG) (BU) (AG) (AU) (BU) (BG) (AG) (BU) (AU) (AU)
                 (BG) (BU) (AG) (AG) (BG) (AU) (BU) (AG) (BU) (BU)
                 (AU) (BG) (AG) (AU) (AG) (BG) (BU) (AG) (BG) (AU)
                 (BG) (BU) (AU) (BG) (AU) (AG) (BG) (BU) (BG) (AG)
                 (AU) (AU) (AU) (AG) (BG) (BU) (BU) (BG) (AG) (AU)
                 (BG) (BU) (AG) (BG) (BU) (AG) (AU) (BU) (AU) (AG)
                 (BG) (AU) (AG) (BG) (AU) (BU) (BG) (AG) (BG) (BU)
                 (AU) (AU) (BG) (BU) (AG) (AU) (BU) (BG) (AU) (AG)
                 (BG) (AU) (BU) (AG) (BU) (BG) (BU) (BG) (AG) (AU)
                 (AG) (AU) (BU) (AU) (BG) (AG) (BG) (BU) (BU) (AG)
                 (BU) (AU) (AG) (AG) (BU) (BG) (BG) (BU) (AU) (BG)
                 (AU) (BG) (AG) (AU) (AG) (BU) (AU) (BU) (AG) (BG)
                 (BG) (AU) (BG) (AU) (AG) (AU) (BU) (BG) (AU) (AU)
                 (BG) (AG) (BU) (BG) (AG) (BU) (AG) (AU) (BU) (BU)
                 (AG) (BG) (BG) (AG) (BU) (AG) (AU) (BU) (AG) (AG)
                 (AU) (BG) (AU) (BG) (BU) (BU) (AG) (BU) (BG) (AU)
                 (BU) (AU) (BG) (AG) (AU) (BG) (AG) (BU) (AU) (BG)
                 (BG) (BU) (AU) (AG) (AU) (BU) (AG) (BG) (BU) (AG)
                 (BG) (AG) (AU) (BG) (AU) (BU) (AG) (AG) (BU) (BU)
                 (BG) (AU) (AG) (BU) (AU) (BU) (AG) (BU) (AG) (BG)
                 (AG) (BU) (AU) (AG) (BU) (BG) (BU) (BG) (AG) (AG)
                 (AU) (BU) (AG) (BG) (AU) (BU) (AG) (BG) (AU) (BU)
                 (AU) (BG) (BU) (AU) (AG) (BU) (BU) (BG) (AG) (BG)
                 (AU) (AG) (AG) (BG) (AU) (BU) (AG) (BU) (AG) (BU)
                 (AU) (BG) (AG) (BU) (AU) (BG) (AG) (BG) (AU) (BU)
                 (BG) (BU) (AU) (AG) (AU) (BG) (AU) (BU) (AG) (AG)
                 (BG) (BU) (AU) (AU) (BU) (AG) (AU) (BG) (BG) (AG)
                 (BU) (BG) (AU) (BG) (AU) (AG) (BU) (BG) (AG) (AU)
                 (BU) (AG) (BG) (AU) (BU) (AG) (BG) (AU) (BU) (BG)
                 (BU) (AG) (BG) (AG) (AU) (BU) (BG) (AG) (AU) (BG)
                 (AU) (BU) (AG) (AU) (BG) (AU) (BG) (BU) (BU) (AG)
                 (AG) (BU) (AG) (BU) (AU) (AG) (BG) (BU) (AU) (AG)
                 (BU) (BG) (AU) (BG) (AG) (BU) (AG) (BG) (AU) (AG)
                 (BU) (BU) (AG) (AU) (BU) (AU) (BG) (BG) (AU) (BG)
                 (AG) (BU) (BG) (AU) (AG) (AU) (BU) (AG) (BU) (AG)
                 (BU) (AG) (BG) (BU) (AG) (AU) (AG) (BG) (BU) (BU)
                 (AU) (AG) (BG) (BG) (AU) (AU) (BG) (AG) (BU) (BG)
                 (AU) (BG) (AU) (AG) (BU) (BG) (AG) (BU) (BU) (AU)
                 (BG) (AG) (BU) (AU) (AG) (BG) (BU) (AG) (AU) (AU)
                 (BU) (BG) (AG) (AU) (BG) (AU) (BU) (BG) (AG) (BU)
                 (AG) (BU) (AU) (AG) (BU) (BG) (BG) (AU) (AU) (BG)
                 (BU) (AG) (BU) (BU) (AU) (AG) (BG) (AG) (BU) (BG)
                 (AU) (AG) (AU) (BU) (BG) (BU) (AG) (AG) (BU) (BG)
                 (AU) (AG) (BG) (AU) (BU) (AG) (BG) (BU) (AU) (AG)
                 (BU) (AG) (AU) (BG) (BG) (BU) (AG) (BU) (AU) (AG)
                 (BG) (BU) (AU) (AG) (BU) (AU) (BG) (AG) (BU) (AG)
                 (AU) (BG) (BU) (AG) (BU) (BG) (AG) (AU) (BG) (AU)
                 (AU) (BG) (AG) (AU) (BU) (AG) (BG) (AU) (BU) (BG)
                 (AG) (BU) (AU) (BU) (BG) (AG) (BU) (AG) (BG) (AU)
                 (BU) (AU) (BG) (AG) (AG) (AU) (BU) (BG) (AU) (BG)
                 (BU) (AG) (BG) (AU) (BU) (AU) (BG) (AG) (AU) (BG)
                 (BU) (AG) (AU) (BG) (AU) (BU) (AG) (BG) (AU) (BG)
                 (AU) (AG) (BU) (BG) (AU) (BU) (AG) (BU) (AG) (BG)
                 (AG) (AU) (BU) (BG) (AG) (AU) (BG) (BU) (AG) (BG)
                 (AG) (AU) (BU) (BG) (BU) (AU) (AG) (AU) (BG) (BU)
                 (AG) (AU) (BG) (BU) (AG) (BU) (AU) (BG) (AU) (BG)
                 (AG) (BU) (BU) (AG) (AG) (AU) (BG) (BU) (BU) (AG)
                 (AG) (BU) (BG) (AU) (BU) (AU) (BG) (AU) (BG) (AG)
                 (AG) (AU) (BG) (BU) (BG) (AU) (BG) (AU) (BU) (AG)
                 (BG) (AU) (AG) (BU) (AU) (BG) (BG) (BU) (AG) (BG)
                 (AU) (BU) (AG) (AU) (BG) (BU) (AU) (AG) (AG) (BU)
                 (AG) (BU) (BG) (AU) (AG) (AU) (BG) (BU) (AG) (AU)
                 (BG) (BU) (AU) (BG) (AU) (BG) (BG) (AU) (BG) (AU)
                 (AG) (BU) (BG) (AG) (BU) (AU) (AG) (AU) (BG) (BU)
                 (AU) (BG) (AG) (BU) (AU) (AG) (BG) (BU) (AG) (BU)
                 (AG) (BU) (AG) (AU) (BG) (BU) (AG) (BU) (BG) (BU)
                 (AU) (AG) (BG) (AU) (BG) (AG) (BU) (AU) (AG) (BU)
                 (AU) (BG) (BG) (AU) (AG) (BU) (AG) (BU) (BG) (AU)
                 (AG) (BU) (AG) (AU) (BG) (AU) (BU) (BG) (AU) (BG)
                 (AG) (BU) (AU) (AG) (BG) (BU) (AU) (BG) (AU) (BG)
                 (BG) (AG) (AU) (BU) (AU) (BG) (AG) (BU) (BU) (AU)
                 (BG) (AG) (AU) (BU) (BG) (AG) (AG) (AU) (BU) (BG)
                 (BU) (AG) (AU) (BG) (AG) (BG) (BU) (AU) (BG) (AU)
                 (AG) (AU) (BG) (BU) (AG) (BU) (AG) (BU) (BG) (AU)
                 (AU) (BG) (AU) (AG) (BU) (BG) (AU) (BG) (AG) (BG)
                 (AU) (BU) (AU) (BG) (AG) (BU) (BG) (AU) (AG) (BU)
                 (AU) (AG) (BU) (BG) (AG) (BG) (AU) (BU)
 The electronic state is 1-AG.
 Alpha  occ. eigenvalues -- -345.98187-345.98187 -41.86066 -41.86066 -36.95771
 Alpha  occ. eigenvalues --  -36.95771 -36.95002 -36.95002 -36.94998 -36.94998
 Alpha  occ. eigenvalues --  -14.21234 -14.21234 -14.21191 -14.21191 -14.21188
 Alpha  occ. eigenvalues --  -14.21188 -14.21154 -14.21151 -14.20415 -14.20415
 Alpha  occ. eigenvalues --  -14.20414 -14.20414 -14.20318 -14.20318 -14.20318
 Alpha  occ. eigenvalues --  -14.20317 -10.17787 -10.17787 -10.17778 -10.17778
 Alpha  occ. eigenvalues --  -10.17772 -10.17772 -10.17769 -10.17769 -10.17763
 Alpha  occ. eigenvalues --  -10.17762 -10.17756 -10.17755 -10.17751 -10.17751
 Alpha  occ. eigenvalues --  -10.17747 -10.17745 -10.11092 -10.11090 -10.11078
 Alpha  occ. eigenvalues --  -10.11078 -10.11012 -10.11012 -10.10999 -10.10999
 Alpha  occ. eigenvalues --  -10.10997 -10.10997 -10.10997 -10.10997 -10.10996
 Alpha  occ. eigenvalues --  -10.10996 -10.10982 -10.10982 -10.10971 -10.10971
 Alpha  occ. eigenvalues --  -10.10971 -10.10970 -10.10857 -10.10854 -10.10845
 Alpha  occ. eigenvalues --  -10.10843 -10.10837 -10.10837 -10.10837 -10.10837
 Alpha  occ. eigenvalues --  -10.10828 -10.10828 -10.10821 -10.10821 -10.10821
 Alpha  occ. eigenvalues --  -10.10821 -10.10816 -10.10816 -10.10754 -10.10754
 Alpha  occ. eigenvalues --  -10.10753 -10.10753 -10.10750 -10.10750 -10.10742
 Alpha  occ. eigenvalues --  -10.10742 -10.10737 -10.10737 -10.10737 -10.10737
 Alpha  occ. eigenvalues --   -4.77833  -4.77833  -3.22503  -3.22503  -3.21232
 Alpha  occ. eigenvalues --   -3.21232  -3.21229  -3.21229  -1.11905  -1.11853
 Alpha  occ. eigenvalues --   -1.10482  -1.10437  -1.10429  -1.10376  -1.07745
 Alpha  occ. eigenvalues --   -1.07685  -1.05324  -1.05287  -1.01283  -1.01282
 Alpha  occ. eigenvalues --   -1.01257  -1.01241  -0.98281  -0.98281  -0.97157
 Alpha  occ. eigenvalues --   -0.97074  -0.97030  -0.97027  -0.97011  -0.97010
 Alpha  occ. eigenvalues --   -0.96850  -0.96821  -0.88954  -0.88910  -0.87715
 Alpha  occ. eigenvalues --   -0.87589  -0.87389  -0.87371  -0.87346  -0.87336
 Alpha  occ. eigenvalues --   -0.87041  -0.87040  -0.87025  -0.87006  -0.86798
 Alpha  occ. eigenvalues --   -0.86794  -0.86699  -0.86696  -0.83226  -0.83204
 Alpha  occ. eigenvalues --   -0.80628  -0.80608  -0.80599  -0.80596  -0.75287
 Alpha  occ. eigenvalues --   -0.75266  -0.75144  -0.75087  -0.74347  -0.74291
 Alpha  occ. eigenvalues --   -0.74286  -0.74261  -0.73605  -0.73575  -0.73450
 Alpha  occ. eigenvalues --   -0.73441  -0.70916  -0.70910  -0.70889  -0.70889
 Alpha  occ. eigenvalues --   -0.70822  -0.70810  -0.69725  -0.69704  -0.67362
 Alpha  occ. eigenvalues --   -0.67355  -0.66453  -0.66414  -0.66413  -0.66408
 Alpha  occ. eigenvalues --   -0.65025  -0.64989  -0.64840  -0.64834  -0.64833
 Alpha  occ. eigenvalues --   -0.64828  -0.61375  -0.61365  -0.61052  -0.61031
 Alpha  occ. eigenvalues --   -0.60783  -0.60743  -0.60373  -0.60369  -0.60065
 Alpha  occ. eigenvalues --   -0.59294  -0.59092  -0.59058  -0.59026  -0.59007
 Alpha  occ. eigenvalues --   -0.59001  -0.58890  -0.58846  -0.58457  -0.57898
 Alpha  occ. eigenvalues --   -0.57833  -0.57821  -0.57818  -0.56864  -0.56809
 Alpha  occ. eigenvalues --   -0.56759  -0.56732  -0.56456  -0.56454  -0.56116
 Alpha  occ. eigenvalues --   -0.55898  -0.55852  -0.55676  -0.55673  -0.55557
 Alpha  occ. eigenvalues --   -0.55450  -0.55399  -0.54914  -0.54892  -0.54879
 Alpha  occ. eigenvalues --   -0.54877  -0.54830  -0.54777  -0.54632  -0.54004
 Alpha  occ. eigenvalues --   -0.53904  -0.53893  -0.53671  -0.53653  -0.53653
 Alpha  occ. eigenvalues --   -0.53632  -0.52365  -0.52359  -0.51335  -0.51202
 Alpha  occ. eigenvalues --   -0.50783  -0.50286  -0.49268  -0.48627  -0.48579
 Alpha  occ. eigenvalues --   -0.48533  -0.48458  -0.47843  -0.47495  -0.47484
 Alpha  occ. eigenvalues --   -0.47250  -0.47218  -0.47205  -0.47202  -0.46591
 Alpha  occ. eigenvalues --   -0.46544  -0.46486  -0.46482  -0.46242  -0.46231
 Alpha  occ. eigenvalues --   -0.46208  -0.46176  -0.45747  -0.45740  -0.44533
 Alpha  occ. eigenvalues --   -0.44525  -0.44518  -0.44490  -0.44436  -0.44409
 Alpha  occ. eigenvalues --   -0.43060  -0.42880  -0.42708  -0.42494  -0.41024
 Alpha  occ. eigenvalues --   -0.40927  -0.38287  -0.38286  -0.38197  -0.38175
 Alpha  occ. eigenvalues --   -0.38073  -0.37875  -0.36519  -0.36404  -0.36392
 Alpha  occ. eigenvalues --   -0.35955  -0.35662  -0.35655  -0.35566  -0.35470
 Alpha  occ. eigenvalues --   -0.35359  -0.35271  -0.34800  -0.34696  -0.34645
 Alpha  occ. eigenvalues --   -0.34564  -0.34556  -0.34503  -0.34463  -0.34394
 Alpha  occ. eigenvalues --   -0.33509  -0.33366  -0.24104  -0.23614
 Alpha virt. eigenvalues --   -0.05884  -0.05787  -0.05632  -0.05567   0.02756
 Alpha virt. eigenvalues --    0.02995   0.03781   0.04121   0.04697   0.04940
 Alpha virt. eigenvalues --    0.05096   0.05248   0.05423   0.05448   0.09865
 Alpha virt. eigenvalues --    0.10115   0.10132   0.10391   0.10630   0.10704
 Alpha virt. eigenvalues --    0.10726   0.10797   0.13452   0.13587   0.13815
 Alpha virt. eigenvalues --    0.13906   0.14251   0.14320   0.14348   0.14583
 Alpha virt. eigenvalues --    0.14610   0.14806   0.14870   0.15207   0.15673
 Alpha virt. eigenvalues --    0.15742   0.16080   0.16749   0.16913   0.17140
 Alpha virt. eigenvalues --    0.17417   0.18109   0.18499   0.18789   0.19072
 Alpha virt. eigenvalues --    0.19499   0.20208   0.20276   0.20522   0.20684
 Alpha virt. eigenvalues --    0.20729   0.20817   0.21025   0.21026   0.21319
 Alpha virt. eigenvalues --    0.21761   0.21928   0.22528   0.23131   0.23808
 Alpha virt. eigenvalues --    0.23888   0.24128   0.24357   0.24384   0.24687
 Alpha virt. eigenvalues --    0.24726   0.24996   0.25684   0.26449   0.26663
 Alpha virt. eigenvalues --    0.26796   0.27144   0.27153   0.27305   0.27472
 Alpha virt. eigenvalues --    0.27907   0.27918   0.28014   0.28040   0.28071
 Alpha virt. eigenvalues --    0.28773   0.29405   0.29500   0.29529   0.31068
 Alpha virt. eigenvalues --    0.31294   0.31298   0.31408   0.31487   0.31895
 Alpha virt. eigenvalues --    0.32692   0.33256   0.33547   0.33607   0.33801
 Alpha virt. eigenvalues --    0.33927   0.34008   0.34049   0.34074   0.34489
 Alpha virt. eigenvalues --    0.34927   0.35009   0.35310   0.35385   0.35387
 Alpha virt. eigenvalues --    0.35561   0.35744   0.35845   0.35996   0.36082
 Alpha virt. eigenvalues --    0.36224   0.36238   0.36642   0.36829   0.37189
 Alpha virt. eigenvalues --    0.37196   0.37666   0.37853   0.38013   0.38409
 Alpha virt. eigenvalues --    0.38414   0.39421   0.39724   0.39754   0.40147
 Alpha virt. eigenvalues --    0.40281   0.40358   0.40527   0.40595   0.40619
 Alpha virt. eigenvalues --    0.40781   0.40834   0.40893   0.41094   0.41380
 Alpha virt. eigenvalues --    0.41641   0.41652   0.41738   0.41750   0.42364
 Alpha virt. eigenvalues --    0.42699   0.43033   0.43288   0.43539   0.43793
 Alpha virt. eigenvalues --    0.44193   0.44350   0.44735   0.44967   0.45067
 Alpha virt. eigenvalues --    0.45162   0.45982   0.46095   0.46114   0.46222
 Alpha virt. eigenvalues --    0.46292   0.46487   0.46513   0.46622   0.46852
 Alpha virt. eigenvalues --    0.47276   0.47417   0.47539   0.47596   0.48119
 Alpha virt. eigenvalues --    0.48174   0.48185   0.48467   0.48837   0.48984
 Alpha virt. eigenvalues --    0.49552   0.50631   0.51066   0.51529   0.51977
 Alpha virt. eigenvalues --    0.52160   0.52231   0.52553   0.52567   0.52761
 Alpha virt. eigenvalues --    0.52803   0.52954   0.53036   0.53580   0.53677
 Alpha virt. eigenvalues --    0.53849   0.53952   0.53998   0.54095   0.54346
 Alpha virt. eigenvalues --    0.54631   0.54916   0.54940   0.55153   0.55354
 Alpha virt. eigenvalues --    0.55363   0.55495   0.55733   0.55992   0.56060
 Alpha virt. eigenvalues --    0.56061   0.56339   0.56644   0.56686   0.56688
 Alpha virt. eigenvalues --    0.57013   0.57259   0.57325   0.57337   0.57425
 Alpha virt. eigenvalues --    0.57632   0.57837   0.57952   0.58054   0.58057
 Alpha virt. eigenvalues --    0.58335   0.58381   0.58493   0.58617   0.58901
 Alpha virt. eigenvalues --    0.59293   0.59412   0.59581   0.59736   0.60238
 Alpha virt. eigenvalues --    0.60285   0.60320   0.60456   0.60619   0.60950
 Alpha virt. eigenvalues --    0.60997   0.61006   0.61145   0.61471   0.61482
 Alpha virt. eigenvalues --    0.62293   0.62509   0.62654   0.63103   0.64025
 Alpha virt. eigenvalues --    0.64189   0.64458   0.64537   0.64553   0.65042
 Alpha virt. eigenvalues --    0.65168   0.65334   0.65429   0.65559   0.65653
 Alpha virt. eigenvalues --    0.66113   0.66148   0.67606   0.67694   0.68084
 Alpha virt. eigenvalues --    0.68185   0.68207   0.68607   0.68683   0.69057
 Alpha virt. eigenvalues --    0.69291   0.69446   0.70139   0.70606   0.70696
 Alpha virt. eigenvalues --    0.70770   0.70800   0.70965   0.71233   0.71509
 Alpha virt. eigenvalues --    0.71521   0.71824   0.71941   0.71944   0.71947
 Alpha virt. eigenvalues --    0.72158   0.72358   0.72402   0.72483   0.72733
 Alpha virt. eigenvalues --    0.73083   0.73096   0.73163   0.73349   0.73637
 Alpha virt. eigenvalues --    0.74169   0.74304   0.74603   0.74792   0.75171
 Alpha virt. eigenvalues --    0.75399   0.75456   0.75601   0.75924   0.76219
 Alpha virt. eigenvalues --    0.76274   0.76510   0.76582   0.76816   0.76868
 Alpha virt. eigenvalues --    0.76877   0.76911   0.77026   0.77162   0.77338
 Alpha virt. eigenvalues --    0.77486   0.77518   0.77525   0.77705   0.77981
 Alpha virt. eigenvalues --    0.78125   0.78156   0.78641   0.78703   0.79040
 Alpha virt. eigenvalues --    0.79153   0.79286   0.79415   0.79441   0.79463
 Alpha virt. eigenvalues --    0.79475   0.79539   0.79885   0.80081   0.80131
 Alpha virt. eigenvalues --    0.80173   0.80322   0.81249   0.81711   0.81814
 Alpha virt. eigenvalues --    0.81945   0.82089   0.82507   0.82770   0.82992
 Alpha virt. eigenvalues --    0.83194   0.83706   0.84084   0.84135   0.84295
 Alpha virt. eigenvalues --    0.84494   0.84529   0.84743   0.84911   0.85034
 Alpha virt. eigenvalues --    0.85041   0.85196   0.85492   0.85499   0.85564
 Alpha virt. eigenvalues --    0.85584   0.85790   0.85948   0.86001   0.86367
 Alpha virt. eigenvalues --    0.87026   0.87102   0.87117   0.87435   0.87851
 Alpha virt. eigenvalues --    0.88447   0.88483   0.88649   0.89126   0.89170
 Alpha virt. eigenvalues --    0.89522   0.90104   0.90317   0.90462   0.90854
 Alpha virt. eigenvalues --    0.91454   0.91512   0.91771   0.91779   0.91896
 Alpha virt. eigenvalues --    0.92206   0.92353   0.92353   0.92374   0.92690
 Alpha virt. eigenvalues --    0.92860   0.93434   0.93515   0.93766   0.94954
 Alpha virt. eigenvalues --    0.95007   0.95302   0.95872   0.96160   0.97063
 Alpha virt. eigenvalues --    0.98674   0.99380   0.99392   0.99524   1.00312
 Alpha virt. eigenvalues --    1.00464   1.01469   1.01688   1.01700   1.01705
 Alpha virt. eigenvalues --    1.01922   1.02175   1.02635   1.02641   1.02858
 Alpha virt. eigenvalues --    1.03322   1.03378   1.03418   1.03590   1.03856
 Alpha virt. eigenvalues --    1.03975   1.04729   1.05108   1.05430   1.06377
 Alpha virt. eigenvalues --    1.06421   1.06643   1.07119   1.07370   1.07690
 Alpha virt. eigenvalues --    1.08195   1.08208   1.08471   1.08591   1.08749
 Alpha virt. eigenvalues --    1.08811   1.08945   1.09942   1.10704   1.10961
 Alpha virt. eigenvalues --    1.11883   1.11886   1.12408   1.12925   1.12979
 Alpha virt. eigenvalues --    1.13097   1.14176   1.14784   1.15030   1.15415
 Alpha virt. eigenvalues --    1.15720   1.16386   1.16586   1.16733   1.17033
 Alpha virt. eigenvalues --    1.17617   1.18498   1.18844   1.18914   1.19833
 Alpha virt. eigenvalues --    1.20863   1.21003   1.21107   1.21375   1.22513
 Alpha virt. eigenvalues --    1.24557   1.24610   1.25286   1.26066   1.27091
 Alpha virt. eigenvalues --    1.27712   1.28160   1.28735   1.28938   1.29285
 Alpha virt. eigenvalues --    1.29721   1.29739   1.30109   1.30156   1.30390
 Alpha virt. eigenvalues --    1.30625   1.30640   1.30830   1.31540   1.31659
 Alpha virt. eigenvalues --    1.32418   1.32649   1.32778   1.32798   1.32877
 Alpha virt. eigenvalues --    1.33607   1.33693   1.33881   1.33961   1.34096
 Alpha virt. eigenvalues --    1.34164   1.34364   1.34808   1.34817   1.34968
 Alpha virt. eigenvalues --    1.35147   1.35192   1.35309   1.35447   1.35469
 Alpha virt. eigenvalues --    1.35571   1.35640   1.35782   1.35817   1.36211
 Alpha virt. eigenvalues --    1.36448   1.36564   1.37305   1.37838   1.37881
 Alpha virt. eigenvalues --    1.37902   1.38278   1.38290   1.38306   1.38355
 Alpha virt. eigenvalues --    1.38418   1.38446   1.38663   1.38748   1.39001
 Alpha virt. eigenvalues --    1.39076   1.39682   1.39969   1.40128   1.40404
 Alpha virt. eigenvalues --    1.41730   1.41893   1.42197   1.42283   1.42285
 Alpha virt. eigenvalues --    1.42981   1.43116   1.43148   1.43178   1.43363
 Alpha virt. eigenvalues --    1.43452   1.43551   1.43560   1.43812   1.44337
 Alpha virt. eigenvalues --    1.44384   1.46659   1.46720   1.46863   1.47200
 Alpha virt. eigenvalues --    1.47207   1.47334   1.47386   1.47624   1.47834
 Alpha virt. eigenvalues --    1.48441   1.48931   1.49013   1.49165   1.50215
 Alpha virt. eigenvalues --    1.50973   1.51274   1.52531   1.52709   1.52795
 Alpha virt. eigenvalues --    1.53015   1.53265   1.54020   1.54050   1.54281
 Alpha virt. eigenvalues --    1.54415   1.54487   1.56614   1.58026   1.58142
 Alpha virt. eigenvalues --    1.58334   1.58562   1.59784   1.60416   1.60730
 Alpha virt. eigenvalues --    1.60964   1.61402   1.63363   1.63413   1.63421
 Alpha virt. eigenvalues --    1.64006   1.64720   1.65280   1.65476   1.65883
 Alpha virt. eigenvalues --    1.66044   1.66637   1.69366   1.69939   1.70753
 Alpha virt. eigenvalues --    1.70952   1.71340   1.71478   1.72585   1.72910
 Alpha virt. eigenvalues --    1.74721   1.75654   1.75901   1.76440   1.77569
 Alpha virt. eigenvalues --    1.77674   1.77694   1.77807   1.77864   1.77910
 Alpha virt. eigenvalues --    1.78019   1.78039   1.78085   1.78158   1.78162
 Alpha virt. eigenvalues --    1.78188   1.78337   1.78499   1.78624   1.78891
 Alpha virt. eigenvalues --    1.78978   1.79471   1.80172   1.80498   1.81325
 Alpha virt. eigenvalues --    1.82859   1.83048   1.83337   1.83587   1.83962
 Alpha virt. eigenvalues --    1.84322   1.84370   1.84859   1.84966   1.85081
 Alpha virt. eigenvalues --    1.85119   1.85181   1.85318   1.85454   1.85488
 Alpha virt. eigenvalues --    1.85510   1.85675   1.85860   1.86282   1.86302
 Alpha virt. eigenvalues --    1.86383   1.86615   1.86687   1.87030   1.87667
 Alpha virt. eigenvalues --    1.87689   1.87766   1.87775   1.88337   1.88395
 Alpha virt. eigenvalues --    1.88467   1.88478   1.88630   1.88653   1.88716
 Alpha virt. eigenvalues --    1.88746   1.89046   1.89082   1.89115   1.89129
 Alpha virt. eigenvalues --    1.89210   1.89764   1.89782   1.90133   1.90151
 Alpha virt. eigenvalues --    1.90168   1.90656   1.90924   1.91728   1.91744
 Alpha virt. eigenvalues --    1.91902   1.91962   1.92088   1.92340   1.93766
 Alpha virt. eigenvalues --    1.93779   1.93864   1.95706   1.96269   1.96560
 Alpha virt. eigenvalues --    1.97401   1.97578   1.98014   1.99023   2.00064
 Alpha virt. eigenvalues --    2.00633   2.00692   2.00938   2.01172   2.01455
 Alpha virt. eigenvalues --    2.01508   2.02204   2.02401   2.03219   2.03298
 Alpha virt. eigenvalues --    2.03833   2.03982   2.04356   2.04529   2.04541
 Alpha virt. eigenvalues --    2.04574   2.04855   2.04858   2.05202   2.05277
 Alpha virt. eigenvalues --    2.05312   2.05554   2.05651   2.05688   2.05954
 Alpha virt. eigenvalues --    2.06078   2.06137   2.06991   2.07119   2.07309
 Alpha virt. eigenvalues --    2.07437   2.07738   2.07969   2.07983   2.08088
 Alpha virt. eigenvalues --    2.08217   2.08242   2.08627   2.08739   2.08819
 Alpha virt. eigenvalues --    2.08955   2.08959   2.09032   2.09228   2.09805
 Alpha virt. eigenvalues --    2.10033   2.10417   2.11260   2.11297   2.11373
 Alpha virt. eigenvalues --    2.11759   2.12031   2.12215   2.12309   2.13309
 Alpha virt. eigenvalues --    2.13694   2.14109   2.14199   2.14372   2.15130
 Alpha virt. eigenvalues --    2.15572   2.15624   2.16032   2.16538   2.19438
 Alpha virt. eigenvalues --    2.19480   2.19619   2.19628   2.19979   2.20589
 Alpha virt. eigenvalues --    2.23030   2.23315   2.23364   2.23683   2.23815
 Alpha virt. eigenvalues --    2.23863   2.23961   2.23995   2.24025   2.24245
 Alpha virt. eigenvalues --    2.24256   2.24303   2.24701   2.24788   2.24870
 Alpha virt. eigenvalues --    2.24879   2.25333   2.25565   2.25904   2.26163
 Alpha virt. eigenvalues --    2.26482   2.26545   2.26671   2.27149   2.27794
 Alpha virt. eigenvalues --    2.28026   2.28349   2.28590   2.28721   2.29481
 Alpha virt. eigenvalues --    2.29984   2.30240   2.30292   2.30329   2.30687
 Alpha virt. eigenvalues --    2.30987   2.31555   2.31675   2.31803   2.32627
 Alpha virt. eigenvalues --    2.33363   2.33831   2.34068   2.34565   2.34731
 Alpha virt. eigenvalues --    2.35005   2.35035   2.35211   2.35304   2.35395
 Alpha virt. eigenvalues --    2.35492   2.35646   2.35731   2.35751   2.36211
 Alpha virt. eigenvalues --    2.36995   2.37467   2.38404   2.38413   2.38523
 Alpha virt. eigenvalues --    2.38718   2.38770   2.39235   2.39235   2.39547
 Alpha virt. eigenvalues --    2.39660   2.39727   2.40464   2.40893   2.40960
 Alpha virt. eigenvalues --    2.41055   2.41090   2.41235   2.41548   2.41557
 Alpha virt. eigenvalues --    2.42109   2.43545   2.43586   2.43775   2.43794
 Alpha virt. eigenvalues --    2.44011   2.44682   2.44766   2.44874   2.45377
 Alpha virt. eigenvalues --    2.45593   2.45723   2.46360   2.47796   2.47881
 Alpha virt. eigenvalues --    2.48378   2.48728   2.48873   2.48907   2.49482
 Alpha virt. eigenvalues --    2.49716   2.49728   2.49878   2.51104   2.51992
 Alpha virt. eigenvalues --    2.55660   2.56338   2.56736   2.56754   2.56992
 Alpha virt. eigenvalues --    2.57241   2.57320   2.57724   2.57834   2.58219
 Alpha virt. eigenvalues --    2.59790   2.59816   2.59921   2.59961   2.61891
 Alpha virt. eigenvalues --    2.62079   2.64025   2.64089   2.66161   2.66218
 Alpha virt. eigenvalues --    2.66351   2.66424   2.66553   2.66571   2.66643
 Alpha virt. eigenvalues --    2.66670   2.68774   2.68811   2.69144   2.69358
 Alpha virt. eigenvalues --    2.69487   2.69531   2.69557   2.69623   2.69720
 Alpha virt. eigenvalues --    2.70069   2.70296   2.70369   2.71274   2.71588
 Alpha virt. eigenvalues --    2.74808   2.74820   2.74834   2.74923   2.75453
 Alpha virt. eigenvalues --    2.75519   2.75537   2.75671   2.76236   2.76483
 Alpha virt. eigenvalues --    2.76543   2.76724   2.77068   2.77555   2.77793
 Alpha virt. eigenvalues --    2.77827   2.78268   2.78304   2.78652   2.79842
 Alpha virt. eigenvalues --    2.79880   2.80087   2.80113   2.80610   2.80645
 Alpha virt. eigenvalues --    2.80668   2.80696   2.80721   2.80763   2.80805
 Alpha virt. eigenvalues --    2.82837   2.82951   2.83653   2.83797   2.83960
 Alpha virt. eigenvalues --    2.84084   2.84100   2.84107   2.85007   2.85030
 Alpha virt. eigenvalues --    2.88160   2.88351   2.88852   2.89192   2.89494
 Alpha virt. eigenvalues --    2.90447   2.92619   2.93322   2.94217   2.94254
 Alpha virt. eigenvalues --    2.94333   2.94334   2.94720   2.94740   2.95412
 Alpha virt. eigenvalues --    2.95458   2.95660   2.95682   2.95857   2.96000
 Alpha virt. eigenvalues --    2.96219   2.96735   2.98143   2.98153   2.99044
 Alpha virt. eigenvalues --    2.99580   2.99934   3.00001   3.00018   3.00029
 Alpha virt. eigenvalues --    3.00915   3.01036   3.01735   3.01789   3.02284
 Alpha virt. eigenvalues --    3.02924   3.03287   3.03368   3.05684   3.06340
 Alpha virt. eigenvalues --    3.08203   3.08316   3.09074   3.09383   3.09393
 Alpha virt. eigenvalues --    3.09431   3.09662   3.09777   3.10872   3.11063
 Alpha virt. eigenvalues --    3.12673   3.12744   3.12928   3.12976   3.13715
 Alpha virt. eigenvalues --    3.13984   3.17184   3.17881   3.20624   3.20676
 Alpha virt. eigenvalues --    3.21034   3.21187   3.23235   3.23433   3.23639
 Alpha virt. eigenvalues --    3.23645   3.24764   3.24856   3.25398   3.25490
 Alpha virt. eigenvalues --    3.27810   3.27981   3.33872   3.33971   3.34232
 Alpha virt. eigenvalues --    3.34256   3.34364   3.34626   3.35707   3.35876
 Alpha virt. eigenvalues --    3.47499   3.47846   3.47871   3.47893   3.54386
 Alpha virt. eigenvalues --    3.54887   3.56971   3.57254   3.58860   3.58904
 Alpha virt. eigenvalues --    3.62522   3.62933   3.64576   3.64688   3.64898
 Alpha virt. eigenvalues --    3.65028   3.72127   3.72175   3.76331   3.76386
 Alpha virt. eigenvalues --    3.76426   3.76459   3.78761   3.78867   6.60245
 Alpha virt. eigenvalues --    6.60257   6.60465   6.60465   6.60903   6.60916
 Alpha virt. eigenvalues --    6.61162   6.61163   6.61164   6.61172   6.65090
 Alpha virt. eigenvalues --    6.65101   6.65101   6.65125
          Condensed to atoms (all electrons):
 Mulliken charges:
               1
     1  C    0.023217
     2  C    0.024242
     3  C   -0.069164
     4  C    0.099326
     5  C    0.100445
     6  C   -0.069825
     7  C   -0.069963
     8  C   -0.074451
     9  N   -0.203442
    10  N    0.105304
    11  N    0.113954
    12  H   -0.007768
    13  H   -0.007382
    14  H   -0.010439
    15  H   -0.013021
    16  C    0.001522
    17  C    0.001522
    18  C   -0.062884
    19  C    0.104954
    20  C    0.104954
    21  C   -0.062884
    22  C   -0.071801
    23  C   -0.071801
    24  N   -0.201167
    25  N    0.113954
    26  H   -0.000932
    27  H   -0.000932
    28  H   -0.008203
    29  H   -0.008203
    30  C    0.023857
    31  C    0.023857
    32  C   -0.068715
    33  C    0.100093
    34  C    0.100093
    35  C   -0.068715
    36  C   -0.072961
    37  C   -0.072961
    38  N   -0.205908
    39  N    0.105304
    40  H   -0.007229
    41  H   -0.007229
    42  H   -0.012967
    43  H   -0.012967
    44  C    0.024242
    45  C    0.023217
    46  C   -0.069825
    47  C    0.100445
    48  C    0.099326
    49  C   -0.069164
    50  C   -0.074451
    51  C   -0.069963
    52  N   -0.203442
    53  H   -0.007382
    54  H   -0.007768
    55  H   -0.013021
    56  H   -0.010439
    57  Zn   0.675538
    58  C    0.024242
    59  C    0.023217
    60  C   -0.069825
    61  C    0.100445
    62  C    0.099326
    63  C   -0.069164
    64  C   -0.074451
    65  C   -0.069963
    66  N   -0.203442
    67  N    0.113954
    68  N    0.105304
    69  H   -0.007382
    70  H   -0.007768
    71  H   -0.013021
    72  H   -0.010439
    73  C    0.023857
    74  C    0.023857
    75  C   -0.068715
    76  C    0.100093
    77  C    0.100093
    78  C   -0.068715
    79  C   -0.072961
    80  C   -0.072961
    81  N   -0.205908
    82  N    0.105304
    83  H   -0.007229
    84  H   -0.007229
    85  H   -0.012967
    86  H   -0.012967
    87  C    0.001522
    88  C    0.001522
    89  C   -0.062884
    90  C    0.104954
    91  C    0.104954
    92  C   -0.062884
    93  C   -0.071801
    94  C   -0.071801
    95  N   -0.201167
    96  N    0.113954
    97  H   -0.000932
    98  H   -0.000932
    99  H   -0.008203
   100  H   -0.008203
   101  C    0.023217
   102  C    0.024242
   103  C   -0.069164
   104  C    0.099326
   105  C    0.100445
   106  C   -0.069825
   107  C   -0.069963
   108  C   -0.074451
   109  N   -0.203442
   110  H   -0.007768
   111  H   -0.007382
   112  H   -0.010439
   113  H   -0.013021
   114  Zn   0.675538
 Sum of Mulliken charges =  -0.00000
 Mulliken charges with hydrogens summed into heavy atoms:
               1
     1  C    0.015449
     2  C    0.016860
     3  C   -0.079603
     4  C    0.099326
     5  C    0.100445
     6  C   -0.082846
     7  C   -0.069963
     8  C   -0.074451
     9  N   -0.203442
    10  N    0.105304
    11  N    0.113954
    16  C    0.000590
    17  C    0.000590
    18  C   -0.071087
    19  C    0.104954
    20  C    0.104954
    21  C   -0.071087
    22  C   -0.071801
    23  C   -0.071801
    24  N   -0.201167
    25  N    0.113954
    30  C    0.016628
    31  C    0.016628
    32  C   -0.081681
    33  C    0.100093
    34  C    0.100093
    35  C   -0.081681
    36  C   -0.072961
    37  C   -0.072961
    38  N   -0.205908
    39  N    0.105304
    44  C    0.016860
    45  C    0.015449
    46  C   -0.082846
    47  C    0.100445
    48  C    0.099326
    49  C   -0.079603
    50  C   -0.074451
    51  C   -0.069963
    52  N   -0.203442
    57  Zn   0.675538
    58  C    0.016860
    59  C    0.015449
    60  C   -0.082846
    61  C    0.100445
    62  C    0.099326
    63  C   -0.079603
    64  C   -0.074451
    65  C   -0.069963
    66  N   -0.203442
    67  N    0.113954
    68  N    0.105304
    73  C    0.016628
    74  C    0.016628
    75  C   -0.081681
    76  C    0.100093
    77  C    0.100093
    78  C   -0.081681
    79  C   -0.072961
    80  C   -0.072961
    81  N   -0.205908
    82  N    0.105304
    87  C    0.000590
    88  C    0.000590
    89  C   -0.071087
    90  C    0.104954
    91  C    0.104954
    92  C   -0.071087
    93  C   -0.071801
    94  C   -0.071801
    95  N   -0.201167
    96  N    0.113954
   101  C    0.015449
   102  C    0.016860
   103  C   -0.079603
   104  C    0.099326
   105  C    0.100445
   106  C   -0.082846
   107  C   -0.069963
   108  C   -0.074451
   109  N   -0.203442
   114  Zn   0.675538
 Electronic spatial extent (au):  <R**2>=          76210.9041
 Charge=             -0.0000 electrons
 Dipole moment (field-independent basis, Debye):
    X=             -0.0000    Y=             -0.0000    Z=             -0.0000  Tot=              0.0000
 Quadrupole moment (field-independent basis, Debye-Ang):
   XX=           -488.6211   YY=           -430.0527   ZZ=           -424.6906
   XY=             -1.2526   XZ=             -0.0000   YZ=              0.0000
 Traceless Quadrupole moment (field-independent basis, Debye-Ang):
   XX=            -40.8329   YY=             17.7354   ZZ=             23.0975
   XY=             -1.2526   XZ=             -0.0000   YZ=              0.0000
 Octapole moment (field-independent basis, Debye-Ang**2):
  XXX=             -0.0000  YYY=             -0.0000  ZZZ=             -0.0000  XYY=             -0.0000
  XXY=              0.0000  XXZ=             -0.0000  XZZ=             -0.0000  YZZ=             -0.0000
  YYZ=             -0.0000  XYZ=             -0.0000
 Hexadecapole moment (field-independent basis, Debye-Ang**3):
 XXXX=          -9497.3567 YYYY=         -58306.9347 ZZZZ=         -26954.5244 XXXY=          -8999.5492
 XXXZ=              0.0000 YYYX=          -7824.1847 YYYZ=              0.0000 ZZZX=             -0.0000
 ZZZY=              0.0000 XXYY=         -12949.6973 XXZZ=          -6946.7113 YYZZ=         -14898.3734
 XXYZ=             -0.0000 YYXZ=             -0.0000 ZZXY=          -2602.6681
 N-N= 1.572814730155D+04 E-N=-4.769050407451D+04  KE= 6.843021934160D+03
 Symmetry AG   KE= 2.413967305378D+03
 Symmetry BG   KE= 1.007569718948D+03
 Symmetry AU   KE= 1.007308426268D+03
 Symmetry BU   KE= 2.414176483566D+03

 Test job not archived.
 1\1\ WCSS.PL-BEM-CMOKC406W\SP\RLC-BLYP\def2SVP\C64H32N16Zn2\SERGEY\20-
 Apr-2026\0\\# lc-blyp/def2svp iop(3/107=0350000000,3/108=0350000000)\\
 monomer geom r2scan-3c\\0,1\C,0,0.701663,6.554204,0.\C,0,-0.701663,6.5
 54204,0.\C,0,1.422571,5.364926,0.\C,0,0.703967,4.174565,0.\C,0,-0.7039
 67,4.174565,0.\C,0,-1.422571,5.364926,0.\C,0,1.120422,2.78002,0.\C,0,-
 1.120422,2.78002,0.\N,0,0.,1.989101,0.\N,0,-2.390568,2.390568,0.\N,0,2
 .390568,2.390568,0.\H,0,1.231071,7.50255,0.\H,0,-1.231071,7.50255,0.\H
 ,0,2.508027,5.356475,0.\H,0,-2.508027,5.356475,0.\C,0,6.554204,-0.7016
 63,0.\C,0,6.554204,0.701663,0.\C,0,5.364926,-1.422571,0.\C,0,4.174565,
 -0.703967,0.\C,0,4.174565,0.703967,0.\C,0,5.364926,1.422571,0.\C,0,2.7
 8002,-1.120422,0.\C,0,2.78002,1.120422,0.\N,0,1.989101,0.,0.\N,0,2.390
 568,-2.390568,0.\H,0,7.50255,-1.231071,0.\H,0,7.50255,1.231071,0.\H,0,
 5.356475,-2.508027,0.\H,0,5.356475,2.508027,0.\C,0,-6.554204,0.701663,
 0.\C,0,-6.554204,-0.701663,0.\C,0,-5.364926,1.422571,0.\C,0,-4.174565,
 0.703967,0.\C,0,-4.174565,-0.703967,0.\C,0,-5.364926,-1.422571,0.\C,0,
 -2.78002,1.120422,0.\C,0,-2.78002,-1.120422,0.\N,0,-1.989101,0.,0.\N,0
 ,-2.390568,-2.390568,0.\H,0,-7.50255,1.231071,0.\H,0,-7.50255,-1.23107
 1,0.\H,0,-5.356475,2.508027,0.\H,0,-5.356475,-2.508027,0.\C,0,-0.70166
 3,-6.554204,0.\C,0,0.701663,-6.554204,0.\C,0,-1.422571,-5.364926,0.\C,
 0,-0.703967,-4.174565,0.\C,0,0.703967,-4.174565,0.\C,0,1.422571,-5.364
 926,0.\C,0,-1.120422,-2.78002,0.\C,0,1.120422,-2.78002,0.\N,0,0.,-1.98
 9101,0.\H,0,-1.231071,-7.50255,0.\H,0,1.231071,-7.50255,0.\H,0,-2.5080
 27,-5.356475,0.\H,0,2.508027,-5.356475,0.\Zn,0,0.,0.,0.\C,0,7.701663,6
 .554204,3.5\C,0,6.298337,6.554204,3.5\C,0,8.422571,5.364926,3.5\C,0,7.
 703967,4.174565,3.5\C,0,6.296033,4.174565,3.5\C,0,5.577429,5.364926,3.
 5\C,0,8.120422,2.78002,3.5\C,0,5.879578,2.78002,3.5\N,0,7.,1.989101,3.
 5\N,0,4.609432,2.390568,3.5\N,0,9.390568,2.390568,3.5\H,0,8.231071,7.5
 0255,3.5\H,0,5.768929,7.50255,3.5\H,0,9.508027,5.356475,3.5\H,0,4.4919
 73,5.356475,3.5\C,0,13.554204,-0.701663,3.5\C,0,13.554204,0.701663,3.5
 \C,0,12.364926,-1.422571,3.5\C,0,11.174565,-0.703967,3.5\C,0,11.174565
 ,0.703967,3.5\C,0,12.364926,1.422571,3.5\C,0,9.78002,-1.120422,3.5\C,0
 ,9.78002,1.120422,3.5\N,0,8.989101,0.,3.5\N,0,9.390568,-2.390568,3.5\H
 ,0,14.50255,-1.231071,3.5\H,0,14.50255,1.231071,3.5\H,0,12.356475,-2.5
 08027,3.5\H,0,12.356475,2.508027,3.5\C,0,0.445796,0.701663,3.5\C,0,0.4
 45796,-0.701663,3.5\C,0,1.635074,1.422571,3.5\C,0,2.825435,0.703967,3.
 5\C,0,2.825435,-0.703967,3.5\C,0,1.635074,-1.422571,3.5\C,0,4.21998,1.
 120422,3.5\C,0,4.21998,-1.120422,3.5\N,0,5.010899,0.,3.5\N,0,4.609432,
 -2.390568,3.5\H,0,-0.50255,1.231071,3.5\H,0,-0.50255,-1.231071,3.5\H,0
 ,1.643525,2.508027,3.5\H,0,1.643525,-2.508027,3.5\C,0,6.298337,-6.5542
 04,3.5\C,0,7.701663,-6.554204,3.5\C,0,5.577429,-5.364926,3.5\C,0,6.296
 033,-4.174565,3.5\C,0,7.703967,-4.174565,3.5\C,0,8.422571,-5.364926,3.
 5\C,0,5.879578,-2.78002,3.5\C,0,8.120422,-2.78002,3.5\N,0,7.,-1.989101
 ,3.5\H,0,5.768929,-7.50255,3.5\H,0,8.231071,-7.50255,3.5\H,0,4.491973,
 -5.356475,3.5\H,0,9.508027,-5.356475,3.5\Zn,0,7.,0.,3.5\\Version=ES64L
 -G09RevE.01\State=1-AG\HF=-6881.1754506\RMSD=9.743e-09\Dipole=0.,0.,0.
 \Quadrupole=13.18586,17.1724317,-30.3582917,0.,-0.93128,0.\PG=C02H [SG
 H(N4Zn2),X(C64H32N12)]\\@


 ABALONE: AN EXPRESSION OF DISBELIEF.
 Job cpu time:       0 days  0 hours 45 minutes 48.8 seconds.
 File lengths (MBytes):  RWF=    939 Int=      0 D2E=      0 Chk=     91 Scr=      1
 Normal termination of Gaussian 09 at Mon Apr 20 21:08:43 2026.
 Initial command:
 /opt/g09/l1.exe "/home/sergey/scratch/Gau-2525672.inp" -scrdir="/home/sergey/scratch/"
 Entering Link 1 = /opt/g09/l1.exe PID=   2527017.
  
 Copyright (c) 1988,1990,1992,1993,1995,1998,2003,2009,2015,
            Gaussian, Inc.  All Rights Reserved.
  
 This is part of the Gaussian(R) 09 program.  It is based on
 the Gaussian(R) 03 system (copyright 2003, Gaussian, Inc.),
 the Gaussian(R) 98 system (copyright 1998, Gaussian, Inc.),
 the Gaussian(R) 94 system (copyright 1995, Gaussian, Inc.),
 the Gaussian 92(TM) system (copyright 1992, Gaussian, Inc.),
 the Gaussian 90(TM) system (copyright 1990, Gaussian, Inc.),
 the Gaussian 88(TM) system (copyright 1988, Gaussian, Inc.),
 the Gaussian 86(TM) system (copyright 1986, Carnegie Mellon
 University), and the Gaussian 82(TM) system (copyright 1983,
 Carnegie Mellon University). Gaussian is a federally registered
 trademark of Gaussian, Inc.
  
 This software contains proprietary and confidential information,
 including trade secrets, belonging to Gaussian, Inc.
  
 This software is provided under written license and may be
 used, copied, transmitted, or stored only in accord with that
 written license.
  
 The following legend is applicable only to US Government
 contracts under FAR:
  
                    RESTRICTED RIGHTS LEGEND
  
 Use, reproduction and disclosure by the US Government is
 subject to restrictions as set forth in subparagraphs (a)
 and (c) of the Commercial Computer Software - Restricted
 Rights clause in FAR 52.227-19.
  
 Gaussian, Inc.
 340 Quinnipiac St., Bldg. 40, Wallingford CT 06492
  
  
 ---------------------------------------------------------------
 Warning -- This program may not be used in any manner that
 competes with the business of Gaussian, Inc. or will provide
 assistance to any competitor of Gaussian, Inc.  The licensee
 of this program is prohibited from giving any competitor of
 Gaussian, Inc. access to this program.  By using this program,
 the user acknowledges that Gaussian, Inc. is engaged in the
 business of creating and licensing software in the field of
 computational chemistry and represents and warrants to the
 licensee that it is not a competitor of Gaussian, Inc. and that
 it will not use this program in any manner prohibited above.
 ---------------------------------------------------------------
  

 Cite this work as:
 Gaussian 09, Revision E.01,
 M. J. Frisch, G. W. Trucks, H. B. Schlegel, G. E. Scuseria, 
 M. A. Robb, J. R. Cheeseman, G. Scalmani, V. Barone, B. Mennucci, 
 G. A. Petersson, H. Nakatsuji, M. Caricato, X. Li, H. P. Hratchian, 
 A. F. Izmaylov, J. Bloino, G. Zheng, J. L. Sonnenberg, M. Hada, 
 M. Ehara, K. Toyota, R. Fukuda, J. Hasegawa, M. Ishida, T. Nakajima, 
 Y. Honda, O. Kitao, H. Nakai, T. Vreven, J. A. Montgomery, Jr., 
 J. E. Peralta, F. Ogliaro, M. Bearpark, J. J. Heyd, E. Brothers, 
 K. N. Kudin, V. N. Staroverov, T. Keith, R. Kobayashi, J. Normand, 
 K. Raghavachari, A. Rendell, J. C. Burant, S. S. Iyengar, J. Tomasi, 
 M. Cossi, N. Rega, J. M. Millam, M. Klene, J. E. Knox, J. B. Cross, 
 V. Bakken, C. Adamo, J. Jaramillo, R. Gomperts, R. E. Stratmann, 
 O. Yazyev, A. J. Austin, R. Cammi, C. Pomelli, J. W. Ochterski, 
 R. L. Martin, K. Morokuma, V. G. Zakrzewski, G. A. Voth, 
 P. Salvador, J. J. Dannenberg, S. Dapprich, A. D. Daniels, 
 O. Farkas, J. B. Foresman, J. V. Ortiz, J. Cioslowski, 
 and D. J. Fox, Gaussian, Inc., Wallingford CT, 2013.
 
 ******************************************
 Gaussian 09:  ES64L-G09RevE.01 30-Nov-2015
                20-Apr-2026 
 ******************************************
 %chk=ZnPc2_35_70.chk
 %mem=100GB
 %nproc=8
 Will use up to    8 processors via shared memory.
 Default route:  MaxDisk=100GW
 ----------------------------------------------------------------------
 # td(nstates=6) lc-blyp/gen iop(3/107=0350000000,3/108=0350000000) geo
 m=check guess=read
 ----------------------------------------------------------------------
 1/29=2,38=1/1;
 2/12=2,40=1/2;
 3/5=7,11=9,14=-4,16=1,25=1,30=1,74=1000402,107=350000000,108=350000000,116=-2/1,2,8,3;
 4/5=1/1;
 5/5=2,38=6/2;
 8/6=1,10=1,108=6/1;
 9/41=6,42=1,70=2/14;
 6/7=2,8=2,9=2,10=2/1;
 99/5=1,9=1/99;
 ----------------------------------
 def2tzvp-f, monomer geom r2scan-3c
 ----------------------------------
 Structure from the checkpoint file:  "ZnPc2_35_70.chk"
 Charge =  0 Multiplicity = 1
 Z-Matrix found in file.
 C,0,0.701663,6.554204,0.
 C,0,-0.701663,6.554204,0.
 C,0,1.422571,5.364926,0.
 C,0,0.703967,4.174565,0.
 C,0,-0.703967,4.174565,0.
 C,0,-1.422571,5.364926,0.
 C,0,1.120422,2.78002,0.
 C,0,-1.120422,2.78002,0.
 N,0,0.,1.989101,0.
 N,0,-2.390568,2.390568,0.
 N,0,2.390568,2.390568,0.
 H,0,1.231071,7.50255,0.
 H,0,-1.231071,7.50255,0.
 H,0,2.508027,5.356475,0.
 H,0,-2.508027,5.356475,0.
 C,0,6.554204,-0.701663,0.
 C,0,6.554204,0.701663,0.
 C,0,5.364926,-1.422571,0.
 C,0,4.174565,-0.703967,0.
 C,0,4.174565,0.703967,0.
 C,0,5.364926,1.422571,0.
 C,0,2.78002,-1.120422,0.
 C,0,2.78002,1.120422,0.
 N,0,1.989101,0.,0.
 N,0,2.390568,-2.390568,0.
 H,0,7.50255,-1.231071,0.
 H,0,7.50255,1.231071,0.
 H,0,5.356475,-2.508027,0.
 H,0,5.356475,2.508027,0.
 C,0,-6.554204,0.701663,0.
 C,0,-6.554204,-0.701663,0.
 C,0,-5.364926,1.422571,0.
 C,0,-4.174565,0.703967,0.
 C,0,-4.174565,-0.703967,0.
 C,0,-5.364926,-1.422571,0.
 C,0,-2.78002,1.120422,0.
 C,0,-2.78002,-1.120422,0.
 N,0,-1.989101,0.,0.
 N,0,-2.390568,-2.390568,0.
 H,0,-7.50255,1.231071,0.
 H,0,-7.50255,-1.231071,0.
 H,0,-5.356475,2.508027,0.
 H,0,-5.356475,-2.508027,0.
 C,0,-0.701663,-6.554204,0.
 C,0,0.701663,-6.554204,0.
 C,0,-1.422571,-5.364926,0.
 C,0,-0.703967,-4.174565,0.
 C,0,0.703967,-4.174565,0.
 C,0,1.422571,-5.364926,0.
 C,0,-1.120422,-2.78002,0.
 C,0,1.120422,-2.78002,0.
 N,0,0.,-1.989101,0.
 H,0,-1.231071,-7.50255,0.
 H,0,1.231071,-7.50255,0.
 H,0,-2.508027,-5.356475,0.
 H,0,2.508027,-5.356475,0.
 Zn,0,0.,0.,0.
 C,0,7.701663,6.554204,3.5
 C,0,6.298337,6.554204,3.5
 C,0,8.422571,5.364926,3.5
 C,0,7.703967,4.174565,3.5
 C,0,6.296033,4.174565,3.5
 C,0,5.577429,5.364926,3.5
 C,0,8.120422,2.78002,3.5
 C,0,5.879578,2.78002,3.5
 N,0,7.,1.989101,3.5
 N,0,4.609432,2.390568,3.5
 N,0,9.390568,2.390568,3.5
 H,0,8.231071,7.50255,3.5
 H,0,5.768929,7.50255,3.5
 H,0,9.508027,5.356475,3.5
 H,0,4.491973,5.356475,3.5
 C,0,13.554204,-0.701663,3.5
 C,0,13.554204,0.701663,3.5
 C,0,12.364926,-1.422571,3.5
 C,0,11.174565,-0.703967,3.5
 C,0,11.174565,0.703967,3.5
 C,0,12.364926,1.422571,3.5
 C,0,9.78002,-1.120422,3.5
 C,0,9.78002,1.120422,3.5
 N,0,8.989101,0.,3.5
 N,0,9.390568,-2.390568,3.5
 H,0,14.50255,-1.231071,3.5
 H,0,14.50255,1.231071,3.5
 H,0,12.356475,-2.508027,3.5
 H,0,12.356475,2.508027,3.5
 C,0,0.445796,0.701663,3.5
 C,0,0.445796,-0.701663,3.5
 C,0,1.635074,1.422571,3.5
 C,0,2.825435,0.703967,3.5
 C,0,2.825435,-0.703967,3.5
 C,0,1.635074,-1.422571,3.5
 C,0,4.21998,1.120422,3.5
 C,0,4.21998,-1.120422,3.5
 N,0,5.010899,0.,3.5
 N,0,4.609432,-2.390568,3.5
 H,0,-0.50255,1.231071,3.5
 H,0,-0.50255,-1.231071,3.5
 H,0,1.643525,2.508027,3.5
 H,0,1.643525,-2.508027,3.5
 C,0,6.298337,-6.554204,3.5
 C,0,7.701663,-6.554204,3.5
 C,0,5.577429,-5.364926,3.5
 C,0,6.296033,-4.174565,3.5
 C,0,7.703967,-4.174565,3.5
 C,0,8.422571,-5.364926,3.5
 C,0,5.879578,-2.78002,3.5
 C,0,8.120422,-2.78002,3.5
 N,0,7.,-1.989101,3.5
 H,0,5.768929,-7.50255,3.5
 H,0,8.231071,-7.50255,3.5
 H,0,4.491973,-5.356475,3.5
 H,0,9.508027,-5.356475,3.5
 Zn,0,7.,0.,3.5
 Recover connectivity data from disk.
 Stoichiometry    C64H32N16Zn2
 Framework group  C2H[SGH(N4Zn2),X(C64H32N12)]
 Deg. of freedom    86
 Full point group                 C2H     NOp   4
 Largest Abelian subgroup         C2H     NOp   4
 Largest concise Abelian subgroup C2H     NOp   4
                         Standard orientation:                         
 ---------------------------------------------------------------------
 Center     Atomic      Atomic             Coordinates (Angstroms)
 Number     Number       Type             X           Y           Z
 ---------------------------------------------------------------------
      1          6           0        1.750000    2.798337    6.554204
      2          6           0        1.750000    4.201663    6.554204
      3          6           0        1.750000    2.077429    5.364926
      4          6           0        1.750000    2.796033    4.174565
      5          6           0        1.750000    4.203967    4.174565
      6          6           0        1.750000    4.922571    5.364926
      7          6           0        1.750000    2.379578    2.780020
      8          6           0        1.750000    4.620422    2.780020
      9          7           0        1.750000    3.500000    1.989101
     10          7           0        1.750000    5.890568    2.390568
     11          7           0        1.750000    1.109432    2.390568
     12          1           0        1.750000    2.268929    7.502550
     13          1           0        1.750000    4.731071    7.502550
     14          1           0        1.750000    0.991973    5.356475
     15          1           0        1.750000    6.008027    5.356475
     16          6           0        1.750000   -3.054204   -0.701663
     17          6           0        1.750000   -3.054204    0.701663
     18          6           0        1.750000   -1.864926   -1.422571
     19          6           0        1.750000   -0.674565   -0.703967
     20          6           0        1.750000   -0.674565    0.703967
     21          6           0        1.750000   -1.864926    1.422571
     22          6           0        1.750000    0.719980   -1.120422
     23          6           0        1.750000    0.719980    1.120422
     24          7           0        1.750000    1.510899    0.000000
     25          7           0        1.750000    1.109432   -2.390568
     26          1           0        1.750000   -4.002550   -1.231071
     27          1           0        1.750000   -4.002550    1.231071
     28          1           0        1.750000   -1.856475   -2.508027
     29          1           0        1.750000   -1.856475    2.508027
     30          6           0        1.750000   10.054204    0.701663
     31          6           0        1.750000   10.054204   -0.701663
     32          6           0        1.750000    8.864926    1.422571
     33          6           0        1.750000    7.674565    0.703967
     34          6           0        1.750000    7.674565   -0.703967
     35          6           0        1.750000    8.864926   -1.422571
     36          6           0        1.750000    6.280020    1.120422
     37          6           0        1.750000    6.280020   -1.120422
     38          7           0        1.750000    5.489101    0.000000
     39          7           0        1.750000    5.890568   -2.390568
     40          1           0        1.750000   11.002550    1.231071
     41          1           0        1.750000   11.002550   -1.231071
     42          1           0        1.750000    8.856475    2.508027
     43          1           0        1.750000    8.856475   -2.508027
     44          6           0        1.750000    4.201663   -6.554204
     45          6           0        1.750000    2.798337   -6.554204
     46          6           0        1.750000    4.922571   -5.364926
     47          6           0        1.750000    4.203967   -4.174565
     48          6           0        1.750000    2.796033   -4.174565
     49          6           0        1.750000    2.077429   -5.364926
     50          6           0        1.750000    4.620422   -2.780020
     51          6           0        1.750000    2.379578   -2.780020
     52          7           0        1.750000    3.500000   -1.989101
     53          1           0        1.750000    4.731071   -7.502550
     54          1           0        1.750000    2.268929   -7.502550
     55          1           0        1.750000    6.008027   -5.356475
     56          1           0        1.750000    0.991973   -5.356475
     57         30           0        1.750000    3.500000    0.000000
     58          6           0       -1.750000   -4.201663    6.554204
     59          6           0       -1.750000   -2.798337    6.554204
     60          6           0       -1.750000   -4.922571    5.364926
     61          6           0       -1.750000   -4.203967    4.174565
     62          6           0       -1.750000   -2.796033    4.174565
     63          6           0       -1.750000   -2.077429    5.364926
     64          6           0       -1.750000   -4.620422    2.780020
     65          6           0       -1.750000   -2.379578    2.780020
     66          7           0       -1.750000   -3.500000    1.989101
     67          7           0       -1.750000   -1.109432    2.390568
     68          7           0       -1.750000   -5.890568    2.390568
     69          1           0       -1.750000   -4.731071    7.502550
     70          1           0       -1.750000   -2.268929    7.502550
     71          1           0       -1.750000   -6.008027    5.356475
     72          1           0       -1.750000   -0.991973    5.356475
     73          6           0       -1.750000  -10.054204   -0.701663
     74          6           0       -1.750000  -10.054204    0.701663
     75          6           0       -1.750000   -8.864926   -1.422571
     76          6           0       -1.750000   -7.674565   -0.703967
     77          6           0       -1.750000   -7.674565    0.703967
     78          6           0       -1.750000   -8.864926    1.422571
     79          6           0       -1.750000   -6.280020   -1.120422
     80          6           0       -1.750000   -6.280020    1.120422
     81          7           0       -1.750000   -5.489101    0.000000
     82          7           0       -1.750000   -5.890568   -2.390568
     83          1           0       -1.750000  -11.002550   -1.231071
     84          1           0       -1.750000  -11.002550    1.231071
     85          1           0       -1.750000   -8.856475   -2.508027
     86          1           0       -1.750000   -8.856475    2.508027
     87          6           0       -1.750000    3.054204    0.701663
     88          6           0       -1.750000    3.054204   -0.701663
     89          6           0       -1.750000    1.864926    1.422571
     90          6           0       -1.750000    0.674565    0.703967
     91          6           0       -1.750000    0.674565   -0.703967
     92          6           0       -1.750000    1.864926   -1.422571
     93          6           0       -1.750000   -0.719980    1.120422
     94          6           0       -1.750000   -0.719980   -1.120422
     95          7           0       -1.750000   -1.510899   -0.000000
     96          7           0       -1.750000   -1.109432   -2.390568
     97          1           0       -1.750000    4.002550    1.231071
     98          1           0       -1.750000    4.002550   -1.231071
     99          1           0       -1.750000    1.856475    2.508027
    100          1           0       -1.750000    1.856475   -2.508027
    101          6           0       -1.750000   -2.798337   -6.554204
    102          6           0       -1.750000   -4.201663   -6.554204
    103          6           0       -1.750000   -2.077429   -5.364926
    104          6           0       -1.750000   -2.796033   -4.174565
    105          6           0       -1.750000   -4.203967   -4.174565
    106          6           0       -1.750000   -4.922571   -5.364926
    107          6           0       -1.750000   -2.379578   -2.780020
    108          6           0       -1.750000   -4.620422   -2.780020
    109          7           0       -1.750000   -3.500000   -1.989101
    110          1           0       -1.750000   -2.268929   -7.502550
    111          1           0       -1.750000   -4.731071   -7.502550
    112          1           0       -1.750000   -0.991973   -5.356475
    113          1           0       -1.750000   -6.008027   -5.356475
    114         30           0       -1.750000   -3.500000    0.000000
 ---------------------------------------------------------------------
 Rotational constants (GHZ):      0.0395646      0.0174486      0.0130140
 General basis read from cards:  (5D, 7F)
 There are   618 symmetry adapted cartesian basis functions of AG  symmetry.
 There are   573 symmetry adapted cartesian basis functions of BG  symmetry.
 There are   573 symmetry adapted cartesian basis functions of AU  symmetry.
 There are   618 symmetry adapted cartesian basis functions of BU  symmetry.
 There are   570 symmetry adapted basis functions of AG  symmetry.
 There are   534 symmetry adapted basis functions of BG  symmetry.
 There are   534 symmetry adapted basis functions of AU  symmetry.
 There are   570 symmetry adapted basis functions of BU  symmetry.
  2208 basis functions,  3746 primitive gaussians,  2382 cartesian basis functions
   294 alpha electrons      294 beta electrons
       nuclear repulsion energy     15728.1473015476 Hartrees.
 NAtoms=  114 NActive=  114 NUniq=   30 SFac= 4.00D+00 NAtFMM=   60 NAOKFM=T Big=F
 Integral buffers will be    131072 words long.
 Raffenetti 1 integral format.
 Two-electron integral symmetry is turned on.
 One-electron integrals computed using PRISM.
 NBasis=  2208 RedAO= T EigKep=  1.01D-06  NBF=   570   534   534   570
 NBsUse=  2208 1.00D-06 EigRej= -1.00D+00 NBFU=   570   534   534   570
 Initial guess from the checkpoint file:  "ZnPc2_35_70.chk"
 B after Tr=     0.000000   -0.000000    0.000000
         Rot=    1.000000    0.000000    0.000000    0.000000 Ang=   0.00 deg.
 Initial guess orbital symmetries:
       Occupied  (AG) (BU) (AG) (BU) (BU) (AG) (BG) (AU) (AG) (BU)
                 (BU) (AG) (BG) (AU) (BU) (AG) (BU) (AG) (BU) (AG)
                 (BG) (AU) (BU) (BG) (AG) (AU) (AU) (BG) (BU) (AG)
                 (BG) (AU) (BU) (AG) (AU) (BG) (BU) (AG) (BG) (AU)
                 (BU) (AG) (BG) (AU) (AG) (BU) (BU) (AG) (BG) (AU)
                 (BG) (AU) (BU) (AG) (BG) (AU) (AG) (BU) (AU) (AG)
                 (BG) (BU) (BU) (AG) (BG) (AU) (BG) (AU) (BU) (AG)
                 (BU) (AG) (AU) (AG) (BG) (BU) (BG) (AU) (BU) (AG)
                 (BG) (AU) (BU) (AG) (BG) (AU) (AU) (AG) (BG) (BU)
                 (BU) (AG) (BU) (AG) (AU) (BG) (AG) (BU) (AG) (BU)
                 (AG) (AU) (BG) (BU) (AG) (BU) (AU) (BG) (AU) (AG)
                 (BU) (BG) (AG) (BU) (BU) (AG) (AU) (BG) (AG) (BU)
                 (BU) (AG) (AU) (BG) (AG) (BU) (AU) (AG) (BU) (BG)
                 (BG) (AG) (BU) (AU) (BU) (AG) (BG) (AU) (AU) (BG)
                 (AU) (AG) (BU) (BG) (AG) (BU) (BU) (AG) (AG) (AU)
                 (BU) (BG) (AU) (BG) (AG) (BU) (AU) (BG) (BU) (AG)
                 (AU) (BG) (BG) (AU) (AG) (BU) (AG) (AU) (BU) (BG)
                 (AG) (BU) (AG) (BU) (BG) (AU) (AU) (BG) (AU) (BG)
                 (AG) (BU) (BU) (AG) (AG) (BU) (AG) (AU) (BG) (BU)
                 (AG) (AU) (BG) (BU) (BU) (AG) (AU) (BG) (AG) (BU)
                 (AU) (BG) (BU) (AG) (AG) (AU) (BG) (AU) (BG) (BU)
                 (AG) (BU) (AG) (AU) (BG) (BU) (AU) (BG) (AG) (BU)
                 (AU) (BG) (BU) (AU) (AG) (BG) (BU) (AG) (BU) (AG)
                 (AU) (BG) (BU) (AU) (AG) (BU) (BG) (AG) (BG) (AU)
                 (BG) (AU) (BU) (AG) (BU) (AG) (AU) (BG) (AG) (AU)
                 (BG) (BU) (AG) (BU) (AU) (BU) (AG) (BG) (AG) (BU)
                 (AU) (AG) (BU) (BG) (AG) (BU) (AG) (AU) (BG) (BU)
                 (AU) (BG) (AU) (BG) (AG) (BG) (AU) (BU) (BG) (AG)
                 (BU) (AU) (BU) (AU) (AG) (BU) (BG) (AG) (BU) (AG)
                 (BU) (AG) (AU) (BG)
       Virtual   (AU) (AG) (BU) (BG) (AU) (BG) (AG) (BU) (BU) (AG)
                 (AG) (AU) (BG) (BU) (AG) (BG) (BU) (AU) (AU) (BG)
                 (BU) (AG) (AG) (BU) (AU) (AG) (BU) (AG) (BU) (BG)
                 (AG) (BG) (AU) (BU) (AG) (AU) (BU) (BG) (AG) (AU)
                 (BG) (BU) (AG) (AU) (BU) (BG) (AU) (AG) (BG) (AG)
                 (BG) (BU) (BU) (AU) (AU) (BG) (AG) (BU) (AG) (AU)
                 (BU) (AG) (BG) (BU) (AG) (AU) (BG) (AU) (BU) (BG)
                 (AG) (AU) (BU) (BG) (AU) (AG) (AU) (BG) (BU) (BG)
                 (AG) (BU) (BG) (AU) (AU) (BG) (AG) (AG) (BU) (BU)
                 (AU) (BG) (AU) (BG) (BG) (AG) (BU) (AU) (BG) (AU)
                 (BU) (AG) (AG) (AU) (BG) (AG) (BU) (AU) (AU) (BU)
                 (BG) (AG) (BU) (BU) (BG) (AU) (AG) (BG) (AG) (BU)
                 (AG) (BU) (AU) (AG) (BU) (AG) (BG) (AG) (AU) (BU)
                 (BU) (BG) (AG) (AU) (BG) (AG) (BU) (BU) (AU) (AG)
                 (BU) (AU) (BG) (AG) (BU) (BG) (BG) (BU) (AG) (AG)
                 (AU) (AU) (BG) (AU) (BG) (AG) (BU) (BG) (AU) (BU)
                 (AG) (BG) (BU) (AU) (BU) (AG) (BG) (AU) (AG) (BU)
                 (AG) (AG) (BU) (AU) (BG) (AU) (BU) (BU) (BG) (AU)
                 (BG) (AG) (AG) (BG) (BU) (AU) (AG) (AU) (BU) (BU)
                 (AG) (BG) (AU) (AG) (AU) (BU) (BG) (AG) (BU) (AU)
                 (BG) (AU) (BG) (AG) (BU) (BU) (AG) (AG) (BG) (BU)
                 (AU) (BG) (AU) (BU) (AG) (AG) (AU) (AG) (BU) (BG)
                 (BG) (AU) (BG) (BG) (BU) (AU) (AG) (BU) (AU) (AG)
                 (AU) (BG) (AG) (BU) (BG) (AU) (BU) (AG) (BG) (AU)
                 (BG) (AG) (BU) (BG) (AU) (AU) (BG) (BU) (AG) (BU)
                 (AG) (AU) (AU) (BG) (BG) (AG) (BU) (AU) (BU) (AU)
                 (BG) (AG) (BG) (AU) (AG) (BG) (BU) (BU) (AG) (AG)
                 (AU) (BU) (AU) (BG) (BU) (AG) (AG) (BG) (AU) (BU)
                 (BG) (BU) (AG) (AU) (BU) (BG) (AG) (BU) (AU) (AU)
                 (BG) (BU) (AG) (AG) (BG) (AU) (BU) (AG) (BU) (BU)
                 (AU) (BG) (AG) (AU) (AG) (BG) (BU) (AG) (BG) (AU)
                 (BG) (BU) (AU) (BG) (AU) (AG) (BG) (BU) (BG) (AG)
                 (AU) (AU) (AU) (AG) (BG) (BU) (BU) (BG) (AG) (AU)
                 (BG) (BU) (AG) (BG) (BU) (AG) (AU) (BU) (AU) (AG)
                 (BG) (AU) (AG) (BG) (AU) (BU) (BG) (AG) (BG) (BU)
                 (AU) (AU) (BG) (BU) (AG) (AU) (BU) (BG) (AU) (AG)
                 (BG) (AU) (BU) (AG) (BU) (BG) (BU) (BG) (AG) (AU)
                 (AG) (AU) (BU) (AU) (BG) (AG) (BG) (BU) (BU) (AG)
                 (BU) (AU) (AG) (AG) (BU) (BG) (BG) (BU) (AU) (BG)
                 (AU) (BG) (AG) (AU) (AG) (BU) (AU) (BU) (AG) (BG)
                 (BG) (AU) (BG) (AU) (AG) (AU) (BU) (BG) (AU) (AU)
                 (BG) (AG) (BU) (BG) (AG) (BU) (AG) (AU) (BU) (BU)
                 (AG) (BG) (BG) (AG) (BU) (AG) (AU) (BU) (AG) (AG)
                 (AU) (BG) (AU) (BG) (BU) (BU) (AG) (BU) (BG) (AU)
                 (BU) (AU) (BG) (AG) (AU) (BG) (AG) (BU) (AU) (BG)
                 (BG) (BU) (AU) (AG) (AU) (BU) (AG) (BG) (BU) (AG)
                 (BG) (AG) (AU) (BG) (AU) (BU) (AG) (AG) (BU) (BU)
                 (BG) (AU) (AG) (BU) (AU) (BU) (AG) (BU) (AG) (BG)
                 (AG) (BU) (AU) (AG) (BU) (BG) (BU) (BG) (AG) (AG)
                 (AU) (BU) (AG) (BG) (AU) (BU) (AG) (BG) (AU) (BU)
                 (AU) (BG) (BU) (AU) (AG) (BU) (BU) (BG) (AG) (BG)
                 (AU) (AG) (AG) (BG) (AU) (BU) (AG) (BU) (AG) (BU)
                 (AU) (BG) (AG) (BU) (AU) (BG) (AG) (BG) (AU) (BU)
                 (BG) (BU) (AU) (AG) (AU) (BG) (AU) (BU) (AG) (AG)
                 (BG) (BU) (AU) (AU) (BU) (AG) (AU) (BG) (BG) (AG)
                 (BU) (BG) (AU) (BG) (AU) (AG) (BU) (BG) (AG) (AU)
                 (BU) (AG) (BG) (AU) (BU) (AG) (BG) (AU) (BU) (BG)
                 (BU) (AG) (BG) (AG) (AU) (BU) (BG) (AG) (AU) (BG)
                 (AU) (BU) (AG) (AU) (BG) (AU) (BG) (BU) (BU) (AG)
                 (AG) (BU) (AG) (BU) (AU) (AG) (BG) (BU) (AU) (AG)
                 (BU) (BG) (AU) (BG) (AG) (BU) (AG) (BG) (AU) (AG)
                 (BU) (BU) (AG) (AU) (BU) (AU) (BG) (BG) (AU) (BG)
                 (AG) (BU) (BG) (AU) (AG) (AU) (BU) (AG) (BU) (AG)
                 (BU) (AG) (BG) (BU) (AG) (AU) (AG) (BG) (BU) (BU)
                 (AU) (AG) (BG) (BG) (AU) (AU) (BG) (AG) (BU) (BG)
                 (AU) (BG) (AU) (AG) (BU) (BG) (AG) (BU) (BU) (AU)
                 (BG) (AG) (BU) (AU) (AG) (BG) (BU) (AG) (AU) (AU)
                 (BU) (BG) (AG) (AU) (BG) (AU) (BU) (BG) (AG) (BU)
                 (AG) (BU) (AU) (AG) (BU) (BG) (BG) (AU) (AU) (BG)
                 (BU) (AG) (BU) (BU) (AU) (AG) (BG) (AG) (BU) (BG)
                 (AU) (AG) (AU) (BU) (BG) (BU) (AG) (AG) (BU) (BG)
                 (AU) (AG) (BG) (AU) (BU) (AG) (BG) (BU) (AU) (AG)
                 (BU) (AG) (AU) (BG) (BG) (BU) (AG) (BU) (AU) (AG)
                 (BG) (BU) (AU) (AG) (BU) (AU) (BG) (AG) (BU) (AG)
                 (AU) (BG) (BU) (AG) (BU) (BG) (AG) (AU) (BG) (AU)
                 (AU) (BG) (AG) (AU) (BU) (AG) (BG) (AU) (BU) (BG)
                 (AG) (BU) (AU) (BU) (BG) (AG) (BU) (AG) (BG) (AU)
                 (BU) (AU) (BG) (AG) (AG) (AU) (BU) (BG) (AU) (BG)
                 (BU) (AG) (BG) (AU) (BU) (AU) (BG) (AG) (AU) (BG)
                 (BU) (AG) (AU) (BG) (AU) (BU) (AG) (BG) (AU) (BG)
                 (AU) (AG) (BU) (BG) (AU) (BU) (AG) (BU) (AG) (BG)
                 (AG) (AU) (BU) (BG) (AG) (AU) (BG) (BU) (AG) (BG)
                 (AG) (AU) (BU) (BG) (BU) (AU) (AG) (AU) (BG) (BU)
                 (AG) (AU) (BG) (BU) (AG) (BU) (AU) (BG) (AU) (BG)
                 (AG) (BU) (BU) (AG) (AG) (AU) (BG) (BU) (BU) (AG)
                 (AG) (BU) (BG) (AU) (BU) (AU) (BG) (AU) (BG) (AG)
                 (AG) (AU) (BG) (BU) (BG) (AU) (BG) (AU) (BU) (AG)
                 (BG) (AU) (AG) (BU) (AU) (BG) (BG) (BU) (AG) (BG)
                 (AU) (BU) (AG) (AU) (BG) (BU) (AU) (AG) (AG) (BU)
                 (AG) (BU) (BG) (AU) (AG) (AU) (BG) (BU) (AG) (AU)
                 (BG) (BU) (AU) (BG) (AU) (BG) (BG) (AU) (BG) (AU)
                 (AG) (BU) (BG) (AG) (BU) (AU) (AG) (AU) (BG) (BU)
                 (AU) (BG) (AG) (BU) (AU) (AG) (BG) (BU) (AG) (BU)
                 (AG) (BU) (AG) (AU) (BG) (BU) (AG) (BU) (BG) (BU)
                 (AU) (AG) (BG) (AU) (BG) (AG) (BU) (AU) (AG) (BU)
                 (AU) (BG) (BG) (AU) (AG) (BU) (AG) (BU) (BG) (AU)
                 (AG) (BU) (AG) (AU) (BG) (AU) (BU) (BG) (AU) (BG)
                 (AG) (BU) (AU) (AG) (BG) (BU) (AU) (BG) (AU) (BG)
                 (BG) (AG) (AU) (BU) (AU) (BG) (AG) (BU) (BU) (AU)
                 (BG) (AG) (AU) (BU) (BG) (AG) (AG) (AU) (BU) (BG)
                 (BU) (AG) (AU) (BG) (AG) (BG) (BU) (AU) (BG) (AU)
                 (AG) (AU) (BG) (BU) (AG) (BU) (AG) (BU) (BG) (AU)
                 (AU) (BG) (AU) (AG) (BU) (BG) (AU) (BG) (AG) (BG)
                 (AU) (BU) (AU) (BG) (AG) (BU) (BG) (AU) (AG) (BU)
                 (AU) (AG) (BU) (BG) (AG) (BG) (AU) (BU) (AG) (AG)
                 (AG) (AG) (AG) (AG) (AG) (AG) (AG) (AG) (AG) (AG)
                 (AG) (AG) (AG) (AG) (AG) (AG) (AG) (AG) (AG) (AG)
                 (AG) (AG) (AG) (AG) (AG) (AG) (AG) (AG) (AG) (AG)
                 (AG) (AG) (AG) (AG) (AG) (AG) (AG) (AG) (AG) (AG)
                 (AG) (AG) (AG) (AG) (AG) (AG) (AG) (AG) (AG) (AG)
                 (AG) (AG) (AG) (AG) (AG) (AG) (AG) (AG) (AG) (AG)
                 (AG) (AG) (AG) (AG) (AG) (AG) (AG) (AG) (AG) (AG)
                 (AG) (AG) (AG) (AG) (AG) (AG) (AG) (AG) (AG) (AG)
                 (AG) (AG) (AG) (AG) (AG) (AG) (AG) (AG) (AG) (AG)
                 (AG) (AG) (AG) (AG) (AG) (AG) (AG) (AG) (AG) (AG)
                 (AG) (AG) (AG) (AG) (AG) (AG) (AG) (AG) (AG) (AG)
                 (AG) (AG) (AG) (AG) (AG) (AG) (AG) (AG) (AG) (AG)
                 (AG) (AG) (AG) (AG) (AG) (AG) (AG) (AG) (AG) (AG)
                 (AG) (AG) (AG) (AG) (AG) (AG) (AG) (AG) (AG) (AG)
                 (AG) (AG) (AG) (AG) (AG) (AG) (AG) (AG) (AG) (AG)
                 (AG) (AG) (AG) (AG) (AG) (AG) (AG) (AG) (AG) (AG)
                 (AG) (AG) (AG) (AG) (AG) (AG) (AG) (AG) (AG) (AG)
                 (AG) (AG) (AG) (AG) (AG) (AG) (AG) (AG) (AG) (AG)
                 (AG) (AG) (AG) (AG) (AG) (AG) (AG) (AG) (AG) (AG)
                 (AG) (AG) (AG) (AG) (AG) (AG) (AG) (AG) (AG) (AG)
                 (AG) (AG) (AG) (AG) (AG) (AG) (AG) (AG) (AG) (AG)
                 (AG) (AG) (AG) (AG) (AG) (AG) (AG) (AG) (AG) (AG)
                 (AG) (BG) (BG) (BG) (BG) (BG) (BG) (BG) (BG) (BG)
                 (BG) (BG) (BG) (BG) (BG) (BG) (BG) (BG) (BG) (BG)
                 (BG) (BG) (BG) (BG) (BG) (BG) (BG) (BG) (BG) (BG)
                 (BG) (BG) (BG) (BG) (BG) (BG) (BG) (BG) (BG) (BG)
                 (BG) (BG) (BG) (BG) (BG) (BG) (BG) (BG) (BG) (BG)
                 (BG) (BG) (BG) (BG) (BG) (BG) (BG) (BG) (BG) (BG)
                 (BG) (BG) (BG) (BG) (BG) (BG) (BG) (BG) (BG) (BG)
                 (BG) (BG) (BG) (BG) (BG) (BG) (BG) (BG) (BG) (BG)
                 (BG) (BG) (BG) (BG) (BG) (BG) (BG) (BG) (BG) (BG)
                 (BG) (BG) (BG) (BG) (BG) (BG) (BG) (BG) (BG) (BG)
                 (BG) (BG) (BG) (BG) (BG) (BG) (BG) (BG) (BG) (BG)
                 (BG) (BG) (BG) (BG) (BG) (BG) (BG) (BG) (BG) (BG)
                 (BG) (BG) (BG) (BG) (BG) (BG) (BG) (BG) (BG) (BG)
                 (BG) (BG) (BG) (BG) (BG) (BG) (BG) (BG) (BG) (BG)
                 (BG) (BG) (BG) (BG) (BG) (BG) (BG) (BG) (BG) (BG)
                 (BG) (BG) (BG) (BG) (BG) (BG) (BG) (BG) (BG) (BG)
                 (BG) (BG) (BG) (BG) (BG) (BG) (BG) (BG) (BG) (BG)
                 (BG) (BG) (BG) (BG) (BG) (BG) (BG) (BG) (BG) (BG)
                 (BG) (BG) (BG) (BG) (BG) (BG) (BG) (BG) (BG) (BG)
                 (BG) (BG) (BG) (BG) (BG) (BG) (BG) (BG) (BG) (BG)
                 (BG) (BG) (BG) (BG) (BG) (BG) (BG) (BG) (BG) (BG)
                 (BG) (AU) (AU) (AU) (AU) (AU) (AU) (AU) (AU) (AU)
                 (AU) (AU) (AU) (AU) (AU) (AU) (AU) (AU) (AU) (AU)
                 (AU) (AU) (AU) (AU) (AU) (AU) (AU) (AU) (AU) (AU)
                 (AU) (AU) (AU) (AU) (AU) (AU) (AU) (AU) (AU) (AU)
                 (AU) (AU) (AU) (AU) (AU) (AU) (AU) (AU) (AU) (AU)
                 (AU) (AU) (AU) (AU) (AU) (AU) (AU) (AU) (AU) (AU)
                 (AU) (AU) (AU) (AU) (AU) (AU) (AU) (AU) (AU) (AU)
                 (AU) (AU) (AU) (AU) (AU) (AU) (AU) (AU) (AU) (AU)
                 (AU) (AU) (AU) (AU) (AU) (AU) (AU) (AU) (AU) (AU)
                 (AU) (AU) (AU) (AU) (AU) (AU) (AU) (AU) (AU) (AU)
                 (AU) (AU) (AU) (AU) (AU) (AU) (AU) (AU) (AU) (AU)
                 (AU) (AU) (AU) (AU) (AU) (AU) (AU) (AU) (AU) (AU)
                 (AU) (AU) (AU) (AU) (AU) (AU) (AU) (AU) (AU) (AU)
                 (AU) (AU) (AU) (AU) (AU) (AU) (AU) (AU) (AU) (AU)
                 (AU) (AU) (AU) (AU) (AU) (AU) (AU) (AU) (AU) (AU)
                 (AU) (AU) (AU) (AU) (AU) (AU) (AU) (AU) (AU) (AU)
                 (AU) (AU) (AU) (AU) (AU) (AU) (AU) (AU) (AU) (AU)
                 (AU) (AU) (AU) (AU) (AU) (AU) (AU) (AU) (AU) (AU)
                 (AU) (AU) (AU) (AU) (AU) (AU) (AU) (AU) (AU) (AU)
                 (AU) (AU) (AU) (AU) (AU) (AU) (AU) (AU) (AU) (AU)
                 (AU) (AU) (AU) (AU) (AU) (AU) (AU) (AU) (AU) (AU)
                 (AU) (BU) (BU) (BU) (BU) (BU) (BU) (BU) (BU) (BU)
                 (BU) (BU) (BU) (BU) (BU) (BU) (BU) (BU) (BU) (BU)
                 (BU) (BU) (BU) (BU) (BU) (BU) (BU) (BU) (BU) (BU)
                 (BU) (BU) (BU) (BU) (BU) (BU) (BU) (BU) (BU) (BU)
                 (BU) (BU) (BU) (BU) (BU) (BU) (BU) (BU) (BU) (BU)
                 (BU) (BU) (BU) (BU) (BU) (BU) (BU) (BU) (BU) (BU)
                 (BU) (BU) (BU) (BU) (BU) (BU) (BU) (BU) (BU) (BU)
                 (BU) (BU) (BU) (BU) (BU) (BU) (BU) (BU) (BU) (BU)
                 (BU) (BU) (BU) (BU) (BU) (BU) (BU) (BU) (BU) (BU)
                 (BU) (BU) (BU) (BU) (BU) (BU) (BU) (BU) (BU) (BU)
                 (BU) (BU) (BU) (BU) (BU) (BU) (BU) (BU) (BU) (BU)
                 (BU) (BU) (BU) (BU) (BU) (BU) (BU) (BU) (BU) (BU)
                 (BU) (BU) (BU) (BU) (BU) (BU) (BU) (BU) (BU) (BU)
                 (BU) (BU) (BU) (BU) (BU) (BU) (BU) (BU) (BU) (BU)
                 (BU) (BU) (BU) (BU) (BU) (BU) (BU) (BU) (BU) (BU)
                 (BU) (BU) (BU) (BU) (BU) (BU) (BU) (BU) (BU) (BU)
                 (BU) (BU) (BU) (BU) (BU) (BU) (BU) (BU) (BU) (BU)
                 (BU) (BU) (BU) (BU) (BU) (BU) (BU) (BU) (BU) (BU)
                 (BU) (BU) (BU) (BU) (BU) (BU) (BU) (BU) (BU) (BU)
                 (BU) (BU) (BU) (BU) (BU) (BU) (BU) (BU) (BU) (BU)
                 (BU) (BU) (BU) (BU) (BU) (BU) (BU) (BU) (BU) (BU)
                 (BU) (BU) (BU) (BU) (BU) (BU) (BU) (BU) (BU) (BU)
                 (BU) (BU) (BU) (BU)
 Requested convergence on RMS density matrix=1.00D-08 within 128 cycles.
 Requested convergence on MAX density matrix=1.00D-06.
 Requested convergence on             energy=1.00D-06.
 No special actions if energy rises.
 SCF Done:  E(RLC-B+HF-LYP) =  -6885.18006994     A.U. after   17 cycles
            NFock= 17  Conv=0.47D-08     -V/T= 2.0025
 ExpMin= 4.78D-02 ExpMax= 4.06D+05 ExpMxC= 3.92D+03 IAcc=3 IRadAn=         5 AccDes= 0.00D+00
 HarFok:  IExCor=  205 AccDes= 0.00D+00 IRadAn=         5 IDoV=-2 UseB2=F ITyADJ=14
 ICtDFT= 12500011 ScaDFX=  1.000000  1.000000  1.000000  1.000000
 Range of M.O.s used for correlation:    99  2208
 NBasis=  2208 NAE=   294 NBE=   294 NFC=    98 NFV=     0
 NROrb=   2110 NOA=   196 NOB=   196 NVA=  1914 NVB=  1914

 **** Warning!!: The largest alpha MO coefficient is  0.65578435D+02

 Would need an additional       7420883700000 words for in-memory AO integral storage.
 Orbital symmetries:
       Occupied  (BU) (AG) (BU) (AG) (AG) (BU) (AG) (BU) (AU) (BG)
                 (BU) (AG) (BU) (AG) (AU) (BG) (BU) (AG) (AU) (BG)
                 (AG) (BU) (AU) (BG) (BU) (AG) (AU) (BG) (BU) (AG)
                 (BG) (AU) (BU) (AG) (BG) (AU) (AG) (BU) (BG) (AU)
                 (BU) (AG) (BU) (AG) (AU) (BG) (AG) (BU) (BU) (AG)
                 (AU) (BG) (AU) (BG) (AU) (BG) (AG) (BU) (AU) (BG)
                 (BU) (AG) (AU) (BG) (BU) (AG) (BG) (AU) (AG) (BU)
                 (AU) (AG) (BG) (BU) (AG) (BU) (AU) (BG) (AU) (BG)
                 (AG) (BU) (BU) (AG) (AU) (BG) (AG) (BU) (AU) (BG)
                 (BU) (AG) (AG) (BU) (AG) (BU) (BG) (AU) (AG) (BU)
                 (AG) (AU) (BG) (BU) (AG) (BU) (AU) (BG) (AU) (AG)
                 (BU) (BG) (AG) (BU) (BU) (AG) (AU) (BG) (BU) (AG)
                 (BU) (AG) (AU) (BG) (AG) (BU) (AU) (AG) (BU) (BG)
                 (AG) (BG) (BU) (AU) (BU) (AG) (BG) (AU) (AU) (BG)
                 (AU) (AG) (BU) (BG) (AG) (BU) (BU) (AG) (AG) (AU)
                 (BG) (BU) (AU) (BG) (AG) (BU) (AU) (BG) (BU) (AG)
                 (AU) (BG) (BG) (AU) (AG) (BU) (AG) (AU) (BG) (BU)
                 (AG) (BU) (AG) (BG) (AU) (BU) (AU) (AU) (BG) (BG)
                 (AG) (BU) (BU) (AG) (AG) (BU) (AG) (AU) (BG) (AG)
                 (BU) (AU) (BG) (BU) (BU) (AU) (BG) (AG) (AG) (BU)
                 (AU) (BG) (AG) (BU) (AG) (AU) (BG) (AU) (BG) (BU)
                 (AG) (BU) (AG) (AU) (BU) (BG) (AU) (BG) (AG) (BU)
                 (AU) (BG) (BU) (AU) (AG) (BG) (BU) (AG) (BU) (AG)
                 (AU) (BG) (BU) (AU) (AG) (BU) (BG) (AG) (BG) (AU)
                 (BG) (BU) (AG) (AU) (BU) (AG) (AU) (BG) (AU) (BG)
                 (AG) (BU) (AG) (BU) (AU) (BU) (AG) (BG) (AG) (BU)
                 (AU) (AG) (BU) (BG) (AG) (BU) (AG) (AU) (BG) (BU)
                 (AU) (BG) (AU) (BG) (AG) (BG) (BU) (AU) (BG) (AG)
                 (BU) (AU) (BU) (AG) (AU) (BU) (AG) (BG) (BU) (AG)
                 (BU) (AG) (AU) (BG)
       Virtual   (AU) (AG) (BU) (BG) (AU) (BG) (AG) (BU) (BU) (AG)
                 (AG) (AU) (BG) (BU) (AG) (BU) (AG) (BG) (AU) (BU)
                 (AU) (BG) (AG) (BU) (AU) (AG) (BG) (AG) (BU) (BG)
                 (AU) (AU) (BU) (AG) (AG) (BU) (AG) (BG) (AU) (BU)
                 (BG) (BU) (AG) (AU) (BG) (BU) (AG) (AU) (BU) (BG)
                 (AU) (AG) (BG) (BU) (AU) (BG) (AG) (BU) (AG) (BU)
                 (BG) (AG) (AU) (BU) (BG) (AU) (AG) (AU) (BU) (AG)
                 (BU) (AU) (AG) (BG) (BU) (BG) (AG) (BU) (BG) (AU)
                 (BU) (AG) (AU) (AG) (BU) (AG) (BG) (AU) (AG) (BU)
                 (AU) (BG) (BG) (BU) (AU) (BG) (AU) (BU) (BG) (AG)
                 (AG) (AU) (BU) (BG) (BG) (AG) (AU) (BU) (AU) (AG)
                 (AG) (AG) (BU) (AU) (BG) (BU) (BG) (AG) (BU) (AU)
                 (BG) (AG) (BG) (AU) (BU) (BU) (AG) (BG) (AU) (AG)
                 (AU) (BG) (BU) (BG) (BU) (AU) (AG) (BU) (BG) (AG)
                 (AG) (AU) (AU) (BU) (BG) (AG) (BU) (AG) (AU) (BG)
                 (BU) (AU) (BG) (AU) (BU) (BG) (AG) (AG) (BU) (AU)
                 (AG) (BG) (BU) (BU) (BU) (AU) (AG) (BU) (BG) (AU)
                 (AG) (AG) (AU) (BU) (AG) (BG) (BU) (BG) (AG) (BU)
                 (AU) (BU) (AG) (AU) (BG) (AG) (BU) (AU) (BG) (BG)
                 (BU) (AU) (AG) (AG) (BG) (BU) (AG) (AU) (BG) (AG)
                 (BU) (AU) (AG) (BU) (AG) (BG) (BU) (AU) (BG) (BU)
                 (AU) (AG) (BG) (AU) (BU) (AG) (AU) (BG) (AG) (BU)
                 (BU) (AG) (BU) (AG) (BU) (BG) (AG) (BU) (BG) (AU)
                 (AU) (AG) (BU) (BG) (AU) (AG) (BG) (BU) (BG) (AU)
                 (AG) (BU) (AU) (AG) (BG) (AG) (AU) (BU) (AU) (BG)
                 (AU) (BG) (AU) (AG) (BU) (BG) (AG) (BG) (BU) (AU)
                 (BU) (AU) (AG) (BG) (AG) (BU) (BG) (AG) (AU) (BU)
                 (BG) (BU) (AG) (BU) (AU) (BG) (AU) (AG) (BG) (AU)
                 (AU) (BU) (BG) (AG) (AU) (BU) (BG) (BG) (AU) (BU)
                 (BG) (AU) (AG) (BU) (AG) (AU) (BG) (BG) (BU) (AU)
                 (AG) (BG) (AG) (AG) (AU) (BG) (AU) (AG) (BU) (AG)
                 (BG) (AU) (BU) (AU) (BU) (BG) (BU) (AG) (AG) (BG)
                 (BU) (AU) (AG) (BG) (AU) (BG) (BU) (AG) (AU) (BU)
                 (BG) (AG) (BU) (AU) (BG) (AG) (AU) (AG) (BG) (BU)
                 (BU) (BG) (AG) (AU) (AU) (BU) (BG) (AG) (AU) (BU)
                 (AG) (BG) (AG) (BU) (BU) (BG) (AU) (AG) (AU) (BU)
                 (AG) (BG) (AU) (AG) (BG) (BU) (AU) (BU) (AU) (AG)
                 (BU) (BG) (AU) (AG) (BG) (BU) (AU) (BG) (BU) (AG)
                 (AG) (AU) (AU) (BG) (BG) (BU) (BU) (BG) (BU) (AG)
                 (AG) (AU) (BG) (AU) (BG) (AG) (BU) (BG) (AU) (AG)
                 (BU) (AG) (BU) (AU) (BG) (BU) (AG) (AU) (BU) (AU)
                 (BG) (AG) (BG) (BU) (AG) (AU) (BU) (BU) (AG) (AU)
                 (BG) (AU) (BU) (AG) (BG) (AG) (BU) (BG) (AG) (BG)
                 (BU) (AU) (BG) (AG) (BU) (AG) (AU) (AU) (BG) (BU)
                 (AG) (AU) (BG) (AG) (AU) (BU) (BG) (AG) (BG) (AU)
                 (BU) (BG) (AG) (BU) (AU) (BU) (AU) (AG) (BG) (BU)
                 (AG) (BG) (BU) (AU) (AG) (AU) (BU) (BG) (AG) (AG)
                 (BU) (AU) (BG) (AU) (BG) (AG) (BU) (AG) (BU) (AU)
                 (BG) (AU) (BU) (BG) (AG) (BG) (AG) (AU) (BU) (AG)
                 (BU) (BG) (AU) (BU) (BG) (AU) (AG) (AG) (BU) (AU)
                 (AG) (BU) (BG) (AU) (BU) (AU) (BU) (AG) (BG) (BU)
                 (BG) (AU) (AG) (BU) (BG) (BG) (AG) (AG) (AU) (AG)
                 (BU) (AU) (BG) (AG) (BU) (AU) (AU) (AG) (BG) (BU)
                 (AG) (BU) (BG) (BU) (BG) (AU) (BU) (AG) (AU) (BG)
                 (AU) (AG) (AG) (BU) (BU) (AU) (BG) (BG) (AG) (BU)
                 (AG) (BG) (AU) (BU) (BG) (AU) (AU) (BG) (AG) (AU)
                 (BU) (AG) (AU) (BU) (BG) (AG) (BG) (BU) (AG) (BG)
                 (BU) (AG) (AU) (BU) (AU) (BG) (BG) (AG) (AU) (BU)
                 (BU) (AG) (AG) (BU) (BG) (BU) (AU) (BU) (AG) (AG)
                 (AU) (BG) (AG) (AU) (BG) (AU) (BU) (AU) (BG) (BU)
                 (AG) (AG) (BU) (AU) (BG) (BU) (AG) (BG) (BU) (AG)
                 (AU) (AU) (AG) (BG) (BU) (BU) (AG) (AG) (BG) (BG)
                 (AG) (BG) (AU) (BU) (AU) (BU) (AG) (AU) (BU) (AG)
                 (BG) (AU) (AU) (BG) (BG) (BU) (AG) (BU) (AG) (BG)
                 (AU) (AG) (BU) (AU) (BG) (BG) (BU) (AG) (AG) (AU)
                 (BG) (AU) (BU) (AU) (BU) (AU) (BG) (BG) (AG) (BU)
                 (AG) (AU) (BG) (AG) (AU) (BU) (BG) (AU) (BG) (BU)
                 (AG) (BU) (AG) (AU) (BG) (BU) (AG) (BG) (AU) (AG)
                 (AU) (BU) (BU) (AG) (BG) (AU) (BG) (AU) (BU) (AG)
                 (BG) (BU) (AU) (BU) (AG) (BG) (AU) (AG) (BU) (BG)
                 (AU) (AG) (BU) (AU) (AG) (BU) (BG) (AG) (BU) (BG)
                 (AU) (AG) (BU) (BG) (AU) (AG) (BG) (AG) (BU) (AU)
                 (AU) (BU) (BG) (AU) (AG) (BU) (AG) (BG) (BU) (AG)
                 (BG) (BU) (BG) (AG) (AU) (BG) (BU) (AU) (AG) (AG)
                 (BG) (BU) (BU) (AU) (AU) (BU) (AG) (AU) (BU) (BG)
                 (BG) (AU) (BG) (BU) (AU) (AG) (BG) (AU) (BG) (AG)
                 (BU) (AG) (BG) (BU) (AG) (AG) (AU) (AU) (AG) (BG)
                 (BU) (BU) (BG) (AU) (BU) (AG) (AU) (BU) (BG) (BG)
                 (AG) (AU) (AU) (BG) (BU) (AG) (AU) (BG) (AU) (BG)
                 (BU) (AG) (AG) (BU) (BG) (AU) (AG) (BU) (AU) (AG)
                 (BG) (BU) (BG) (AG) (BU) (AU) (AG) (AG) (BG) (BU)
                 (AU) (BU) (AU) (BU) (AG) (AG) (AU) (BG) (BU) (BG)
                 (AU) (AG) (BU) (AU) (BG) (BG) (BU) (AG) (AG) (AU)
                 (BU) (BG) (AG) (AU) (BU) (BG) (AG) (AU) (AU) (BG)
                 (BU) (BG) (AG) (BU) (AG) (AG) (BU) (AU) (AU) (BG)
                 (BU) (AG) (BU) (BG) (AU) (BG) (BU) (AG) (AU) (BG)
                 (AG) (BU) (AU) (BG) (AG) (BU) (BG) (AU) (BU) (AU)
                 (AG) (AG) (BG) (BU) (AU) (BG) (BU) (BG) (AG) (AU)
                 (BG) (BU) (AG) (AU) (AG) (BG) (BU) (AG) (AU) (AG)
                 (BG) (AU) (BU) (BU) (BG) (AG) (AU) (AG) (BU) (BG)
                 (AU) (BG) (BU) (AG) (AU) (BG) (BU) (AU) (AG) (AU)
                 (BU) (BG) (AG) (AG) (BU) (AU) (BG) (AU) (BU) (AG)
                 (BG) (BU) (AG) (BG) (AG) (AU) (BU) (AU) (BU) (AG)
                 (BG) (BG) (AG) (AU) (BU) (AU) (BG) (AU) (AG) (BU)
                 (BG) (AU) (BG) (BU) (BG) (AG) (BG) (AU) (BU) (AG)
                 (AU) (BU) (BG) (BU) (AU) (AG) (AU) (AG) (BG) (AG)
                 (AU) (BG) (BU) (BU) (AU) (AU) (BG) (AG) (AU) (BU)
                 (BG) (BU) (AG) (AU) (BG) (AG) (BU) (BG) (AU) (AU)
                 (BG) (BU) (AG) (BG) (BU) (AU) (BG) (AG) (AG) (AU)
                 (BG) (BU) (AG) (BG) (AU) (BG) (AG) (BU) (BG) (AU)
                 (AU) (BG) (BU) (AG) (AU) (BU) (AG) (BU) (AG) (BU)
                 (AG) (AU) (BU) (BG) (AU) (BG) (AG) (BU) (AG) (BU)
                 (AG) (AU) (BG) (AU) (BG) (AU) (AG) (BU) (BU) (BG)
                 (BG) (AU) (AU) (AG) (AG) (BU) (BG) (AU) (AG) (BG)
                 (AU) (AU) (BU) (BG) (AU) (AG) (BG) (BG) (BU) (BG)
                 (BU) (AG) (AU) (BU) (AG) (BU) (AG) (AU) (BG) (AG)
                 (BU) (AU) (AG) (BU) (BG) (AU) (AG) (BU) (BG) (BG)
                 (AG) (AU) (BU) (AU) (BG) (BU) (BG) (AG) (BU) (AU)
                 (AG) (BU) (AU) (AG) (BG) (BU) (AG) (BG) (AU) (BU)
                 (BG) (AU) (AG) (AU) (BG) (BG) (BU) (AG) (AU) (BU)
                 (BG) (AG) (AU) (AU) (BU) (BG) (AU) (BG) (AG) (BU)
                 (AG) (BU) (AU) (BG) (AU) (AG) (BU) (BG) (AG) (BU)
                 (BU) (AG) (AU) (BG) (BG) (AU) (BU) (BG) (AG) (BU)
                 (AU) (AG) (AG) (BU) (AG) (BU) (BU) (AG) (AG) (AU)
                 (BU) (BG) (AG) (AU) (BU) (AG) (BG) (BU) (AU) (AG)
                 (BG) (AU) (BU) (BG) (AG) (BG) (BU) (AU) (BG) (AG)
                 (BU) (BG) (AG) (AU) (BG) (BU) (AU) (AU) (AG) (BU)
                 (AU) (AG) (BG) (AU) (BG) (BU) (AG) (AU) (BG) (AG)
                 (BU) (AU) (AG) (BU) (BG) (AG) (BG) (AU) (BU) (AU)
                 (AG) (BG) (AU) (BU) (BG) (AU) (BU) (AG) (BU) (BG)
                 (AU) (BG) (AU) (AG) (BG) (BU) (AG) (BU) (AG) (BG)
                 (BU) (AU) (AG) (BU) (AG) (AG) (BU) (BU) (BG) (AU)
                 (AG) (BG) (BU) (AU) (BG) (AU) (AG) (BU) (BG) (AU)
                 (BG) (AU) (AG) (BU) (AG) (BU) (BG) (AU) (BU) (BG)
                 (AU) (AG) (BG) (AU) (BU) (AG) (BG) (AU) (AG) (AG)
                 (BU) (BG) (BU) (AU) (BU) (AG) (AG) (BG) (AU) (BU)
                 (BU) (AG) (BG) (AU) (BU) (AG) (AU) (BG) (AG) (AU)
                 (BU) (BG) (AG) (AG) (BU) (BG) (BU) (AU) (BU) (AG)
                 (AU) (AG) (AU) (BG) (BG) (BU) (BG) (BU) (AG) (BU)
                 (AG) (AU) (BU) (AG) (AU) (BG) (AU) (BU) (AG) (BG)
                 (AG) (AU) (BU) (BU) (BG) (AG) (BU) (BG) (AU) (AU)
                 (AG) (BU) (AG) (BG) (AG) (BU) (BG) (AU) (BU) (AG)
                 (AG) (AU) (BG) (BU) (BG) (AU) (BU) (AG) (AG) (BU)
                 (AU) (BG) (AG) (BU) (BU) (AU) (AG) (BG) (AU) (AG)
                 (BG) (BU) (BU) (AU) (BG) (BG) (AU) (AG) (AG) (BU)
                 (BU) (AG) (AU) (BG) (BU) (AG) (BG) (AU) (AG) (AU)
                 (BU) (BG) (AU) (BG) (AU) (AG) (BU) (BU) (AG) (BG)
                 (BU) (BG) (AG) (BU) (AU) (AG) (AU) (BG) (BU) (AG)
                 (AU) (BG) (BU) (BG) (AU) (AG) (AU) (AG) (BU) (BG)
                 (BU) (AU) (BG) (AG) (AU) (AU) (BG) (AG) (BU) (BG)
                 (AU) (AG) (BU) (BU) (BG) (AU) (AG) (AG) (BU) (AU)
                 (BG) (BU) (BG) (AG) (BU) (AG) (AU) (BU) (BG) (BU)
                 (AG) (AU) (BG) (AU) (AG) (BG) (AU) (AU) (BU) (BG)
                 (AG) (BU) (AG) (BG) (AU) (BG) (BU) (AU) (AG) (BU)
                 (AG) (BG) (AU) (AG) (BU) (AG) (AU) (BG) (BU) (BU)
                 (BG) (BU) (AG) (AG) (AG) (AU) (BG) (BG) (AU) (BU)
                 (AU) (AG) (BG) (BU) (BU) (AG) (AU) (BG) (BU) (AG)
                 (BU) (AG) (BU) (BG) (AG) (AU) (AU) (BG) (AU) (AG)
                 (AG) (AU) (BU) (BG) (BU) (BG) (AG) (BU) (AU) (BG)
                 (AG) (AG) (BU) (AU) (BG) (BU) (AU) (BG) (BG) (AG)
                 (AG) (BU) (AU) (BG) (AU) (AG) (BU) (BU) (BG) (BU)
                 (BG) (AU) (AG) (AU) (BG) (AG) (BU) (AU) (BG) (AU)
                 (AG) (BU) (AU) (BG) (AG) (BU) (AU) (AG) (BG) (AU)
                 (BU) (BG) (AG) (BU) (AU) (BU) (BG) (AU) (AG) (BG)
                 (BU) (BG) (AG) (AU) (BG) (AG) (BU) (AU) (BG) (AU)
                 (AG) (BU) (BG) (BU) (AG) (AU) (BG) (AU) (BU) (AG)
                 (BG) (AU) (AG) (BU) (BU) (BG) (AG) (AU) (AG) (BU)
                 (BG) (AU) (BG) (AU) (AG) (BG) (AU) (BU) (AU) (BG)
                 (AG) (AU) (BG) (BU) (BG) (AU) (BG) (AU) (AG) (AU)
                 (BG) (AG) (BG) (BU) (AU) (AG) (BU) (BG) (AU) (AG)
                 (BG) (BU) (AU) (BU) (BG) (AU) (AG) (BU) (BG) (AU)
                 (BU) (AG) (AU) (BG) (AU) (BU) (AG) (BG) (BG) (AG)
                 (BU) (AU) (BG) (BU) (AG) (AU) (AU) (BG) (AG) (BU)
                 (AU) (BG) (AU) (BU) (AG) (BG) (AU) (BG) (AU) (BG)
                 (AG) (BU) (AG) (BU) (AG) (BU) (AU) (BG) (AU) (BG)
                 (AU) (BG) (AG) (BU) (BG) (AU) (BG) (AG) (BU) (AU)
                 (BG) (AU) (BU) (AU) (BG) (AG) (AU) (BG) (AG) (BU)
                 (AG) (BU) (BG) (AU) (AG) (BU) (BG) (AU) (AG) (BU)
                 (AU) (BG) (AU) (AG) (BG) (BU) (AG) (BU) (AG) (BU)
                 (AU) (BG) (AG) (BU) (BU) (AG) (AU) (BG) (BG) (AU)
                 (AG) (BG) (BU) (AU) (AU) (BG) (BU) (AG) (BG) (AU)
                 (AG) (BU) (AU) (BG) (AG) (BG) (BU) (AU) (BG) (AU)
                 (AU) (BG) (AG) (BU) (AU) (BG) (AG) (BU) (AU) (BG)
                 (AU) (BG) (AG) (BU) (AU) (AG) (BU) (BG) (AG) (BU)
                 (AG) (AU) (BG) (BU) (AU) (BG) (AG) (BU) (AG) (BU)
                 (AU) (BG) (AG) (BU) (AU) (BG) (AG) (AU) (BU) (BG)
                 (AU) (BG) (BU) (AG) (AU) (BG) (AG) (BU) (AG) (BU)
                 (BG) (AU) (BG) (AU) (BU) (AG) (AU) (BG) (BU) (AU)
                 (BG) (AG) (BU) (AG) (AU) (BG) (AU) (BU) (AG) (BG)
                 (BU) (AG) (BG) (AU) (BU) (AG) (BU) (AG) (BG) (AU)
                 (BU) (AG) (BG) (AU) (BU) (AG) (BU) (AG) (AU) (BG)
                 (BU) (AG) (AU) (BG) (AG) (BU) (AU) (BG) (AG) (BU)
                 (BG) (AU) (AG) (BU) (AG) (BU) (AG) (BU) (BG) (AU)
                 (AG) (BG) (AU) (BU) (AG) (BU) (BG) (AU) (AG) (BU)
                 (AG) (BU) (AG) (BU) (BG) (AU) (AG) (BU) (AG) (BU)
                 (AG) (BU) (BG) (AU) (AG) (BU) (BG) (AU) (BG) (AU)
                 (BU) (AG) (BG) (AU) (BU) (AG) (BU) (BG) (AU) (AG)
                 (BG) (AU) (BG) (AU) (BG) (AU) (AG) (BU) (AU) (BG)
                 (AG) (BU) (BU) (AG) (BU) (BG) (AU) (AG) (AU) (BG)
                 (AU) (BG) (BU) (AU) (AG) (BG) (AU) (BG) (AG) (BU)
                 (AU) (BG) (BU) (AG) (BU) (AG) (BG) (AU) (AG) (BU)
                 (BG) (AU) (AG) (BU)
    24 initial guesses have been made.
 Convergence on wavefunction:    0.001000000000000
 Iteration     1 Dimension    24 NMult     0 NNew     24
 CISAX will form    24 AO SS matrices at one time.
 New state      6 was old state      8
 Iteration     2 Dimension    36 NMult    24 NNew     12
 New state      3 was old state      4
 New state      4 was old state      3
 Iteration     3 Dimension    48 NMult    36 NNew     12
 New state      1 was old state      2
 New state      2 was old state      1
 Iteration     4 Dimension    60 NMult    48 NNew     12
 Iteration     5 Dimension    72 NMult    60 NNew     12
 Iteration     6 Dimension    82 NMult    72 NNew     10
 Iteration     7 Dimension    88 NMult    82 NNew      6
 ***********************************************************************
 Excited states from <AA,BB:AA,BB> singles matrix:
 ***********************************************************************
 
 Ground to excited state transition densities written to RWF  633
 Ground to excited state transition electric dipole moments (Au):
       state          X           Y           Z        Dip. S.      Osc.
         1         0.0000      0.0000      0.0000      0.0000      0.0000
         2        -0.3158     -4.6696      0.0000     21.9046      0.9671
         3        -0.0000     -0.0000      0.0000      0.0000      0.0000
         4         0.0000      0.0000      4.1065     16.8635      0.7710
         5        -0.0000      0.0000      0.0000      0.0000      0.0000
         6        -0.1658      0.0832      0.0000      0.0344      0.0024
 Ground to excited state transition velocity dipole moments (Au):
       state          X           Y           Z        Dip. S.      Osc.
         1        -0.0000     -0.0000     -0.0000      0.0000      0.0000
         2         0.0210      0.3104     -0.0000      0.0968      0.9743
         3        -0.0000      0.0000      0.0000      0.0000      0.0000
         4        -0.0000     -0.0000     -0.2829      0.0800      0.7779
         5         0.0000      0.0000     -0.0000      0.0000      0.0000
         6         0.0177     -0.0089      0.0000      0.0004      0.0025
 Ground to excited state transition magnetic dipole moments (Au):
       state          X           Y           Z
         1         2.2732     -1.2177     -0.0000
         2         0.0000     -0.0000     -0.0000
         3         0.0000     -0.0000      1.1817
         4        -0.0000      0.0000     -0.0000
         5         0.0000     -0.0000      0.0798
         6        -0.0000      0.0000     -0.0000
 Ground to excited state transition velocity quadrupole moments (Au):
       state          XX          YY          ZZ          XY          XZ          YZ
         1        -0.0000     -0.0000      0.0000     -0.0000      1.0901      2.0058
         2         0.0000     -0.0000      0.0000     -0.0000      0.0000      0.0000
         3        -0.0902      3.8163     -0.2322      0.9809      0.0000      0.0000
         4         0.0000      0.0000     -0.0000      0.0000     -0.0000     -0.0000
         5         0.0017     -0.1359     -0.1447     -0.0895      0.0000      0.0000
         6         0.0000     -0.0000     -0.0000     -0.0000     -0.0000     -0.0000
 <0|del|b> * <b|rxdel|0> + <0|del|b> * <b|delr+rdel|0>
 Rotatory Strengths (R) in cgs (10**-40 erg-esu-cm/Gauss)
       state          XX          YY          ZZ    R(velocity)    E-M Angle
         1         0.0000     -0.0000      0.0000      0.0000       90.00
         2        -0.0000      0.0000     -0.0000     -0.0000       90.00
         3         0.0000      0.0000     -0.0000      0.0000       90.00
         4        -0.0000      0.0000     -0.0000      0.0000       90.00
         5         0.0000     -0.0000     -0.0000     -0.0000       90.00
         6        -0.0000     -0.0000     -0.0000     -0.0000       90.00
 1/2[<0|r|b>*<b|rxdel|0> + (<0|rxdel|b>*<b|r|0>)*]
 Rotatory Strengths (R) in cgs (10**-40 erg-esu-cm/Gauss)
       state          XX          YY          ZZ     R(length)
         1        -0.0000      0.0000      0.0000      0.0000
         2         0.0000     -0.0000      0.0000     -0.0000
         3         0.0000     -0.0000     -0.0000     -0.0000
         4         0.0000     -0.0000      0.0000      0.0000
         5         0.0000      0.0000     -0.0000     -0.0000
         6        -0.0000     -0.0000      0.0000     -0.0000
  1/2[<0|del|b>*<b|r|0> + (<0|r|b>*<b|del|0>)*] (Au)
       state          X           Y           Z        Dip. S.   Osc.(frdel)
         1        -0.0000     -0.0000     -0.0000      0.0000      0.0000
         2        -0.0066     -1.4494     -0.0000      1.4560      0.9707
         3         0.0000     -0.0000      0.0000      0.0000      0.0000
         4        -0.0000     -0.0000     -1.1617      1.1617      0.7744
         5        -0.0000      0.0000     -0.0000     -0.0000     -0.0000
         6        -0.0029     -0.0007      0.0000      0.0037      0.0024

 Excitation energies and oscillator strengths:
 
 Excited State   1:      Singlet-BG     1.7771 eV  697.67 nm  f=0.0000  <S**2>=0.000
     291 -> 295        0.11627
     292 -> 298        0.11048
     293 -> 297        0.44731
     294 -> 296        0.52075
 This state for optimization and/or second-order correction.
 Total Energy, E(TD-HF/TD-KS) =  -6885.11476246    
 Copying the excited state density for this state as the 1-particle RhoCI density.
 
 Excited State   2:      Singlet-BU     1.8021 eV  688.01 nm  f=0.9671  <S**2>=0.000
     291 -> 296       -0.11666
     292 -> 297        0.12101
     293 -> 298       -0.43658
     294 -> 295        0.52731
 
 Excited State   3:      Singlet-AG     1.8314 eV  676.99 nm  f=0.0000  <S**2>=0.000
     291 -> 297        0.12181
     292 -> 296       -0.12627
     293 -> 295       -0.46967
     294 -> 298        0.49472
 
 Excited State   4:      Singlet-AU     1.8662 eV  664.36 nm  f=0.7710  <S**2>=0.000
     291 -> 298       -0.12792
     292 -> 295       -0.13150
     293 -> 296        0.46850
     294 -> 297        0.49262
 
 Excited State   5:      Singlet-AG     2.8714 eV  431.79 nm  f=0.0000  <S**2>=0.000
     293 -> 295        0.50208
     294 -> 298        0.47842
 
 Excited State   6:      Singlet-BU     2.8795 eV  430.57 nm  f=0.0024  <S**2>=0.000
     293 -> 298        0.52960
     294 -> 295        0.44645
 SavETr:  write IOETrn=   770 NScale= 10 NData=  16 NLR=1 NState=    6 LETran=     118.
 Hyperfine terms turned off by default for NAtoms > 100.

 **********************************************************************

            Population analysis using the SCF density.

 **********************************************************************

 Orbital symmetries:
       Occupied  (BU) (AG) (BU) (AG) (AG) (BU) (AG) (BU) (AU) (BG)
                 (BU) (AG) (BU) (AG) (AU) (BG) (BU) (AG) (AU) (BG)
                 (AG) (BU) (AU) (BG) (BU) (AG) (AU) (BG) (BU) (AG)
                 (BG) (AU) (BU) (AG) (BG) (AU) (AG) (BU) (BG) (AU)
                 (BU) (AG) (BU) (AG) (AU) (BG) (AG) (BU) (BU) (AG)
                 (AU) (BG) (AU) (BG) (AU) (BG) (AG) (BU) (AU) (BG)
                 (BU) (AG) (AU) (BG) (BU) (AG) (BG) (AU) (AG) (BU)
                 (AU) (AG) (BG) (BU) (AG) (BU) (AU) (BG) (AU) (BG)
                 (AG) (BU) (BU) (AG) (AU) (BG) (AG) (BU) (AU) (BG)
                 (BU) (AG) (AG) (BU) (AG) (BU) (BG) (AU) (AG) (BU)
                 (AG) (AU) (BG) (BU) (AG) (BU) (AU) (BG) (AU) (AG)
                 (BU) (BG) (AG) (BU) (BU) (AG) (AU) (BG) (BU) (AG)
                 (BU) (AG) (AU) (BG) (AG) (BU) (AU) (AG) (BU) (BG)
                 (AG) (BG) (BU) (AU) (BU) (AG) (BG) (AU) (AU) (BG)
                 (AU) (AG) (BU) (BG) (AG) (BU) (BU) (AG) (AG) (AU)
                 (BG) (BU) (AU) (BG) (AG) (BU) (AU) (BG) (BU) (AG)
                 (AU) (BG) (BG) (AU) (AG) (BU) (AG) (AU) (BG) (BU)
                 (AG) (BU) (AG) (BG) (AU) (BU) (AU) (AU) (BG) (BG)
                 (AG) (BU) (BU) (AG) (AG) (BU) (AG) (AU) (BG) (AG)
                 (BU) (AU) (BG) (BU) (BU) (AU) (BG) (AG) (AG) (BU)
                 (AU) (BG) (AG) (BU) (AG) (AU) (BG) (AU) (BG) (BU)
                 (AG) (BU) (AG) (AU) (BU) (BG) (AU) (BG) (AG) (BU)
                 (AU) (BG) (BU) (AU) (AG) (BG) (BU) (AG) (BU) (AG)
                 (AU) (BG) (BU) (AU) (AG) (BU) (BG) (AG) (BG) (AU)
                 (BG) (BU) (AG) (AU) (BU) (AG) (AU) (BG) (AU) (BG)
                 (AG) (BU) (AG) (BU) (AU) (BU) (AG) (BG) (AG) (BU)
                 (AU) (AG) (BU) (BG) (AG) (BU) (AG) (AU) (BG) (BU)
                 (AU) (BG) (AU) (BG) (AG) (BG) (BU) (AU) (BG) (AG)
                 (BU) (AU) (BU) (AG) (AU) (BU) (AG) (BG) (BU) (AG)
                 (BU) (AG) (AU) (BG)
       Virtual   (AU) (AG) (BU) (BG) (AU) (BG) (AG) (BU) (BU) (AG)
                 (AG) (AU) (BG) (BU) (AG) (BU) (AG) (BG) (AU) (BU)
                 (AU) (BG) (AG) (BU) (AU) (AG) (BG) (AG) (BU) (BG)
                 (AU) (AU) (BU) (AG) (AG) (BU) (AG) (BG) (AU) (BU)
                 (BG) (BU) (AG) (AU) (BG) (BU) (AG) (AU) (BU) (BG)
                 (AU) (AG) (BG) (BU) (AU) (BG) (AG) (BU) (AG) (BU)
                 (BG) (AG) (AU) (BU) (BG) (AU) (AG) (AU) (BU) (AG)
                 (BU) (AU) (AG) (BG) (BU) (BG) (AG) (BU) (BG) (AU)
                 (BU) (AG) (AU) (AG) (BU) (AG) (BG) (AU) (AG) (BU)
                 (AU) (BG) (BG) (BU) (AU) (BG) (AU) (BU) (BG) (AG)
                 (AG) (AU) (BU) (BG) (BG) (AG) (AU) (BU) (AU) (AG)
                 (AG) (AG) (BU) (AU) (BG) (BU) (BG) (AG) (BU) (AU)
                 (BG) (AG) (BG) (AU) (BU) (BU) (AG) (BG) (AU) (AG)
                 (AU) (BG) (BU) (BG) (BU) (AU) (AG) (BU) (BG) (AG)
                 (AG) (AU) (AU) (BU) (BG) (AG) (BU) (AG) (AU) (BG)
                 (BU) (AU) (BG) (AU) (BU) (BG) (AG) (AG) (BU) (AU)
                 (AG) (BG) (BU) (BU) (BU) (AU) (AG) (BU) (BG) (AU)
                 (AG) (AG) (AU) (BU) (AG) (BG) (BU) (BG) (AG) (BU)
                 (AU) (BU) (AG) (AU) (BG) (AG) (BU) (AU) (BG) (BG)
                 (BU) (AU) (AG) (AG) (BG) (BU) (AG) (AU) (BG) (AG)
                 (BU) (AU) (AG) (BU) (AG) (BG) (BU) (AU) (BG) (BU)
                 (AU) (AG) (BG) (AU) (BU) (AG) (AU) (BG) (AG) (BU)
                 (BU) (AG) (BU) (AG) (BU) (BG) (AG) (BU) (BG) (AU)
                 (AU) (AG) (BU) (BG) (AU) (AG) (BG) (BU) (BG) (AU)
                 (AG) (BU) (AU) (AG) (BG) (AG) (AU) (BU) (AU) (BG)
                 (AU) (BG) (AU) (AG) (BU) (BG) (AG) (BG) (BU) (AU)
                 (BU) (AU) (AG) (BG) (AG) (BU) (BG) (AG) (AU) (BU)
                 (BG) (BU) (AG) (BU) (AU) (BG) (AU) (AG) (BG) (AU)
                 (AU) (BU) (BG) (AG) (AU) (BU) (BG) (BG) (AU) (BU)
                 (BG) (AU) (AG) (BU) (AG) (AU) (BG) (BG) (BU) (AU)
                 (AG) (BG) (AG) (AG) (AU) (BG) (AU) (AG) (BU) (AG)
                 (BG) (AU) (BU) (AU) (BU) (BG) (BU) (AG) (AG) (BG)
                 (BU) (AU) (AG) (BG) (AU) (BG) (BU) (AG) (AU) (BU)
                 (BG) (AG) (BU) (AU) (BG) (AG) (AU) (AG) (BG) (BU)
                 (BU) (BG) (AG) (AU) (AU) (BU) (BG) (AG) (AU) (BU)
                 (AG) (BG) (AG) (BU) (BU) (BG) (AU) (AG) (AU) (BU)
                 (AG) (BG) (AU) (AG) (BG) (BU) (AU) (BU) (AU) (AG)
                 (BU) (BG) (AU) (AG) (BG) (BU) (AU) (BG) (BU) (AG)
                 (AG) (AU) (AU) (BG) (BG) (BU) (BU) (BG) (BU) (AG)
                 (AG) (AU) (BG) (AU) (BG) (AG) (BU) (BG) (AU) (AG)
                 (BU) (AG) (BU) (AU) (BG) (BU) (AG) (AU) (BU) (AU)
                 (BG) (AG) (BG) (BU) (AG) (AU) (BU) (BU) (AG) (AU)
                 (BG) (AU) (BU) (AG) (BG) (AG) (BU) (BG) (AG) (BG)
                 (BU) (AU) (BG) (AG) (BU) (AG) (AU) (AU) (BG) (BU)
                 (AG) (AU) (BG) (AG) (AU) (BU) (BG) (AG) (BG) (AU)
                 (BU) (BG) (AG) (BU) (AU) (BU) (AU) (AG) (BG) (BU)
                 (AG) (BG) (BU) (AU) (AG) (AU) (BU) (BG) (AG) (AG)
                 (BU) (AU) (BG) (AU) (BG) (AG) (BU) (AG) (BU) (AU)
                 (BG) (AU) (BU) (BG) (AG) (BG) (AG) (AU) (BU) (AG)
                 (BU) (BG) (AU) (BU) (BG) (AU) (AG) (AG) (BU) (AU)
                 (AG) (BU) (BG) (AU) (BU) (AU) (BU) (AG) (BG) (BU)
                 (BG) (AU) (AG) (BU) (BG) (BG) (AG) (AG) (AU) (AG)
                 (BU) (AU) (BG) (AG) (BU) (AU) (AU) (AG) (BG) (BU)
                 (AG) (BU) (BG) (BU) (BG) (AU) (BU) (AG) (AU) (BG)
                 (AU) (AG) (AG) (BU) (BU) (AU) (BG) (BG) (AG) (BU)
                 (AG) (BG) (AU) (BU) (BG) (AU) (AU) (BG) (AG) (AU)
                 (BU) (AG) (AU) (BU) (BG) (AG) (BG) (BU) (AG) (BG)
                 (BU) (AG) (AU) (BU) (AU) (BG) (BG) (AG) (AU) (BU)
                 (BU) (AG) (AG) (BU) (BG) (BU) (AU) (BU) (AG) (AG)
                 (AU) (BG) (AG) (AU) (BG) (AU) (BU) (AU) (BG) (BU)
                 (AG) (AG) (BU) (AU) (BG) (BU) (AG) (BG) (BU) (AG)
                 (AU) (AU) (AG) (BG) (BU) (BU) (AG) (AG) (BG) (BG)
                 (AG) (BG) (AU) (BU) (AU) (BU) (AG) (AU) (BU) (AG)
                 (BG) (AU) (AU) (BG) (BG) (BU) (AG) (BU) (AG) (BG)
                 (AU) (AG) (BU) (AU) (BG) (BG) (BU) (AG) (AG) (AU)
                 (BG) (AU) (BU) (AU) (BU) (AU) (BG) (BG) (AG) (BU)
                 (AG) (AU) (BG) (AG) (AU) (BU) (BG) (AU) (BG) (BU)
                 (AG) (BU) (AG) (AU) (BG) (BU) (AG) (BG) (AU) (AG)
                 (AU) (BU) (BU) (AG) (BG) (AU) (BG) (AU) (BU) (AG)
                 (BG) (BU) (AU) (BU) (AG) (BG) (AU) (AG) (BU) (BG)
                 (AU) (AG) (BU) (AU) (AG) (BU) (BG) (AG) (BU) (BG)
                 (AU) (AG) (BU) (BG) (AU) (AG) (BG) (AG) (BU) (AU)
                 (AU) (BU) (BG) (AU) (AG) (BU) (AG) (BG) (BU) (AG)
                 (BG) (BU) (BG) (AG) (AU) (BG) (BU) (AU) (AG) (AG)
                 (BG) (BU) (BU) (AU) (AU) (BU) (AG) (AU) (BU) (BG)
                 (BG) (AU) (BG) (BU) (AU) (AG) (BG) (AU) (BG) (AG)
                 (BU) (AG) (BG) (BU) (AG) (AG) (AU) (AU) (AG) (BG)
                 (BU) (BU) (BG) (AU) (BU) (AG) (AU) (BU) (BG) (BG)
                 (AG) (AU) (AU) (BG) (BU) (AG) (AU) (BG) (AU) (BG)
                 (BU) (AG) (AG) (BU) (BG) (AU) (AG) (BU) (AU) (AG)
                 (BG) (BU) (BG) (AG) (BU) (AU) (AG) (AG) (BG) (BU)
                 (AU) (BU) (AU) (BU) (AG) (AG) (AU) (BG) (BU) (BG)
                 (AU) (AG) (BU) (AU) (BG) (BG) (BU) (AG) (AG) (AU)
                 (BU) (BG) (AG) (AU) (BU) (BG) (AG) (AU) (AU) (BG)
                 (BU) (BG) (AG) (BU) (AG) (AG) (BU) (AU) (AU) (BG)
                 (BU) (AG) (BU) (BG) (AU) (BG) (BU) (AG) (AU) (BG)
                 (AG) (BU) (AU) (BG) (AG) (BU) (BG) (AU) (BU) (AU)
                 (AG) (AG) (BG) (BU) (AU) (BG) (BU) (BG) (AG) (AU)
                 (BG) (BU) (AG) (AU) (AG) (BG) (BU) (AG) (AU) (AG)
                 (BG) (AU) (BU) (BU) (BG) (AG) (AU) (AG) (BU) (BG)
                 (AU) (BG) (BU) (AG) (AU) (BG) (BU) (AU) (AG) (AU)
                 (BU) (BG) (AG) (AG) (BU) (AU) (BG) (AU) (BU) (AG)
                 (BG) (BU) (AG) (BG) (AG) (AU) (BU) (AU) (BU) (AG)
                 (BG) (BG) (AG) (AU) (BU) (AU) (BG) (AU) (AG) (BU)
                 (BG) (AU) (BG) (BU) (BG) (AG) (BG) (AU) (BU) (AG)
                 (AU) (BU) (BG) (BU) (AU) (AG) (AU) (AG) (BG) (AG)
                 (AU) (BG) (BU) (BU) (AU) (AU) (BG) (AG) (AU) (BU)
                 (BG) (BU) (AG) (AU) (BG) (AG) (BU) (BG) (AU) (AU)
                 (BG) (BU) (AG) (BG) (BU) (AU) (BG) (AG) (AG) (AU)
                 (BG) (BU) (AG) (BG) (AU) (BG) (AG) (BU) (BG) (AU)
                 (AU) (BG) (BU) (AG) (AU) (BU) (AG) (BU) (AG) (BU)
                 (AG) (AU) (BU) (BG) (AU) (BG) (AG) (BU) (AG) (BU)
                 (AG) (AU) (BG) (AU) (BG) (AU) (AG) (BU) (BU) (BG)
                 (BG) (AU) (AU) (AG) (AG) (BU) (BG) (AU) (AG) (BG)
                 (AU) (AU) (BU) (BG) (AU) (AG) (BG) (BG) (BU) (BG)
                 (BU) (AG) (AU) (BU) (AG) (BU) (AG) (AU) (BG) (AG)
                 (BU) (AU) (AG) (BU) (BG) (AU) (AG) (BU) (BG) (BG)
                 (AG) (AU) (BU) (AU) (BG) (BU) (BG) (AG) (BU) (AU)
                 (AG) (BU) (AU) (AG) (BG) (BU) (AG) (BG) (AU) (BU)
                 (BG) (AU) (AG) (AU) (BG) (BG) (BU) (AG) (AU) (BU)
                 (BG) (AG) (AU) (AU) (BU) (BG) (AU) (BG) (AG) (BU)
                 (AG) (BU) (AU) (BG) (AU) (AG) (BU) (BG) (AG) (BU)
                 (BU) (AG) (AU) (BG) (BG) (AU) (BU) (BG) (AG) (BU)
                 (AU) (AG) (AG) (BU) (AG) (BU) (BU) (AG) (AG) (AU)
                 (BU) (BG) (AG) (AU) (BU) (AG) (BG) (BU) (AU) (AG)
                 (BG) (AU) (BU) (BG) (AG) (BG) (BU) (AU) (BG) (AG)
                 (BU) (BG) (AG) (AU) (BG) (BU) (AU) (AU) (AG) (BU)
                 (AU) (AG) (BG) (AU) (BG) (BU) (AG) (AU) (BG) (AG)
                 (BU) (AU) (AG) (BU) (BG) (AG) (BG) (AU) (BU) (AU)
                 (AG) (BG) (AU) (BU) (BG) (AU) (BU) (AG) (BU) (BG)
                 (AU) (BG) (AU) (AG) (BG) (BU) (AG) (BU) (AG) (BG)
                 (BU) (AU) (AG) (BU) (AG) (AG) (BU) (BU) (BG) (AU)
                 (AG) (BG) (BU) (AU) (BG) (AU) (AG) (BU) (BG) (AU)
                 (BG) (AU) (AG) (BU) (AG) (BU) (BG) (AU) (BU) (BG)
                 (AU) (AG) (BG) (AU) (BU) (AG) (BG) (AU) (AG) (AG)
                 (BU) (BG) (BU) (AU) (BU) (AG) (AG) (BG) (AU) (BU)
                 (BU) (AG) (BG) (AU) (BU) (AG) (AU) (BG) (AG) (AU)
                 (BU) (BG) (AG) (AG) (BU) (BG) (BU) (AU) (BU) (AG)
                 (AU) (AG) (AU) (BG) (BG) (BU) (BG) (BU) (AG) (BU)
                 (AG) (AU) (BU) (AG) (AU) (BG) (AU) (BU) (AG) (BG)
                 (AG) (AU) (BU) (BU) (BG) (AG) (BU) (BG) (AU) (AU)
                 (AG) (BU) (AG) (BG) (AG) (BU) (BG) (AU) (BU) (AG)
                 (AG) (AU) (BG) (BU) (BG) (AU) (BU) (AG) (AG) (BU)
                 (AU) (BG) (AG) (BU) (BU) (AU) (AG) (BG) (AU) (AG)
                 (BG) (BU) (BU) (AU) (BG) (BG) (AU) (AG) (AG) (BU)
                 (BU) (AG) (AU) (BG) (BU) (AG) (BG) (AU) (AG) (AU)
                 (BU) (BG) (AU) (BG) (AU) (AG) (BU) (BU) (AG) (BG)
                 (BU) (BG) (AG) (BU) (AU) (AG) (AU) (BG) (BU) (AG)
                 (AU) (BG) (BU) (BG) (AU) (AG) (AU) (AG) (BU) (BG)
                 (BU) (AU) (BG) (AG) (AU) (AU) (BG) (AG) (BU) (BG)
                 (AU) (AG) (BU) (BU) (BG) (AU) (AG) (AG) (BU) (AU)
                 (BG) (BU) (BG) (AG) (BU) (AG) (AU) (BU) (BG) (BU)
                 (AG) (AU) (BG) (AU) (AG) (BG) (AU) (AU) (BU) (BG)
                 (AG) (BU) (AG) (BG) (AU) (BG) (BU) (AU) (AG) (BU)
                 (AG) (BG) (AU) (AG) (BU) (AG) (AU) (BG) (BU) (BU)
                 (BG) (BU) (AG) (AG) (AG) (AU) (BG) (BG) (AU) (BU)
                 (AU) (AG) (BG) (BU) (BU) (AG) (AU) (BG) (BU) (AG)
                 (BU) (AG) (BU) (BG) (AG) (AU) (AU) (BG) (AU) (AG)
                 (AG) (AU) (BU) (BG) (BU) (BG) (AG) (BU) (AU) (BG)
                 (AG) (AG) (BU) (AU) (BG) (BU) (AU) (BG) (BG) (AG)
                 (AG) (BU) (AU) (BG) (AU) (AG) (BU) (BU) (BG) (BU)
                 (BG) (AU) (AG) (AU) (BG) (AG) (BU) (AU) (BG) (AU)
                 (AG) (BU) (AU) (BG) (AG) (BU) (AU) (AG) (BG) (AU)
                 (BU) (BG) (AG) (BU) (AU) (BU) (BG) (AU) (AG) (BG)
                 (BU) (BG) (AG) (AU) (BG) (AG) (BU) (AU) (BG) (AU)
                 (AG) (BU) (BG) (BU) (AG) (AU) (BG) (AU) (BU) (AG)
                 (BG) (AU) (AG) (BU) (BU) (BG) (AG) (AU) (AG) (BU)
                 (BG) (AU) (BG) (AU) (AG) (BG) (AU) (BU) (AU) (BG)
                 (AG) (AU) (BG) (BU) (BG) (AU) (BG) (AU) (AG) (AU)
                 (BG) (AG) (BG) (BU) (AU) (AG) (BU) (BG) (AU) (AG)
                 (BG) (BU) (AU) (BU) (BG) (AU) (AG) (BU) (BG) (AU)
                 (BU) (AG) (AU) (BG) (AU) (BU) (AG) (BG) (BG) (AG)
                 (BU) (AU) (BG) (BU) (AG) (AU) (AU) (BG) (AG) (BU)
                 (AU) (BG) (AU) (BU) (AG) (BG) (AU) (BG) (AU) (BG)
                 (AG) (BU) (AG) (BU) (AG) (BU) (AU) (BG) (AU) (BG)
                 (AU) (BG) (AG) (BU) (BG) (AU) (BG) (AG) (BU) (AU)
                 (BG) (AU) (BU) (AU) (BG) (AG) (AU) (BG) (AG) (BU)
                 (AG) (BU) (BG) (AU) (AG) (BU) (BG) (AU) (AG) (BU)
                 (AU) (BG) (AU) (AG) (BG) (BU) (AG) (BU) (AG) (BU)
                 (AU) (BG) (AG) (BU) (BU) (AG) (AU) (BG) (BG) (AU)
                 (AG) (BG) (BU) (AU) (AU) (BG) (BU) (AG) (BG) (AU)
                 (AG) (BU) (AU) (BG) (AG) (BG) (BU) (AU) (BG) (AU)
                 (AU) (BG) (AG) (BU) (AU) (BG) (AG) (BU) (AU) (BG)
                 (AU) (BG) (AG) (BU) (AU) (AG) (BU) (BG) (AG) (BU)
                 (AG) (AU) (BG) (BU) (AU) (BG) (AG) (BU) (AG) (BU)
                 (AU) (BG) (AG) (BU) (AU) (BG) (AG) (AU) (BU) (BG)
                 (AU) (BG) (BU) (AG) (AU) (BG) (AG) (BU) (AG) (BU)
                 (BG) (AU) (BG) (AU) (BU) (AG) (AU) (BG) (BU) (AU)
                 (BG) (AG) (BU) (AG) (AU) (BG) (AU) (BU) (AG) (BG)
                 (BU) (AG) (BG) (AU) (BU) (AG) (BU) (AG) (BG) (AU)
                 (BU) (AG) (BG) (AU) (BU) (AG) (BU) (AG) (AU) (BG)
                 (BU) (AG) (AU) (BG) (AG) (BU) (AU) (BG) (AG) (BU)
                 (BG) (AU) (AG) (BU) (AG) (BU) (AG) (BU) (BG) (AU)
                 (AG) (BG) (AU) (BU) (AG) (BU) (BG) (AU) (AG) (BU)
                 (AG) (BU) (AG) (BU) (BG) (AU) (AG) (BU) (AG) (BU)
                 (AG) (BU) (BG) (AU) (AG) (BU) (BG) (AU) (BG) (AU)
                 (BU) (AG) (BG) (AU) (BU) (AG) (BU) (BG) (AU) (AG)
                 (BG) (AU) (BG) (AU) (BG) (AU) (AG) (BU) (AU) (BG)
                 (AG) (BU) (BU) (AG) (BU) (BG) (AU) (AG) (AU) (BG)
                 (AU) (BG) (BU) (AU) (AG) (BG) (AU) (BG) (AG) (BU)
                 (AU) (BG) (BU) (AG) (BU) (AG) (BG) (AU) (AG) (BU)
                 (BG) (AU) (AG) (BU)
 The electronic state is 1-AG.
 Alpha  occ. eigenvalues -- -345.96883-345.96883 -41.83737 -41.83737 -36.92027
 Alpha  occ. eigenvalues --  -36.92027 -36.91195 -36.91195 -36.91194 -36.91194
 Alpha  occ. eigenvalues --  -14.20367 -14.20367 -14.20294 -14.20294 -14.20292
 Alpha  occ. eigenvalues --  -14.20292 -14.20237 -14.20237 -14.19561 -14.19561
 Alpha  occ. eigenvalues --  -14.19560 -14.19560 -14.19434 -14.19434 -14.19434
 Alpha  occ. eigenvalues --  -14.19434 -10.16713 -10.16713 -10.16707 -10.16707
 Alpha  occ. eigenvalues --  -10.16701 -10.16701 -10.16700 -10.16700 -10.16694
 Alpha  occ. eigenvalues --  -10.16694 -10.16693 -10.16693 -10.16687 -10.16687
 Alpha  occ. eigenvalues --  -10.16681 -10.16681 -10.09882 -10.09882 -10.09872
 Alpha  occ. eigenvalues --  -10.09872 -10.09872 -10.09872 -10.09871 -10.09871
 Alpha  occ. eigenvalues --  -10.09850 -10.09850 -10.09840 -10.09840 -10.09836
 Alpha  occ. eigenvalues --  -10.09836 -10.09836 -10.09836 -10.09703 -10.09703
 Alpha  occ. eigenvalues --  -10.09703 -10.09703 -10.09699 -10.09699 -10.09697
 Alpha  occ. eigenvalues --  -10.09697 -10.09696 -10.09696 -10.09693 -10.09693
 Alpha  occ. eigenvalues --  -10.09682 -10.09682 -10.09682 -10.09682 -10.09601
 Alpha  occ. eigenvalues --  -10.09601 -10.09565 -10.09565 -10.09547 -10.09547
 Alpha  occ. eigenvalues --  -10.09547 -10.09547 -10.09535 -10.09535 -10.09509
 Alpha  occ. eigenvalues --  -10.09509 -10.09509 -10.09509 -10.09499 -10.09499
 Alpha  occ. eigenvalues --   -4.78612  -4.78612  -3.23223  -3.23223  -3.21822
 Alpha  occ. eigenvalues --   -3.21822  -3.21821  -3.21821  -1.13099  -1.13050
 Alpha  occ. eigenvalues --   -1.11663  -1.11621  -1.11613  -1.11562  -1.08842
 Alpha  occ. eigenvalues --   -1.08785  -1.06628  -1.06592  -1.02493  -1.02489
 Alpha  occ. eigenvalues --   -1.02463  -1.02452  -0.99413  -0.99404  -0.98215
 Alpha  occ. eigenvalues --   -0.98147  -0.98147  -0.98144  -0.98117  -0.98112
 Alpha  occ. eigenvalues --   -0.98040  -0.97997  -0.90057  -0.90014  -0.88779
 Alpha  occ. eigenvalues --   -0.88669  -0.88517  -0.88508  -0.88478  -0.88466
 Alpha  occ. eigenvalues --   -0.88136  -0.88134  -0.88116  -0.88103  -0.87929
 Alpha  occ. eigenvalues --   -0.87928  -0.87813  -0.87810  -0.84276  -0.84255
 Alpha  occ. eigenvalues --   -0.81610  -0.81599  -0.81589  -0.81580  -0.76162
 Alpha  occ. eigenvalues --   -0.76139  -0.76009  -0.75954  -0.75201  -0.75177
 Alpha  occ. eigenvalues --   -0.75148  -0.75142  -0.74554  -0.74524  -0.74203
 Alpha  occ. eigenvalues --   -0.74194  -0.71703  -0.71696  -0.71695  -0.71695
 Alpha  occ. eigenvalues --   -0.71546  -0.71534  -0.70552  -0.70531  -0.68007
 Alpha  occ. eigenvalues --   -0.68000  -0.67054  -0.67038  -0.67032  -0.67016
 Alpha  occ. eigenvalues --   -0.65561  -0.65526  -0.65339  -0.65335  -0.65332
 Alpha  occ. eigenvalues --   -0.65330  -0.61731  -0.61725  -0.61720  -0.61703
 Alpha  occ. eigenvalues --   -0.61476  -0.61449  -0.61049  -0.61039  -0.60440
 Alpha  occ. eigenvalues --   -0.59716  -0.59686  -0.59660  -0.59628  -0.59589
 Alpha  occ. eigenvalues --   -0.59587  -0.59556  -0.59523  -0.59137  -0.58364
 Alpha  occ. eigenvalues --   -0.58328  -0.58323  -0.58290  -0.57502  -0.57429
 Alpha  occ. eigenvalues --   -0.57413  -0.57388  -0.56882  -0.56880  -0.56833
 Alpha  occ. eigenvalues --   -0.56561  -0.56507  -0.56502  -0.56496  -0.56125
 Alpha  occ. eigenvalues --   -0.55885  -0.55842  -0.55364  -0.55336  -0.55325
 Alpha  occ. eigenvalues --   -0.55324  -0.55260  -0.55196  -0.54944  -0.54307
 Alpha  occ. eigenvalues --   -0.54221  -0.54211  -0.53999  -0.53994  -0.53983
 Alpha  occ. eigenvalues --   -0.53970  -0.52730  -0.52725  -0.51787  -0.51661
 Alpha  occ. eigenvalues --   -0.51133  -0.50628  -0.49568  -0.48948  -0.48894
 Alpha  occ. eigenvalues --   -0.48843  -0.48774  -0.48125  -0.47868  -0.47860
 Alpha  occ. eigenvalues --   -0.47614  -0.47598  -0.47597  -0.47570  -0.46878
 Alpha  occ. eigenvalues --   -0.46843  -0.46808  -0.46805  -0.46697  -0.46663
 Alpha  occ. eigenvalues --   -0.46655  -0.46617  -0.46100  -0.46091  -0.44922
 Alpha  occ. eigenvalues --   -0.44893  -0.44888  -0.44877  -0.44772  -0.44745
 Alpha  occ. eigenvalues --   -0.43396  -0.43223  -0.43038  -0.42830  -0.42029
 Alpha  occ. eigenvalues --   -0.41902  -0.39085  -0.39079  -0.38966  -0.38937
 Alpha  occ. eigenvalues --   -0.38316  -0.38111  -0.37259  -0.37103  -0.36735
 Alpha  occ. eigenvalues --   -0.36203  -0.35978  -0.35942  -0.35855  -0.35777
 Alpha  occ. eigenvalues --   -0.35657  -0.35529  -0.35085  -0.35048  -0.34944
 Alpha  occ. eigenvalues --   -0.34916  -0.34872  -0.34795  -0.34783  -0.34627
 Alpha  occ. eigenvalues --   -0.34007  -0.33886  -0.24264  -0.23766
 Alpha virt. eigenvalues --   -0.06338  -0.06297  -0.06082  -0.06032   0.02201
 Alpha virt. eigenvalues --    0.02438   0.03120   0.03213   0.03550   0.03685
 Alpha virt. eigenvalues --    0.04050   0.04211   0.04498   0.04565   0.07740
 Alpha virt. eigenvalues --    0.07982   0.09213   0.09216   0.09286   0.09361
 Alpha virt. eigenvalues --    0.09452   0.09608   0.09615   0.09679   0.09816
 Alpha virt. eigenvalues --    0.10468   0.11013   0.11423   0.11453   0.11925
 Alpha virt. eigenvalues --    0.11952   0.12097   0.12164   0.12286   0.12435
 Alpha virt. eigenvalues --    0.12579   0.12842   0.13282   0.13381   0.13404
 Alpha virt. eigenvalues --    0.13524   0.13613   0.14068   0.14284   0.14309
 Alpha virt. eigenvalues --    0.14548   0.14979   0.15574   0.15641   0.16062
 Alpha virt. eigenvalues --    0.16074   0.16256   0.16464   0.16527   0.16571
 Alpha virt. eigenvalues --    0.17136   0.17277   0.17441   0.17656   0.18708
 Alpha virt. eigenvalues --    0.19096   0.19354   0.19470   0.19505   0.19802
 Alpha virt. eigenvalues --    0.19824   0.19839   0.19939   0.20249   0.20472
 Alpha virt. eigenvalues --    0.20572   0.21008   0.21020   0.21048   0.21182
 Alpha virt. eigenvalues --    0.21455   0.21510   0.22575   0.22694   0.22794
 Alpha virt. eigenvalues --    0.22919   0.22985   0.23223   0.23470   0.23689
 Alpha virt. eigenvalues --    0.24444   0.24445   0.24465   0.25204   0.25221
 Alpha virt. eigenvalues --    0.25260   0.25397   0.25549   0.25618   0.25704
 Alpha virt. eigenvalues --    0.25952   0.26013   0.26141   0.26171   0.26172
 Alpha virt. eigenvalues --    0.26589   0.26741   0.26879   0.27101   0.27302
 Alpha virt. eigenvalues --    0.27316   0.27327   0.27398   0.27635   0.27678
 Alpha virt. eigenvalues --    0.27892   0.27972   0.27987   0.28014   0.28062
 Alpha virt. eigenvalues --    0.28196   0.28352   0.28488   0.28613   0.28629
 Alpha virt. eigenvalues --    0.28800   0.28918   0.28974   0.29010   0.29099
 Alpha virt. eigenvalues --    0.29145   0.29191   0.29277   0.29365   0.29395
 Alpha virt. eigenvalues --    0.29439   0.29485   0.29584   0.29684   0.30116
 Alpha virt. eigenvalues --    0.30136   0.30495   0.30643   0.30844   0.30887
 Alpha virt. eigenvalues --    0.31035   0.31110   0.31202   0.31257   0.31308
 Alpha virt. eigenvalues --    0.31392   0.31671   0.31843   0.31880   0.32159
 Alpha virt. eigenvalues --    0.32234   0.32356   0.32361   0.32493   0.32752
 Alpha virt. eigenvalues --    0.32827   0.33324   0.33383   0.33569   0.33697
 Alpha virt. eigenvalues --    0.33722   0.33946   0.34193   0.34418   0.34621
 Alpha virt. eigenvalues --    0.34776   0.34885   0.34905   0.35141   0.35160
 Alpha virt. eigenvalues --    0.35405   0.35548   0.35594   0.36018   0.36231
 Alpha virt. eigenvalues --    0.36343   0.36358   0.36846   0.36900   0.37134
 Alpha virt. eigenvalues --    0.37219   0.37358   0.37536   0.37659   0.37887
 Alpha virt. eigenvalues --    0.38041   0.38100   0.38139   0.38237   0.38328
 Alpha virt. eigenvalues --    0.38504   0.38540   0.38729   0.39048   0.39087
 Alpha virt. eigenvalues --    0.39125   0.39374   0.39438   0.39716   0.39769
 Alpha virt. eigenvalues --    0.39795   0.40072   0.40175   0.40550   0.40586
 Alpha virt. eigenvalues --    0.40932   0.41011   0.41043   0.41119   0.41176
 Alpha virt. eigenvalues --    0.41196   0.41227   0.41830   0.41851   0.41993
 Alpha virt. eigenvalues --    0.42075   0.42337   0.42395   0.42421   0.42558
 Alpha virt. eigenvalues --    0.42625   0.42769   0.43166   0.43176   0.43384
 Alpha virt. eigenvalues --    0.43472   0.43556   0.43618   0.43618   0.43751
 Alpha virt. eigenvalues --    0.43876   0.44074   0.44394   0.44451   0.44631
 Alpha virt. eigenvalues --    0.44703   0.44719   0.44896   0.44995   0.45444
 Alpha virt. eigenvalues --    0.45485   0.45712   0.45777   0.45894   0.45993
 Alpha virt. eigenvalues --    0.46153   0.46189   0.46240   0.46351   0.46517
 Alpha virt. eigenvalues --    0.46777   0.46913   0.46987   0.46995   0.47026
 Alpha virt. eigenvalues --    0.47276   0.47522   0.47641   0.47677   0.47883
 Alpha virt. eigenvalues --    0.48118   0.48346   0.48354   0.48555   0.48656
 Alpha virt. eigenvalues --    0.48799   0.48835   0.48950   0.49085   0.49227
 Alpha virt. eigenvalues --    0.49387   0.49465   0.49512   0.49669   0.49749
 Alpha virt. eigenvalues --    0.49935   0.49938   0.50012   0.50055   0.50172
 Alpha virt. eigenvalues --    0.50452   0.50723   0.51043   0.51186   0.51431
 Alpha virt. eigenvalues --    0.51793   0.51936   0.52280   0.52334   0.52486
 Alpha virt. eigenvalues --    0.52648   0.52740   0.52777   0.52791   0.52975
 Alpha virt. eigenvalues --    0.53011   0.53183   0.53216   0.53565   0.53905
 Alpha virt. eigenvalues --    0.53920   0.53951   0.54172   0.54267   0.54271
 Alpha virt. eigenvalues --    0.54586   0.54623   0.54752   0.54877   0.54994
 Alpha virt. eigenvalues --    0.55275   0.55439   0.55840   0.56124   0.56175
 Alpha virt. eigenvalues --    0.56381   0.56385   0.56445   0.56847   0.57224
 Alpha virt. eigenvalues --    0.57357   0.57580   0.57658   0.57742   0.58021
 Alpha virt. eigenvalues --    0.58164   0.58341   0.58377   0.58517   0.58801
 Alpha virt. eigenvalues --    0.59043   0.59218   0.59259   0.59269   0.59333
 Alpha virt. eigenvalues --    0.59492   0.59493   0.59763   0.59860   0.59901
 Alpha virt. eigenvalues --    0.59969   0.60184   0.60187   0.60211   0.60623
 Alpha virt. eigenvalues --    0.60844   0.61095   0.61215   0.61296   0.61527
 Alpha virt. eigenvalues --    0.61569   0.62335   0.62354   0.62383   0.62813
 Alpha virt. eigenvalues --    0.63022   0.63221   0.63754   0.63765   0.64528
 Alpha virt. eigenvalues --    0.64540   0.64779   0.64837   0.64899   0.64922
 Alpha virt. eigenvalues --    0.65022   0.65201   0.65427   0.65643   0.65913
 Alpha virt. eigenvalues --    0.66281   0.66588   0.66693   0.66785   0.66864
 Alpha virt. eigenvalues --    0.66869   0.66962   0.67177   0.67177   0.67305
 Alpha virt. eigenvalues --    0.67879   0.68184   0.68303   0.68400   0.68783
 Alpha virt. eigenvalues --    0.68826   0.69123   0.69219   0.69363   0.69376
 Alpha virt. eigenvalues --    0.69401   0.69846   0.69901   0.70073   0.70208
 Alpha virt. eigenvalues --    0.70416   0.70438   0.70638   0.70690   0.70704
 Alpha virt. eigenvalues --    0.70767   0.71161   0.71216   0.71500   0.72088
 Alpha virt. eigenvalues --    0.72112   0.72184   0.72245   0.72482   0.72534
 Alpha virt. eigenvalues --    0.72998   0.73038   0.73238   0.73358   0.73834
 Alpha virt. eigenvalues --    0.73850   0.73946   0.74244   0.74390   0.74404
 Alpha virt. eigenvalues --    0.74684   0.75161   0.75214   0.75228   0.75366
 Alpha virt. eigenvalues --    0.75802   0.76128   0.76465   0.76658   0.76766
 Alpha virt. eigenvalues --    0.77123   0.77409   0.77410   0.77569   0.77652
 Alpha virt. eigenvalues --    0.77683   0.77839   0.77893   0.77960   0.78001
 Alpha virt. eigenvalues --    0.78208   0.78230   0.78438   0.78552   0.78909
 Alpha virt. eigenvalues --    0.79015   0.79178   0.79183   0.79293   0.79296
 Alpha virt. eigenvalues --    0.79427   0.79527   0.79694   0.79803   0.79898
 Alpha virt. eigenvalues --    0.79909   0.80074   0.80164   0.80220   0.80866
 Alpha virt. eigenvalues --    0.80909   0.81063   0.81082   0.81102   0.81285
 Alpha virt. eigenvalues --    0.81423   0.81614   0.81652   0.81963   0.82114
 Alpha virt. eigenvalues --    0.82228   0.82305   0.82600   0.82695   0.82725
 Alpha virt. eigenvalues --    0.82898   0.83268   0.83340   0.83369   0.83443
 Alpha virt. eigenvalues --    0.83497   0.83574   0.83835   0.83886   0.83902
 Alpha virt. eigenvalues --    0.84144   0.84159   0.84350   0.84358   0.84420
 Alpha virt. eigenvalues --    0.84656   0.84907   0.84929   0.85177   0.85457
 Alpha virt. eigenvalues --    0.85675   0.85708   0.85994   0.86050   0.86230
 Alpha virt. eigenvalues --    0.86297   0.86434   0.86923   0.87045   0.87248
 Alpha virt. eigenvalues --    0.87272   0.87431   0.87464   0.87829   0.87994
 Alpha virt. eigenvalues --    0.88224   0.88313   0.88569   0.88688   0.88726
 Alpha virt. eigenvalues --    0.89016   0.89328   0.89560   0.89602   0.89804
 Alpha virt. eigenvalues --    0.89907   0.89912   0.90489   0.90554   0.90568
 Alpha virt. eigenvalues --    0.90974   0.91225   0.91378   0.91440   0.91493
 Alpha virt. eigenvalues --    0.91767   0.92030   0.92225   0.92333   0.92849
 Alpha virt. eigenvalues --    0.93092   0.93181   0.93190   0.93385   0.93464
 Alpha virt. eigenvalues --    0.93612   0.93661   0.93766   0.93854   0.94470
 Alpha virt. eigenvalues --    0.94494   0.94561   0.95293   0.95751   0.95832
 Alpha virt. eigenvalues --    0.96340   0.96409   0.96470   0.96726   0.96837
 Alpha virt. eigenvalues --    0.96856   0.97331   0.97395   0.97648   0.97802
 Alpha virt. eigenvalues --    0.97974   0.98065   0.98256   0.98643   0.98827
 Alpha virt. eigenvalues --    0.99084   0.99177   0.99210   1.00446   1.00544
 Alpha virt. eigenvalues --    1.00607   1.00674   1.01181   1.01303   1.01384
 Alpha virt. eigenvalues --    1.01883   1.02095   1.02116   1.02214   1.02254
 Alpha virt. eigenvalues --    1.02540   1.02618   1.02734   1.02998   1.03158
 Alpha virt. eigenvalues --    1.03294   1.03473   1.03496   1.03644   1.03928
 Alpha virt. eigenvalues --    1.04562   1.04933   1.05075   1.05115   1.05225
 Alpha virt. eigenvalues --    1.05537   1.05668   1.05753   1.05993   1.06288
 Alpha virt. eigenvalues --    1.06687   1.06837   1.07049   1.07457   1.07642
 Alpha virt. eigenvalues --    1.07736   1.08268   1.08271   1.08956   1.09178
 Alpha virt. eigenvalues --    1.09228   1.09449   1.09950   1.10002   1.10348
 Alpha virt. eigenvalues --    1.10465   1.11319   1.11402   1.11474   1.11959
 Alpha virt. eigenvalues --    1.12608   1.12655   1.12818   1.13158   1.13412
 Alpha virt. eigenvalues --    1.13780   1.13899   1.14211   1.14329   1.14643
 Alpha virt. eigenvalues --    1.14732   1.14754   1.15404   1.15561   1.15751
 Alpha virt. eigenvalues --    1.15968   1.16247   1.16658   1.16915   1.17126
 Alpha virt. eigenvalues --    1.17198   1.17309   1.17469   1.17862   1.17898
 Alpha virt. eigenvalues --    1.18057   1.18350   1.18864   1.19203   1.19204
 Alpha virt. eigenvalues --    1.19296   1.19423   1.19472   1.20417   1.20614
 Alpha virt. eigenvalues --    1.21027   1.21042   1.21532   1.21601   1.21799
 Alpha virt. eigenvalues --    1.22052   1.22151   1.22152   1.22196   1.22562
 Alpha virt. eigenvalues --    1.22742   1.22757   1.23253   1.23498   1.23521
 Alpha virt. eigenvalues --    1.23881   1.24112   1.24227   1.24588   1.24977
 Alpha virt. eigenvalues --    1.25461   1.25620   1.25875   1.26035   1.26094
 Alpha virt. eigenvalues --    1.26209   1.26251   1.26347   1.26402   1.26994
 Alpha virt. eigenvalues --    1.27632   1.27706   1.28227   1.28568   1.28811
 Alpha virt. eigenvalues --    1.28902   1.28979   1.29082   1.29343   1.29406
 Alpha virt. eigenvalues --    1.30240   1.30242   1.30648   1.30896   1.31044
 Alpha virt. eigenvalues --    1.31145   1.31525   1.31605   1.32026   1.32310
 Alpha virt. eigenvalues --    1.32411   1.32488   1.32584   1.32799   1.33017
 Alpha virt. eigenvalues --    1.33241   1.33243   1.33768   1.33777   1.34214
 Alpha virt. eigenvalues --    1.34760   1.34776   1.34886   1.34966   1.35376
 Alpha virt. eigenvalues --    1.35410   1.35469   1.35591   1.35705   1.35863
 Alpha virt. eigenvalues --    1.36124   1.36450   1.36499   1.36831   1.37025
 Alpha virt. eigenvalues --    1.37057   1.37395   1.37603   1.38055   1.38103
 Alpha virt. eigenvalues --    1.38269   1.38440   1.39041   1.39105   1.39345
 Alpha virt. eigenvalues --    1.39524   1.39551   1.39809   1.40193   1.40622
 Alpha virt. eigenvalues --    1.40659   1.40879   1.40981   1.41192   1.41365
 Alpha virt. eigenvalues --    1.41669   1.41820   1.42096   1.42207   1.42256
 Alpha virt. eigenvalues --    1.42442   1.43227   1.43343   1.43365   1.43820
 Alpha virt. eigenvalues --    1.44466   1.44884   1.44911   1.45095   1.45114
 Alpha virt. eigenvalues --    1.45334   1.45555   1.45639   1.45946   1.46028
 Alpha virt. eigenvalues --    1.46186   1.46334   1.46341   1.46550   1.47128
 Alpha virt. eigenvalues --    1.47468   1.47563   1.47616   1.47802   1.48094
 Alpha virt. eigenvalues --    1.48144   1.48259   1.48436   1.48681   1.48770
 Alpha virt. eigenvalues --    1.48831   1.48877   1.48903   1.49304   1.49383
 Alpha virt. eigenvalues --    1.49616   1.49669   1.49918   1.50086   1.50167
 Alpha virt. eigenvalues --    1.50430   1.50530   1.50964   1.51226   1.51702
 Alpha virt. eigenvalues --    1.51989   1.52087   1.52406   1.52489   1.52848
 Alpha virt. eigenvalues --    1.53018   1.53186   1.53446   1.53822   1.53846
 Alpha virt. eigenvalues --    1.53927   1.54395   1.54573   1.54786   1.54903
 Alpha virt. eigenvalues --    1.55221   1.55337   1.55337   1.55491   1.55799
 Alpha virt. eigenvalues --    1.56099   1.56111   1.56367   1.56391   1.56458
 Alpha virt. eigenvalues --    1.56829   1.57033   1.57141   1.57258   1.57419
 Alpha virt. eigenvalues --    1.57441   1.57601   1.58620   1.58720   1.58919
 Alpha virt. eigenvalues --    1.59034   1.59054   1.59404   1.59856   1.60041
 Alpha virt. eigenvalues --    1.60187   1.60556   1.60662   1.60811   1.61209
 Alpha virt. eigenvalues --    1.61786   1.61997   1.62040   1.62575   1.62753
 Alpha virt. eigenvalues --    1.63230   1.63681   1.63844   1.63970   1.64240
 Alpha virt. eigenvalues --    1.64544   1.65137   1.65155   1.65361   1.65371
 Alpha virt. eigenvalues --    1.65807   1.66142   1.66228   1.66421   1.66428
 Alpha virt. eigenvalues --    1.66484   1.67374   1.67474   1.67707   1.67889
 Alpha virt. eigenvalues --    1.68015   1.68331   1.68411   1.68687   1.69441
 Alpha virt. eigenvalues --    1.69469   1.69475   1.69546   1.69710   1.69892
 Alpha virt. eigenvalues --    1.69985   1.70044   1.70512   1.70949   1.71184
 Alpha virt. eigenvalues --    1.71202   1.71362   1.71440   1.71513   1.71516
 Alpha virt. eigenvalues --    1.71840   1.71887   1.72060   1.72397   1.72541
 Alpha virt. eigenvalues --    1.72562   1.72759   1.73028   1.73159   1.73172
 Alpha virt. eigenvalues --    1.73441   1.73558   1.74131   1.74230   1.74354
 Alpha virt. eigenvalues --    1.74408   1.74771   1.75026   1.75126   1.75201
 Alpha virt. eigenvalues --    1.75401   1.75464   1.75842   1.76259   1.76466
 Alpha virt. eigenvalues --    1.76750   1.77482   1.77753   1.77880   1.77894
 Alpha virt. eigenvalues --    1.77943   1.78110   1.78192   1.78414   1.78652
 Alpha virt. eigenvalues --    1.78711   1.79313   1.79562   1.79577   1.79639
 Alpha virt. eigenvalues --    1.79913   1.80086   1.80277   1.80573   1.80680
 Alpha virt. eigenvalues --    1.81108   1.81316   1.81707   1.81780   1.81915
 Alpha virt. eigenvalues --    1.82238   1.82354   1.82559   1.82828   1.83058
 Alpha virt. eigenvalues --    1.83066   1.83492   1.83808   1.84103   1.84591
 Alpha virt. eigenvalues --    1.84793   1.84837   1.85056   1.85320   1.85443
 Alpha virt. eigenvalues --    1.85525   1.85929   1.86230   1.86296   1.86726
 Alpha virt. eigenvalues --    1.87141   1.87194   1.87382   1.87598   1.87695
 Alpha virt. eigenvalues --    1.88188   1.88347   1.88757   1.88827   1.88980
 Alpha virt. eigenvalues --    1.89043   1.89367   1.89503   1.89595   1.89636
 Alpha virt. eigenvalues --    1.89841   1.90245   1.90573   1.90791   1.91199
 Alpha virt. eigenvalues --    1.91884   1.92048   1.92056   1.92563   1.93214
 Alpha virt. eigenvalues --    1.93391   1.93855   1.94069   1.94612   1.94648
 Alpha virt. eigenvalues --    1.94681   1.94831   1.94983   1.95151   1.95610
 Alpha virt. eigenvalues --    1.95652   1.95706   1.95970   1.96539   1.96640
 Alpha virt. eigenvalues --    1.96887   1.97149   1.97473   1.97864   1.97897
 Alpha virt. eigenvalues --    1.98198   1.99159   1.99349   2.00111   2.00535
 Alpha virt. eigenvalues --    2.00845   2.01213   2.02169   2.02183   2.02277
 Alpha virt. eigenvalues --    2.02484   2.02554   2.03004   2.03107   2.03352
 Alpha virt. eigenvalues --    2.03798   2.03919   2.04048   2.04053   2.04270
 Alpha virt. eigenvalues --    2.05009   2.05810   2.06570   2.06989   2.07498
 Alpha virt. eigenvalues --    2.07633   2.07636   2.07850   2.07852   2.08039
 Alpha virt. eigenvalues --    2.08610   2.09064   2.09356   2.10119   2.10178
 Alpha virt. eigenvalues --    2.10414   2.11412   2.11864   2.11958   2.12614
 Alpha virt. eigenvalues --    2.12988   2.13317   2.13477   2.14269   2.14889
 Alpha virt. eigenvalues --    2.14944   2.15026   2.15508   2.15649   2.15691
 Alpha virt. eigenvalues --    2.16122   2.16404   2.16438   2.16481   2.16742
 Alpha virt. eigenvalues --    2.16860   2.17896   2.18013   2.18334   2.18494
 Alpha virt. eigenvalues --    2.18742   2.19123   2.19297   2.19633   2.19766
 Alpha virt. eigenvalues --    2.19937   2.20386   2.20690   2.21143   2.22445
 Alpha virt. eigenvalues --    2.22527   2.23450   2.24185   2.24503   2.24810
 Alpha virt. eigenvalues --    2.25358   2.26019   2.26868   2.27114   2.27236
 Alpha virt. eigenvalues --    2.28246   2.28293   2.28708   2.28865   2.29123
 Alpha virt. eigenvalues --    2.29291   2.29299   2.30022   2.30075   2.30448
 Alpha virt. eigenvalues --    2.30484   2.30524   2.32115   2.32338   2.32474
 Alpha virt. eigenvalues --    2.32563   2.32793   2.33098   2.33278   2.33986
 Alpha virt. eigenvalues --    2.34587   2.35033   2.35247   2.35290   2.35425
 Alpha virt. eigenvalues --    2.35456   2.35848   2.36132   2.36323   2.36582
 Alpha virt. eigenvalues --    2.36929   2.37033   2.37200   2.37753   2.37778
 Alpha virt. eigenvalues --    2.38272   2.38452   2.38684   2.38908   2.39086
 Alpha virt. eigenvalues --    2.39181   2.39538   2.40169   2.40542   2.40702
 Alpha virt. eigenvalues --    2.40822   2.41296   2.41647   2.41899   2.42119
 Alpha virt. eigenvalues --    2.42375   2.43019   2.43082   2.43614   2.43748
 Alpha virt. eigenvalues --    2.43892   2.43961   2.44101   2.44456   2.44627
 Alpha virt. eigenvalues --    2.44916   2.45415   2.45452   2.45600   2.46586
 Alpha virt. eigenvalues --    2.47188   2.47418   2.47637   2.47750   2.47976
 Alpha virt. eigenvalues --    2.48207   2.48446   2.48597   2.48650   2.48943
 Alpha virt. eigenvalues --    2.48978   2.48992   2.49301   2.49372   2.49633
 Alpha virt. eigenvalues --    2.49793   2.49813   2.50076   2.50264   2.51393
 Alpha virt. eigenvalues --    2.51594   2.51850   2.51934   2.52140   2.52297
 Alpha virt. eigenvalues --    2.52507   2.52588   2.53091   2.53201   2.53497
 Alpha virt. eigenvalues --    2.53646   2.54092   2.54546   2.54674   2.54958
 Alpha virt. eigenvalues --    2.55439   2.55506   2.55522   2.55578   2.55660
 Alpha virt. eigenvalues --    2.55724   2.55810   2.56278   2.56732   2.56967
 Alpha virt. eigenvalues --    2.57054   2.57586   2.58362   2.59089   2.59922
 Alpha virt. eigenvalues --    2.60292   2.60619   2.61061   2.62073   2.63123
 Alpha virt. eigenvalues --    2.63428   2.64498   2.64524   2.64641   2.64788
 Alpha virt. eigenvalues --    2.65006   2.65345   2.66108   2.66807   2.68028
 Alpha virt. eigenvalues --    2.68570   2.68801   2.69463   2.70169   2.70338
 Alpha virt. eigenvalues --    2.70493   2.70826   2.71082   2.71813   2.73484
 Alpha virt. eigenvalues --    2.74042   2.74316   2.74442   2.74461   2.74552
 Alpha virt. eigenvalues --    2.74759   2.74928   2.75531   2.75585   2.75727
 Alpha virt. eigenvalues --    2.75812   2.75822   2.76286   2.76490   2.76512
 Alpha virt. eigenvalues --    2.76526   2.76669   2.77035   2.77401   2.77557
 Alpha virt. eigenvalues --    2.77751   2.77778   2.77857   2.77988   2.78155
 Alpha virt. eigenvalues --    2.78229   2.78355   2.78830   2.79182   2.79647
 Alpha virt. eigenvalues --    2.79737   2.79851   2.79986   2.80131   2.80537
 Alpha virt. eigenvalues --    2.81035   2.81610   2.82455   2.82912   2.83363
 Alpha virt. eigenvalues --    2.84243   2.86088   2.86382   2.86414   2.87284
 Alpha virt. eigenvalues --    2.87804   2.87860   2.89453   2.89557   2.89562
 Alpha virt. eigenvalues --    2.89722   2.89775   2.89791   2.89985   2.90131
 Alpha virt. eigenvalues --    2.90343   2.90434   2.90683   2.90701   2.90922
 Alpha virt. eigenvalues --    2.91136   2.92604   2.92686   2.93200   2.93360
 Alpha virt. eigenvalues --    2.93419   2.93441   2.93699   2.93825   2.93834
 Alpha virt. eigenvalues --    2.93844   2.94392   2.94582   2.94899   2.95069
 Alpha virt. eigenvalues --    2.95419   2.95736   2.95742   2.95972   2.96083
 Alpha virt. eigenvalues --    2.96131   2.96578   2.97010   2.97408   2.97534
 Alpha virt. eigenvalues --    2.97800   2.98446   2.98506   2.99270   2.99965
 Alpha virt. eigenvalues --    3.00059   3.00123   3.00444   3.00625   3.00689
 Alpha virt. eigenvalues --    3.00775   3.01312   3.01527   3.01568   3.02117
 Alpha virt. eigenvalues --    3.02520   3.02520   3.02792   3.03346   3.03581
 Alpha virt. eigenvalues --    3.03879   3.04185   3.04979   3.04987   3.05207
 Alpha virt. eigenvalues --    3.05396   3.05497   3.05540   3.05983   3.06102
 Alpha virt. eigenvalues --    3.06248   3.06254   3.06407   3.06524   3.06539
 Alpha virt. eigenvalues --    3.06768   3.06776   3.06827   3.07087   3.07206
 Alpha virt. eigenvalues --    3.07228   3.07559   3.07667   3.07938   3.08028
 Alpha virt. eigenvalues --    3.08064   3.08232   3.08420   3.09285   3.09404
 Alpha virt. eigenvalues --    3.09427   3.09547   3.10526   3.10872   3.11320
 Alpha virt. eigenvalues --    3.11464   3.11786   3.12369   3.12461   3.12755
 Alpha virt. eigenvalues --    3.13156   3.13694   3.13789   3.13818   3.14361
 Alpha virt. eigenvalues --    3.14547   3.14799   3.15090   3.15722   3.15969
 Alpha virt. eigenvalues --    3.16034   3.16144   3.16742   3.16854   3.17081
 Alpha virt. eigenvalues --    3.17480   3.17629   3.17682   3.17788   3.17939
 Alpha virt. eigenvalues --    3.17984   3.18031   3.18082   3.18196   3.18589
 Alpha virt. eigenvalues --    3.18871   3.18901   3.18975   3.19030   3.19090
 Alpha virt. eigenvalues --    3.19225   3.19369   3.19426   3.19866   3.20126
 Alpha virt. eigenvalues --    3.20210   3.20259   3.20526   3.20628   3.20692
 Alpha virt. eigenvalues --    3.20927   3.21724   3.21729   3.21914   3.22222
 Alpha virt. eigenvalues --    3.22750   3.22810   3.23158   3.23402   3.23740
 Alpha virt. eigenvalues --    3.24028   3.24081   3.24377   3.24724   3.24821
 Alpha virt. eigenvalues --    3.25146   3.25181   3.25388   3.25469   3.25753
 Alpha virt. eigenvalues --    3.25755   3.26641   3.26737   3.26876   3.27250
 Alpha virt. eigenvalues --    3.27265   3.27564   3.28467   3.28709   3.29001
 Alpha virt. eigenvalues --    3.29122   3.29208   3.29967   3.30121   3.31703
 Alpha virt. eigenvalues --    3.31911   3.32195   3.32384   3.32935   3.32990
 Alpha virt. eigenvalues --    3.33362   3.33714   3.33884   3.34039   3.34365
 Alpha virt. eigenvalues --    3.34497   3.34555   3.34670   3.34875   3.34952
 Alpha virt. eigenvalues --    3.35269   3.35843   3.36051   3.36432   3.37054
 Alpha virt. eigenvalues --    3.37181   3.37449   3.37471   3.37488   3.38309
 Alpha virt. eigenvalues --    3.38348   3.38649   3.39200   3.39263   3.39387
 Alpha virt. eigenvalues --    3.39401   3.39786   3.39859   3.39899   3.39972
 Alpha virt. eigenvalues --    3.40132   3.40292   3.40331   3.40407   3.40657
 Alpha virt. eigenvalues --    3.40671   3.40924   3.41003   3.41152   3.41522
 Alpha virt. eigenvalues --    3.41667   3.41998   3.42102   3.42220   3.42836
 Alpha virt. eigenvalues --    3.43120   3.43388   3.43903   3.44701   3.44920
 Alpha virt. eigenvalues --    3.45101   3.45358   3.45633   3.46282   3.46514
 Alpha virt. eigenvalues --    3.46698   3.47100   3.48056   3.48628   3.49109
 Alpha virt. eigenvalues --    3.49413   3.49497   3.49609   3.49697   3.50013
 Alpha virt. eigenvalues --    3.50190   3.50198   3.50411   3.50567   3.50958
 Alpha virt. eigenvalues --    3.51012   3.51338   3.52557   3.52647   3.54012
 Alpha virt. eigenvalues --    3.54097   3.54237   3.54263   3.54271   3.54319
 Alpha virt. eigenvalues --    3.54383   3.54622   3.54853   3.54936   3.54985
 Alpha virt. eigenvalues --    3.55617   3.55717   3.55954   3.55958   3.56553
 Alpha virt. eigenvalues --    3.56760   3.57057   3.57063   3.57235   3.57390
 Alpha virt. eigenvalues --    3.57634   3.57694   3.57990   3.58232   3.58831
 Alpha virt. eigenvalues --    3.59122   3.59394   3.60088   3.60171   3.60763
 Alpha virt. eigenvalues --    3.60921   3.61277   3.61492   3.61928   3.62124
 Alpha virt. eigenvalues --    3.62467   3.62574   3.63109   3.63391   3.63594
 Alpha virt. eigenvalues --    3.63677   3.63678   3.63715   3.64903   3.65338
 Alpha virt. eigenvalues --    3.65590   3.65798   3.66775   3.66905   3.67309
 Alpha virt. eigenvalues --    3.68156   3.69257   3.69279   3.69514   3.69747
 Alpha virt. eigenvalues --    3.70579   3.70608   3.70621   3.70634   3.70792
 Alpha virt. eigenvalues --    3.71002   3.71416   3.71459   3.71914   3.72293
 Alpha virt. eigenvalues --    3.72982   3.73679   3.73704   3.73786   3.74307
 Alpha virt. eigenvalues --    3.74459   3.74557   3.74939   3.75311   3.75471
 Alpha virt. eigenvalues --    3.76096   3.76385   3.76849   3.77154   3.78353
 Alpha virt. eigenvalues --    3.78697   3.78789   3.79412   3.80109   3.80567
 Alpha virt. eigenvalues --    3.80599   3.80734   3.81816   3.82184   3.82431
 Alpha virt. eigenvalues --    3.82479   3.82820   3.84726   3.85601   3.85811
 Alpha virt. eigenvalues --    3.86368   3.86761   3.87121   3.87367   3.87430
 Alpha virt. eigenvalues --    3.87737   3.90738   3.90892   3.93287   3.93749
 Alpha virt. eigenvalues --    3.93940   3.94036   3.96276   3.96628   3.96875
 Alpha virt. eigenvalues --    3.97402   3.97550   3.98271   3.99940   4.00126
 Alpha virt. eigenvalues --    4.00652   4.00718   4.00923   4.00990   4.01104
 Alpha virt. eigenvalues --    4.01530   4.01956   4.02704   4.04546   4.04865
 Alpha virt. eigenvalues --    4.05496   4.06135   4.06759   4.06948   4.07118
 Alpha virt. eigenvalues --    4.07490   4.07523   4.07579   4.08130   4.08303
 Alpha virt. eigenvalues --    4.08423   4.09565   4.10933   4.10955   4.11158
 Alpha virt. eigenvalues --    4.11380   4.12192   4.12480   4.13702   4.13985
 Alpha virt. eigenvalues --    4.14354   4.14502   4.16241   4.16552   4.20327
 Alpha virt. eigenvalues --    4.20652   4.20871   4.21566   4.23367   4.23435
 Alpha virt. eigenvalues --    4.24640   4.25301   4.25887   4.26095   4.26213
 Alpha virt. eigenvalues --    4.26406   4.27658   4.27839   4.32552   4.32774
 Alpha virt. eigenvalues --    4.32941   4.33078   4.33204   4.33925   4.35007
 Alpha virt. eigenvalues --    4.35024   4.35134   4.35319   4.35802   4.36100
 Alpha virt. eigenvalues --    4.36821   4.37801   4.38142   4.38296   4.40261
 Alpha virt. eigenvalues --    4.40393   4.41843   4.41899   4.42322   4.42484
 Alpha virt. eigenvalues --    4.42917   4.43687   4.48415   4.48533   4.48933
 Alpha virt. eigenvalues --    4.49167   4.49294   4.49443   4.51236   4.51262
 Alpha virt. eigenvalues --    4.61851   4.61923   4.62131   4.62143   4.62232
 Alpha virt. eigenvalues --    4.62613   4.63175   4.63257   4.66606   4.66822
 Alpha virt. eigenvalues --    4.72598   4.72765   4.74684   4.75570   4.75981
 Alpha virt. eigenvalues --    4.76092   4.76332   4.77286   4.81110   4.81318
 Alpha virt. eigenvalues --    4.83170   4.83252   4.83322   4.83698   4.85892
 Alpha virt. eigenvalues --    4.86497   4.87118   4.88103   4.94187   4.94279
 Alpha virt. eigenvalues --    4.94874   4.95086   4.97288   4.97945   4.98050
 Alpha virt. eigenvalues --    4.98365   4.99981   5.00235   5.00542   5.00565
 Alpha virt. eigenvalues --    5.02068   5.02545   5.03048   5.03070   5.04206
 Alpha virt. eigenvalues --    5.04348   5.04371   5.05098   5.05488   5.05560
 Alpha virt. eigenvalues --    5.06322   5.06618   5.13745   5.13821   5.15107
 Alpha virt. eigenvalues --    5.15190   5.15617   5.15662   5.19476   5.19679
 Alpha virt. eigenvalues --    5.19768   5.19826   5.24973   5.25261   5.30852
 Alpha virt. eigenvalues --    5.30885   5.32047   5.32138   5.32496   5.32682
 Alpha virt. eigenvalues --    5.37787   5.37984   5.40875   5.40897   5.40957
 Alpha virt. eigenvalues --    5.40980   5.42485   5.42560   5.44568   5.44743
 Alpha virt. eigenvalues --    5.44957   5.44965   5.48526   5.48963   5.55744
 Alpha virt. eigenvalues --    5.55757   5.65628   5.65698   5.67873   5.67904
 Alpha virt. eigenvalues --    5.68086   5.68369   5.68761   5.69406   5.91841
 Alpha virt. eigenvalues --    5.92829   5.96698   5.96764   6.10765   6.11010
 Alpha virt. eigenvalues --    6.59088   6.59126   6.59820   6.59831   6.60806
 Alpha virt. eigenvalues --    6.60814   6.62207   6.62209   6.62222   6.62246
 Alpha virt. eigenvalues --    6.75466   6.75477   6.75528   6.75562  21.64187
 Alpha virt. eigenvalues --   21.64757  21.73615  21.73779  21.75278  21.75707
 Alpha virt. eigenvalues --   21.89557  21.92825  21.95871  21.96275  22.02612
 Alpha virt. eigenvalues --   22.02813  22.03820  22.05905  22.09378  22.14394
 Alpha virt. eigenvalues --   22.16405  22.17422  22.17975  22.18136  22.18166
 Alpha virt. eigenvalues --   22.18192  22.18902  22.18959  22.19104  22.19758
 Alpha virt. eigenvalues --   22.21897  22.23409  22.24968  22.27084  22.28505
 Alpha virt. eigenvalues --   22.30189  22.45111  22.45340  22.45407  22.45515
 Alpha virt. eigenvalues --   22.45797  22.46207  22.51323  22.52378  22.56588
 Alpha virt. eigenvalues --   22.56606  22.57001  22.57437  22.57853  22.59137
 Alpha virt. eigenvalues --   22.60224  22.61416  22.65376  22.66297  22.71552
 Alpha virt. eigenvalues --   22.72152  22.72292  22.72515  22.77721  22.79149
 Alpha virt. eigenvalues --   23.29825  23.30263  23.33097  23.33431  23.33457
 Alpha virt. eigenvalues --   23.34459  23.39613  23.39762  32.13976  32.14044
 Alpha virt. eigenvalues --   32.15417  32.15554  32.17556  32.17890  32.48465
 Alpha virt. eigenvalues --   32.50216  32.53921  32.54020  32.54481  32.54864
 Alpha virt. eigenvalues --   32.56368  32.59340  32.61573  32.65464
          Condensed to atoms (all electrons):
 Mulliken charges:
               1
     1  C   -0.089195
     2  C   -0.088400
     3  C   -0.209064
     4  C    0.085020
     5  C    0.098675
     6  C   -0.200996
     7  C    0.347725
     8  C    0.315846
     9  N   -0.256560
    10  N   -0.535083
    11  N   -0.547550
    12  H    0.121418
    13  H    0.121590
    14  H    0.146602
    15  H    0.139074
    16  C   -0.099419
    17  C   -0.099419
    18  C   -0.248198
    19  C    0.120631
    20  C    0.120631
    21  C   -0.248198
    22  C    0.370891
    23  C    0.370891
    24  N   -0.264543
    25  N   -0.547550
    26  H    0.137515
    27  H    0.137515
    28  H    0.142516
    29  H    0.142516
    30  C   -0.088315
    31  C   -0.088315
    32  C   -0.203320
    33  C    0.095007
    34  C    0.095007
    35  C   -0.203320
    36  C    0.322826
    37  C    0.322826
    38  N   -0.248957
    39  N   -0.535083
    40  H    0.121898
    41  H    0.121898
    42  H    0.139348
    43  H    0.139348
    44  C   -0.088400
    45  C   -0.089195
    46  C   -0.200996
    47  C    0.098675
    48  C    0.085020
    49  C   -0.209064
    50  C    0.315846
    51  C    0.347725
    52  N   -0.256560
    53  H    0.121590
    54  H    0.121418
    55  H    0.139074
    56  H    0.146602
    57  Zn  -0.007465
    58  C   -0.088400
    59  C   -0.089195
    60  C   -0.200996
    61  C    0.098675
    62  C    0.085020
    63  C   -0.209064
    64  C    0.315846
    65  C    0.347725
    66  N   -0.256560
    67  N   -0.547550
    68  N   -0.535083
    69  H    0.121590
    70  H    0.121418
    71  H    0.139074
    72  H    0.146602
    73  C   -0.088315
    74  C   -0.088315
    75  C   -0.203320
    76  C    0.095007
    77  C    0.095007
    78  C   -0.203320
    79  C    0.322826
    80  C    0.322826
    81  N   -0.248957
    82  N   -0.535083
    83  H    0.121898
    84  H    0.121898
    85  H    0.139348
    86  H    0.139348
    87  C   -0.099419
    88  C   -0.099419
    89  C   -0.248198
    90  C    0.120631
    91  C    0.120631
    92  C   -0.248198
    93  C    0.370891
    94  C    0.370891
    95  N   -0.264543
    96  N   -0.547550
    97  H    0.137515
    98  H    0.137515
    99  H    0.142516
   100  H    0.142516
   101  C   -0.089195
   102  C   -0.088400
   103  C   -0.209064
   104  C    0.085020
   105  C    0.098675
   106  C   -0.200996
   107  C    0.347725
   108  C    0.315846
   109  N   -0.256560
   110  H    0.121418
   111  H    0.121590
   112  H    0.146602
   113  H    0.139074
   114  Zn  -0.007465
 Sum of Mulliken charges =  -0.00000
 Mulliken charges with hydrogens summed into heavy atoms:
               1
     1  C    0.032223
     2  C    0.033189
     3  C   -0.062462
     4  C    0.085020
     5  C    0.098675
     6  C   -0.061922
     7  C    0.347725
     8  C    0.315846
     9  N   -0.256560
    10  N   -0.535083
    11  N   -0.547550
    16  C    0.038097
    17  C    0.038097
    18  C   -0.105682
    19  C    0.120631
    20  C    0.120631
    21  C   -0.105682
    22  C    0.370891
    23  C    0.370891
    24  N   -0.264543
    25  N   -0.547550
    30  C    0.033583
    31  C    0.033583
    32  C   -0.063973
    33  C    0.095007
    34  C    0.095007
    35  C   -0.063973
    36  C    0.322826
    37  C    0.322826
    38  N   -0.248957
    39  N   -0.535083
    44  C    0.033189
    45  C    0.032223
    46  C   -0.061922
    47  C    0.098675
    48  C    0.085020
    49  C   -0.062462
    50  C    0.315846
    51  C    0.347725
    52  N   -0.256560
    57  Zn  -0.007465
    58  C    0.033189
    59  C    0.032223
    60  C   -0.061922
    61  C    0.098675
    62  C    0.085020
    63  C   -0.062462
    64  C    0.315846
    65  C    0.347725
    66  N   -0.256560
    67  N   -0.547550
    68  N   -0.535083
    73  C    0.033583
    74  C    0.033583
    75  C   -0.063973
    76  C    0.095007
    77  C    0.095007
    78  C   -0.063973
    79  C    0.322826
    80  C    0.322826
    81  N   -0.248957
    82  N   -0.535083
    87  C    0.038097
    88  C    0.038097
    89  C   -0.105682
    90  C    0.120631
    91  C    0.120631
    92  C   -0.105682
    93  C    0.370891
    94  C    0.370891
    95  N   -0.264543
    96  N   -0.547550
   101  C    0.032223
   102  C    0.033189
   103  C   -0.062462
   104  C    0.085020
   105  C    0.098675
   106  C   -0.061922
   107  C    0.347725
   108  C    0.315846
   109  N   -0.256560
   114  Zn  -0.007465
 Electronic spatial extent (au):  <R**2>=          76215.6782
 Charge=             -0.0000 electrons
 Dipole moment (field-independent basis, Debye):
    X=             -0.0000    Y=              0.0000    Z=              0.0000  Tot=              0.0000
 Quadrupole moment (field-independent basis, Debye-Ang):
   XX=           -497.1044   YY=           -429.3613   ZZ=           -423.3198
   XY=             -1.3301   XZ=             -0.0000   YZ=             -0.0000
 Traceless Quadrupole moment (field-independent basis, Debye-Ang):
   XX=            -47.1759   YY=             20.5672   ZZ=             26.6087
   XY=             -1.3301   XZ=             -0.0000   YZ=             -0.0000
 Octapole moment (field-independent basis, Debye-Ang**2):
  XXX=              0.0000  YYY=              0.0000  ZZZ=              0.0000  XYY=              0.0000
  XXY=              0.0000  XXZ=              0.0000  XZZ=             -0.0000  YZZ=              0.0000
  YYZ=              0.0000  XYZ=              0.0000
 Hexadecapole moment (field-independent basis, Debye-Ang**3):
 XXXX=          -9701.8670 YYYY=         -58084.6526 ZZZZ=         -26827.7942 XXXY=          -9158.6591
 XXXZ=             -0.0000 YYYX=          -7790.7663 YYYZ=             -0.0000 ZZZX=              0.0000
 ZZZY=              0.0000 XXYY=         -13188.1649 XXZZ=          -7079.4190 YYZZ=         -14884.5006
 XXYZ=             -0.0000 YYXZ=             -0.0000 ZZXY=          -2590.6322
 N-N= 1.572814730155D+04 E-N=-4.772213039501D+04  KE= 6.867857330370D+03
 Symmetry AG   KE= 2.420326578720D+03
 Symmetry BG   KE= 1.013617237726D+03
 Symmetry AU   KE= 1.013332004759D+03
 Symmetry BU   KE= 2.420581509165D+03

 Test job not archived.
 1\1\ WCSS.PL-BEM-CMOKC406W\SP\RLC-BLYP TD-FC\Gen\C64H32N16Zn2\SERGEY\2
 0-Apr-2026\0\\# td(nstates=6) lc-blyp/gen iop(3/107=0350000000,3/108=0
 350000000) geom=check guess=read\\def2tzvp-f, monomer geom r2scan-3c\\
 0,1\C,0,0.701663,6.554204,0.\C,0,-0.701663,6.554204,0.\C,0,1.422571,5.
 364926,0.\C,0,0.703967,4.174565,0.\C,0,-0.703967,4.174565,0.\C,0,-1.42
 2571,5.364926,0.\C,0,1.120422,2.78002,0.\C,0,-1.120422,2.78002,0.\N,0,
 0.,1.989101,0.\N,0,-2.390568,2.390568,0.\N,0,2.390568,2.390568,0.\H,0,
 1.231071,7.50255,0.\H,0,-1.231071,7.50255,0.\H,0,2.508027,5.356475,0.\
 H,0,-2.508027,5.356475,0.\C,0,6.554204,-0.701663,0.\C,0,6.554204,0.701
 663,0.\C,0,5.364926,-1.422571,0.\C,0,4.174565,-0.703967,0.\C,0,4.17456
 5,0.703967,0.\C,0,5.364926,1.422571,0.\C,0,2.78002,-1.120422,0.\C,0,2.
 78002,1.120422,0.\N,0,1.989101,0.,0.\N,0,2.390568,-2.390568,0.\H,0,7.5
 0255,-1.231071,0.\H,0,7.50255,1.231071,0.\H,0,5.356475,-2.508027,0.\H,
 0,5.356475,2.508027,0.\C,0,-6.554204,0.701663,0.\C,0,-6.554204,-0.7016
 63,0.\C,0,-5.364926,1.422571,0.\C,0,-4.174565,0.703967,0.\C,0,-4.17456
 5,-0.703967,0.\C,0,-5.364926,-1.422571,0.\C,0,-2.78002,1.120422,0.\C,0
 ,-2.78002,-1.120422,0.\N,0,-1.989101,0.,0.\N,0,-2.390568,-2.390568,0.\
 H,0,-7.50255,1.231071,0.\H,0,-7.50255,-1.231071,0.\H,0,-5.356475,2.508
 027,0.\H,0,-5.356475,-2.508027,0.\C,0,-0.701663,-6.554204,0.\C,0,0.701
 663,-6.554204,0.\C,0,-1.422571,-5.364926,0.\C,0,-0.703967,-4.174565,0.
 \C,0,0.703967,-4.174565,0.\C,0,1.422571,-5.364926,0.\C,0,-1.120422,-2.
 78002,0.\C,0,1.120422,-2.78002,0.\N,0,0.,-1.989101,0.\H,0,-1.231071,-7
 .50255,0.\H,0,1.231071,-7.50255,0.\H,0,-2.508027,-5.356475,0.\H,0,2.50
 8027,-5.356475,0.\Zn,0,0.,0.,0.\C,0,7.701663,6.554204,3.5\C,0,6.298337
 ,6.554204,3.5\C,0,8.422571,5.364926,3.5\C,0,7.703967,4.174565,3.5\C,0,
 6.296033,4.174565,3.5\C,0,5.577429,5.364926,3.5\C,0,8.120422,2.78002,3
 .5\C,0,5.879578,2.78002,3.5\N,0,7.,1.989101,3.5\N,0,4.609432,2.390568,
 3.5\N,0,9.390568,2.390568,3.5\H,0,8.231071,7.50255,3.5\H,0,5.768929,7.
 50255,3.5\H,0,9.508027,5.356475,3.5\H,0,4.491973,5.356475,3.5\C,0,13.5
 54204,-0.701663,3.5\C,0,13.554204,0.701663,3.5\C,0,12.364926,-1.422571
 ,3.5\C,0,11.174565,-0.703967,3.5\C,0,11.174565,0.703967,3.5\C,0,12.364
 926,1.422571,3.5\C,0,9.78002,-1.120422,3.5\C,0,9.78002,1.120422,3.5\N,
 0,8.989101,0.,3.5\N,0,9.390568,-2.390568,3.5\H,0,14.50255,-1.231071,3.
 5\H,0,14.50255,1.231071,3.5\H,0,12.356475,-2.508027,3.5\H,0,12.356475,
 2.508027,3.5\C,0,0.445796,0.701663,3.5\C,0,0.445796,-0.701663,3.5\C,0,
 1.635074,1.422571,3.5\C,0,2.825435,0.703967,3.5\C,0,2.825435,-0.703967
 ,3.5\C,0,1.635074,-1.422571,3.5\C,0,4.21998,1.120422,3.5\C,0,4.21998,-
 1.120422,3.5\N,0,5.010899,0.,3.5\N,0,4.609432,-2.390568,3.5\H,0,-0.502
 55,1.231071,3.5\H,0,-0.50255,-1.231071,3.5\H,0,1.643525,2.508027,3.5\H
 ,0,1.643525,-2.508027,3.5\C,0,6.298337,-6.554204,3.5\C,0,7.701663,-6.5
 54204,3.5\C,0,5.577429,-5.364926,3.5\C,0,6.296033,-4.174565,3.5\C,0,7.
 703967,-4.174565,3.5\C,0,8.422571,-5.364926,3.5\C,0,5.879578,-2.78002,
 3.5\C,0,8.120422,-2.78002,3.5\N,0,7.,-1.989101,3.5\H,0,5.768929,-7.502
 55,3.5\H,0,8.231071,-7.50255,3.5\H,0,4.491973,-5.356475,3.5\H,0,9.5080
 27,-5.356475,3.5\Zn,0,7.,0.,3.5\\Version=ES64L-G09RevE.01\State=1-AG\H
 F=-6885.1800699\RMSD=4.746e-09\PG=C02H [SGH(N4Zn2),X(C64H32N12)]\\@


 WOE UNTO THEM THAT CALL EVIL GOOD, AND GOOD EVIL      
 Job cpu time:       0 days 14 hours 33 minutes 28.9 seconds.
 File lengths (MBytes):  RWF=   8288 Int=      0 D2E=      0 Chk=   1164 Scr=      1
 Normal termination of Gaussian 09 at Mon Apr 20 22:57:57 2026.
