 Entering Gaussian System, Link 0=g09
 Input=./ZnPc2_50_140.gjf
 Output=./ZnPc2_50_140.log
 Initial command:
 /home/sergey/g09/l1.exe "/home/sergey/scratch/Gau-31408.inp" -scrdir="/home/sergey/scratch/"
 Entering Link 1 = /home/sergey/g09/l1.exe PID=     31410.
  
 Copyright (c) 1988,1990,1992,1993,1995,1998,2003,2009,2015,
            Gaussian, Inc.  All Rights Reserved.
  
 This is part of the Gaussian(R) 09 program.  It is based on
 the Gaussian(R) 03 system (copyright 2003, Gaussian, Inc.),
 the Gaussian(R) 98 system (copyright 1998, Gaussian, Inc.),
 the Gaussian(R) 94 system (copyright 1995, Gaussian, Inc.),
 the Gaussian 92(TM) system (copyright 1992, Gaussian, Inc.),
 the Gaussian 90(TM) system (copyright 1990, Gaussian, Inc.),
 the Gaussian 88(TM) system (copyright 1988, Gaussian, Inc.),
 the Gaussian 86(TM) system (copyright 1986, Carnegie Mellon
 University), and the Gaussian 82(TM) system (copyright 1983,
 Carnegie Mellon University). Gaussian is a federally registered
 trademark of Gaussian, Inc.
  
 This software contains proprietary and confidential information,
 including trade secrets, belonging to Gaussian, Inc.
  
 This software is provided under written license and may be
 used, copied, transmitted, or stored only in accord with that
 written license.
  
 The following legend is applicable only to US Government
 contracts under FAR:
  
                    RESTRICTED RIGHTS LEGEND
  
 Use, reproduction and disclosure by the US Government is
 subject to restrictions as set forth in subparagraphs (a)
 and (c) of the Commercial Computer Software - Restricted
 Rights clause in FAR 52.227-19.
  
 Gaussian, Inc.
 340 Quinnipiac St., Bldg. 40, Wallingford CT 06492
  
  
 ---------------------------------------------------------------
 Warning -- This program may not be used in any manner that
 competes with the business of Gaussian, Inc. or will provide
 assistance to any competitor of Gaussian, Inc.  The licensee
 of this program is prohibited from giving any competitor of
 Gaussian, Inc. access to this program.  By using this program,
 the user acknowledges that Gaussian, Inc. is engaged in the
 business of creating and licensing software in the field of
 computational chemistry and represents and warrants to the
 licensee that it is not a competitor of Gaussian, Inc. and that
 it will not use this program in any manner prohibited above.
 ---------------------------------------------------------------
  

 Cite this work as:
 Gaussian 09, Revision E.01,
 M. J. Frisch, G. W. Trucks, H. B. Schlegel, G. E. Scuseria, 
 M. A. Robb, J. R. Cheeseman, G. Scalmani, V. Barone, B. Mennucci, 
 G. A. Petersson, H. Nakatsuji, M. Caricato, X. Li, H. P. Hratchian, 
 A. F. Izmaylov, J. Bloino, G. Zheng, J. L. Sonnenberg, M. Hada, 
 M. Ehara, K. Toyota, R. Fukuda, J. Hasegawa, M. Ishida, T. Nakajima, 
 Y. Honda, O. Kitao, H. Nakai, T. Vreven, J. A. Montgomery, Jr., 
 J. E. Peralta, F. Ogliaro, M. Bearpark, J. J. Heyd, E. Brothers, 
 K. N. Kudin, V. N. Staroverov, T. Keith, R. Kobayashi, J. Normand, 
 K. Raghavachari, A. Rendell, J. C. Burant, S. S. Iyengar, J. Tomasi, 
 M. Cossi, N. Rega, J. M. Millam, M. Klene, J. E. Knox, J. B. Cross, 
 V. Bakken, C. Adamo, J. Jaramillo, R. Gomperts, R. E. Stratmann, 
 O. Yazyev, A. J. Austin, R. Cammi, C. Pomelli, J. W. Ochterski, 
 R. L. Martin, K. Morokuma, V. G. Zakrzewski, G. A. Voth, 
 P. Salvador, J. J. Dannenberg, S. Dapprich, A. D. Daniels, 
 O. Farkas, J. B. Foresman, J. V. Ortiz, J. Cioslowski, 
 and D. J. Fox, Gaussian, Inc., Wallingford CT, 2013.
 
 ******************************************
 Gaussian 09:  ES64L-G09RevE.01 30-Nov-2015
                12-Apr-2026 
 ******************************************
 %chk=ZnPc2_50_140.chk
 %mem=16GB
 %nproc=6
 Will use up to    6 processors via shared memory.
 Default route:  MaxDisk=200GW
 --------------------------------------------------------
 # lc-blyp/def2svp iop(3/107=0350000000,3/108=0350000000)
 --------------------------------------------------------
 1/38=1/1;
 2/12=2,17=6,18=5,40=1/2;
 3/5=43,7=101,11=2,16=1,25=1,30=1,74=1000402,107=350000000,108=350000000/1,2,3;
 4//1;
 5/5=2,38=5/2;
 6/7=2,8=2,9=2,10=2,28=1/1;
 99/5=1,9=1/99;
 ----------------------
 monomer geom r2scan-3c
 ----------------------
 Symbolic Z-matrix:
 Charge =  0 Multiplicity = 1
 C                     0.70166   6.5542    0. 
 C                    -0.70166   6.5542    0. 
 C                     1.42257   5.36493   0. 
 C                     0.70397   4.17457   0. 
 C                    -0.70397   4.17457   0. 
 C                    -1.42257   5.36493   0. 
 C                     1.12042   2.78002   0. 
 C                    -1.12042   2.78002   0. 
 N                     0.        1.9891    0. 
 N                    -2.39057   2.39057   0. 
 N                     2.39057   2.39057   0. 
 H                     1.23107   7.50255   0. 
 H                    -1.23107   7.50255   0. 
 H                     2.50803   5.35648   0. 
 H                    -2.50803   5.35648   0. 
 C                     6.5542   -0.70166   0. 
 C                     6.5542    0.70166   0. 
 C                     5.36493  -1.42257   0. 
 C                     4.17457  -0.70397   0. 
 C                     4.17457   0.70397   0. 
 C                     5.36493   1.42257   0. 
 C                     2.78002  -1.12042   0. 
 C                     2.78002   1.12042   0. 
 N                     1.9891    0.        0. 
 N                     2.39057  -2.39057   0. 
 H                     7.50255  -1.23107   0. 
 H                     7.50255   1.23107   0. 
 H                     5.35648  -2.50803   0. 
 H                     5.35648   2.50803   0. 
 C                    -6.5542    0.70166   0. 
 C                    -6.5542   -0.70166   0. 
 C                    -5.36493   1.42257   0. 
 C                    -4.17457   0.70397   0. 
 C                    -4.17457  -0.70397   0. 
 C                    -5.36493  -1.42257   0. 
 C                    -2.78002   1.12042   0. 
 C                    -2.78002  -1.12042   0. 
 N                    -1.9891    0.        0. 
 N                    -2.39057  -2.39057   0. 
 H                    -7.50255   1.23107   0. 
 H                    -7.50255  -1.23107   0. 
 H                    -5.35648   2.50803   0. 
 H                    -5.35648  -2.50803   0. 
 C                    -0.70166  -6.5542    0. 
 C                     0.70166  -6.5542    0. 
 C                    -1.42257  -5.36493   0. 
 C                    -0.70397  -4.17457   0. 
 C                     0.70397  -4.17457   0. 
 C                     1.42257  -5.36493   0. 
 C                    -1.12042  -2.78002   0. 
 C                     1.12042  -2.78002   0. 
 N                     0.       -1.9891    0. 
 H                    -1.23107  -7.50255   0. 
 H                     1.23107  -7.50255   0. 
 H                    -2.50803  -5.35648   0. 
 H                     2.50803  -5.35648   0. 
 Zn                    0.        0.        0. 
 C                     14.70166   6.5542    5. 
 C                     13.29834   6.5542    5. 
 C                     15.42257   5.36493   5. 
 C                     14.70397   4.17457   5. 
 C                     13.29603   4.17457   5. 
 C                     12.57743   5.36493   5. 
 C                     15.12042   2.78002   5. 
 C                     12.87958   2.78002   5. 
 N                     14.       1.9891    5. 
 N                     11.60943   2.39057   5. 
 N                     16.39057   2.39057   5. 
 H                     15.23107   7.50255   5. 
 H                     12.76893   7.50255   5. 
 H                     16.50803   5.35648   5. 
 H                     11.49197   5.35648   5. 
 C                     20.5542  -0.70166   5. 
 C                     20.5542   0.70166   5. 
 C                     19.36493  -1.42257   5. 
 C                     18.17457  -0.70397   5. 
 C                     18.17457   0.70397   5. 
 C                     19.36493   1.42257   5. 
 C                     16.78002  -1.12042   5. 
 C                     16.78002   1.12042   5. 
 N                     15.9891   0.        5. 
 N                     16.39057  -2.39057   5. 
 H                     21.50255  -1.23107   5. 
 H                     21.50255   1.23107   5. 
 H                     19.35647  -2.50803   5. 
 H                     19.35647   2.50803   5. 
 C                     7.4458    0.70166   5. 
 C                     7.4458   -0.70166   5. 
 C                     8.63507   1.42257   5. 
 C                     9.82544   0.70397   5. 
 C                     9.82544  -0.70397   5. 
 C                     8.63507  -1.42257   5. 
 C                     11.21998   1.12042   5. 
 C                     11.21998  -1.12042   5. 
 N                     12.0109   0.        5. 
 N                     11.60943  -2.39057   5. 
 H                     6.49745   1.23107   5. 
 H                     6.49745  -1.23107   5. 
 H                     8.64353   2.50803   5. 
 H                     8.64353  -2.50803   5. 
 C                     13.29834  -6.5542    5. 
 C                     14.70166  -6.5542    5. 
 C                     12.57743  -5.36493   5. 
 C                     13.29603  -4.17457   5. 
 C                     14.70397  -4.17457   5. 
 C                     15.42257  -5.36493   5. 
 C                     12.87958  -2.78002   5. 
 C                     15.12042  -2.78002   5. 
 N                     14.      -1.9891    5. 
 H                     12.76893  -7.50255   5. 
 H                     15.23107  -7.50255   5. 
 H                     11.49197  -5.35648   5. 
 H                     16.50803  -5.35648   5. 
 Zn                    14.       0.        5. 
 
 Stoichiometry    C64H32N16Zn2
 Framework group  C2H[SGH(N4Zn2),X(C64H32N12)]
 Deg. of freedom    86
 Full point group                 C2H     NOp   4
 Largest Abelian subgroup         C2H     NOp   4
 Largest concise Abelian subgroup C2H     NOp   4
                         Standard orientation:                         
 ---------------------------------------------------------------------
 Center     Atomic      Atomic             Coordinates (Angstroms)
 Number     Number       Type             X           Y           Z
 ---------------------------------------------------------------------
      1          6           0        2.500000    6.298337    6.554204
      2          6           0        2.500000    7.701663    6.554204
      3          6           0        2.500000    5.577429    5.364926
      4          6           0        2.500000    6.296033    4.174565
      5          6           0        2.500000    7.703967    4.174565
      6          6           0        2.500000    8.422571    5.364926
      7          6           0        2.500000    5.879578    2.780020
      8          6           0        2.500000    8.120422    2.780020
      9          7           0        2.500000    7.000000    1.989101
     10          7           0        2.500000    9.390568    2.390568
     11          7           0        2.500000    4.609432    2.390568
     12          1           0        2.500000    5.768929    7.502550
     13          1           0        2.500000    8.231071    7.502550
     14          1           0        2.500000    4.491973    5.356475
     15          1           0        2.500000    9.508027    5.356475
     16          6           0        2.500000    0.445796   -0.701663
     17          6           0        2.500000    0.445796    0.701663
     18          6           0        2.500000    1.635074   -1.422571
     19          6           0        2.500000    2.825435   -0.703967
     20          6           0        2.500000    2.825435    0.703967
     21          6           0        2.500000    1.635074    1.422571
     22          6           0        2.500000    4.219980   -1.120422
     23          6           0        2.500000    4.219980    1.120422
     24          7           0        2.500000    5.010899   -0.000000
     25          7           0        2.500000    4.609432   -2.390568
     26          1           0        2.500000   -0.502550   -1.231071
     27          1           0        2.500000   -0.502550    1.231071
     28          1           0        2.500000    1.643525   -2.508027
     29          1           0        2.500000    1.643525    2.508027
     30          6           0        2.500000   13.554204    0.701663
     31          6           0        2.500000   13.554204   -0.701663
     32          6           0        2.500000   12.364926    1.422571
     33          6           0        2.500000   11.174565    0.703967
     34          6           0        2.500000   11.174565   -0.703967
     35          6           0        2.500000   12.364926   -1.422571
     36          6           0        2.500000    9.780020    1.120422
     37          6           0        2.500000    9.780020   -1.120422
     38          7           0        2.500000    8.989101   -0.000000
     39          7           0        2.500000    9.390568   -2.390568
     40          1           0        2.500000   14.502550    1.231071
     41          1           0        2.500000   14.502550   -1.231071
     42          1           0        2.500000   12.356475    2.508027
     43          1           0        2.500000   12.356475   -2.508027
     44          6           0        2.500000    7.701663   -6.554204
     45          6           0        2.500000    6.298337   -6.554204
     46          6           0        2.500000    8.422571   -5.364926
     47          6           0        2.500000    7.703967   -4.174565
     48          6           0        2.500000    6.296033   -4.174565
     49          6           0        2.500000    5.577429   -5.364926
     50          6           0        2.500000    8.120422   -2.780020
     51          6           0        2.500000    5.879578   -2.780020
     52          7           0        2.500000    7.000000   -1.989101
     53          1           0        2.500000    8.231071   -7.502550
     54          1           0        2.500000    5.768929   -7.502550
     55          1           0        2.500000    9.508027   -5.356475
     56          1           0        2.500000    4.491973   -5.356475
     57         30           0        2.500000    7.000000   -0.000000
     58          6           0       -2.500000   -7.701663    6.554204
     59          6           0       -2.500000   -6.298337    6.554204
     60          6           0       -2.500000   -8.422571    5.364926
     61          6           0       -2.500000   -7.703967    4.174565
     62          6           0       -2.500000   -6.296033    4.174565
     63          6           0       -2.500000   -5.577429    5.364926
     64          6           0       -2.500000   -8.120422    2.780020
     65          6           0       -2.500000   -5.879578    2.780020
     66          7           0       -2.500000   -7.000000    1.989101
     67          7           0       -2.500000   -4.609432    2.390568
     68          7           0       -2.500000   -9.390568    2.390568
     69          1           0       -2.500000   -8.231071    7.502550
     70          1           0       -2.500000   -5.768929    7.502550
     71          1           0       -2.500000   -9.508027    5.356475
     72          1           0       -2.500000   -4.491973    5.356475
     73          6           0       -2.500000  -13.554204   -0.701663
     74          6           0       -2.500000  -13.554204    0.701663
     75          6           0       -2.500000  -12.364926   -1.422571
     76          6           0       -2.500000  -11.174565   -0.703967
     77          6           0       -2.500000  -11.174565    0.703967
     78          6           0       -2.500000  -12.364926    1.422571
     79          6           0       -2.500000   -9.780020   -1.120422
     80          6           0       -2.500000   -9.780020    1.120422
     81          7           0       -2.500000   -8.989101    0.000000
     82          7           0       -2.500000   -9.390568   -2.390568
     83          1           0       -2.500000  -14.502550   -1.231071
     84          1           0       -2.500000  -14.502550    1.231071
     85          1           0       -2.500000  -12.356475   -2.508027
     86          1           0       -2.500000  -12.356475    2.508027
     87          6           0       -2.500000   -0.445796    0.701663
     88          6           0       -2.500000   -0.445796   -0.701663
     89          6           0       -2.500000   -1.635074    1.422571
     90          6           0       -2.500000   -2.825435    0.703967
     91          6           0       -2.500000   -2.825435   -0.703967
     92          6           0       -2.500000   -1.635074   -1.422571
     93          6           0       -2.500000   -4.219980    1.120422
     94          6           0       -2.500000   -4.219980   -1.120422
     95          7           0       -2.500000   -5.010899    0.000000
     96          7           0       -2.500000   -4.609432   -2.390568
     97          1           0       -2.500000    0.502550    1.231071
     98          1           0       -2.500000    0.502550   -1.231071
     99          1           0       -2.500000   -1.643525    2.508027
    100          1           0       -2.500000   -1.643525   -2.508027
    101          6           0       -2.500000   -6.298337   -6.554204
    102          6           0       -2.500000   -7.701663   -6.554204
    103          6           0       -2.500000   -5.577429   -5.364926
    104          6           0       -2.500000   -6.296033   -4.174565
    105          6           0       -2.500000   -7.703967   -4.174565
    106          6           0       -2.500000   -8.422571   -5.364926
    107          6           0       -2.500000   -5.879578   -2.780020
    108          6           0       -2.500000   -8.120422   -2.780020
    109          7           0       -2.500000   -7.000000   -1.989101
    110          1           0       -2.500000   -5.768929   -7.502550
    111          1           0       -2.500000   -8.231071   -7.502550
    112          1           0       -2.500000   -4.491973   -5.356475
    113          1           0       -2.500000   -9.508027   -5.356475
    114         30           0       -2.500000   -7.000000    0.000000
 ---------------------------------------------------------------------
 Rotational constants (GHZ):      0.0406741      0.0067403      0.0059319
 Standard basis: def2SVP (5D, 7F)
 There are   372 symmetry adapted cartesian basis functions of AG  symmetry.
 There are   344 symmetry adapted cartesian basis functions of BG  symmetry.
 There are   344 symmetry adapted cartesian basis functions of AU  symmetry.
 There are   372 symmetry adapted cartesian basis functions of BU  symmetry.
 There are   347 symmetry adapted basis functions of AG  symmetry.
 There are   324 symmetry adapted basis functions of BG  symmetry.
 There are   324 symmetry adapted basis functions of AU  symmetry.
 There are   347 symmetry adapted basis functions of BU  symmetry.
  1342 basis functions,  2386 primitive gaussians,  1432 cartesian basis functions
   294 alpha electrons      294 beta electrons
       nuclear repulsion energy     13280.9285078644 Hartrees.
 NAtoms=  114 NActive=  114 NUniq=   30 SFac= 4.00D+00 NAtFMM=   60 NAOKFM=T Big=F
 Integral buffers will be    131072 words long.
 Raffenetti 2 integral format.
 Two-electron integral symmetry is turned on.
 One-electron integrals computed using PRISM.
   4 Symmetry operations used in ECPInt.
 ECPInt:  NShTT=  179101 NPrTT=  695647 LenC2=   83577 LenP2D=  193018.
 LDataN:  DoStor=T MaxTD1= 6 Len=  172
 NBasis=  1342 RedAO= T EigKep=  1.34D-04  NBF=   347   324   324   347
 NBsUse=  1342 1.00D-06 EigRej= -1.00D+00 NBFU=   347   324   324   347
 ExpMin= 4.23D-02 ExpMax= 8.20D+04 ExpMxC= 1.23D+04 IAcc=2 IRadAn=         4 AccDes= 0.00D+00
 Harris functional with IExCor=10402 and IRadAn=       4 diagonalized for initial guess.
 HarFok:  IExCor=10402 AccDes= 0.00D+00 IRadAn=         4 IDoV= 1 UseB2=F ITyADJ=14
 ICtDFT=  3500011 ScaDFX=  1.000000  1.000000  1.000000  1.000000
 FoFCou: FMM=F IPFlag=           0 FMFlag=      100000 FMFlg1=        2000
         NFxFlg=           0 DoJE=T BraDBF=F KetDBF=T FulRan=T
         wScrn=  0.000000 ICntrl=     500 IOpCl=  0 I1Cent=   200000004 NGrid=           0
         NMat0=    1 NMatS0=      1 NMatT0=    0 NMatD0=    1 NMtDS0=    0 NMtDT0=    0
 Petite list used in FoFCou.
 Initial guess orbital symmetries:
       Occupied  (BU) (AG) (BU) (AG) (BU) (BG) (AU) (AG) (AG) (BU)
                 (AU) (AG) (BU) (BG) (AG) (BU) (BU) (AG) (BU) (AG)
                 (BU) (AU) (BG) (AG) (AU) (BG) (BG) (AU) (AU) (BG)
                 (BU) (AG) (AU) (BG) (AG) (BU) (AG) (AU) (BG) (BU)
                 (AG) (BU) (BU) (AG) (BU) (BG) (AU) (AG) (BU) (AG)
                 (BG) (AU) (BG) (BU) (AG) (AU) (BG) (AU) (BG) (AU)
                 (AG) (BU) (BG) (AG) (BU) (AU) (BG) (AG) (BU) (AU)
                 (BG) (AU) (AG) (BU) (BG) (AU) (BG) (BU) (AU) (AG)
                 (AG) (BU) (AU) (BG) (BU) (AU) (AG) (BG) (BU) (AG)
                 (BU) (AG) (BU) (BG) (AU) (AG) (BU) (AG) (AG) (BU)
                 (AG) (BG) (AU) (BU) (AG) (BU) (BG) (AU) (AG) (AU)
                 (BG) (BU) (AG) (BU) (AG) (BU) (AG) (AU) (BG) (BU)
                 (AG) (BU) (AU) (BG) (AU) (AG) (BU) (BG) (AU) (BG)
                 (AG) (BU) (AG) (AU) (BG) (BU) (AG) (BU) (AU) (BG)
                 (AU) (AG) (BU) (BG) (AG) (BU) (AG) (AU) (BG) (BU)
                 (AG) (BU) (AU) (BG) (AG) (BU) (AU) (AG) (BU) (BG)
                 (AU) (BG) (AU) (BG) (AG) (BU) (AG) (AU) (BG) (BU)
                 (AG) (BU) (AG) (AU) (BG) (BU) (AG) (BU) (AG) (AU)
                 (BG) (BU) (AU) (BG) (AU) (BG) (AG) (BU) (AG) (AU)
                 (BG) (BU) (AG) (BU) (BG) (AU) (AG) (BG) (AU) (BU)
                 (AU) (BG) (AG) (BU) (AU) (AG) (BU) (BG) (AU) (BG)
                 (AG) (BU) (AG) (AU) (BG) (BU) (AG) (BU) (AG) (BU)
                 (AU) (BG) (AU) (BU) (AG) (BG) (BU) (AG) (AU) (BG)
                 (AG) (BU) (AG) (BU) (AG) (BU) (AU) (BG) (AG) (AU)
                 (BG) (BU) (AU) (BG) (BU) (AG) (AG) (BU) (BU) (BG)
                 (AG) (AU) (AG) (AU) (BG) (BU) (AG) (BU) (AU) (BG)
                 (AG) (AU) (BG) (BU) (AU) (BG) (AU) (BG) (AU) (AG)
                 (BU) (BG) (AG) (BU) (AG) (AU) (BG) (BU) (BU) (AG)
                 (AG) (BU) (AG) (BU) (AU) (BG) (AG) (AU) (BG) (BU)
                 (AU) (BG) (BU) (AG)
       Virtual   (AU) (AG) (BU) (BG) (AU) (BG) (AG) (BU) (AG) (BU)
                 (AG) (AU) (BG) (BU) (AU) (BG) (AU) (AG) (BU) (BG)
                 (AG) (BU) (AG) (BU) (AU) (BG) (AG) (BU) (AG) (AU)
                 (BG) (BU) (AG) (BU) (AG) (BU) (AU) (BG) (AU) (BU)
                 (AG) (BG) (AU) (AG) (BU) (BG) (BU) (AG) (AU) (BG)
                 (BU) (AU) (BG) (AG) (BG) (AU) (AG) (BU) (BG) (AU)
                 (BG) (AU) (BG) (AG) (BU) (AU) (BU) (AG) (AG) (BU)
                 (BG) (BU) (AG) (AU) (BG) (AU) (BG) (AG) (BU) (AU)
                 (AU) (BG) (AG) (BU) (AG) (BU) (AG) (AU) (BG) (BU)
                 (AU) (BG) (AG) (AU) (BG) (BU) (AU) (BG) (AU) (AG)
                 (BU) (BG) (AU) (BG) (AG) (BU) (AU) (BU) (AG) (BG)
                 (BG) (AU) (BU) (AG) (BU) (AG) (AG) (AU) (BG) (BU)
                 (BU) (AG) (AG) (BU) (AG) (BU) (AG) (AU) (BG) (BU)
                 (AG) (AU) (BG) (BU) (AG) (BU) (AU) (BG) (AU) (BG)
                 (AG) (BU) (AG) (AU) (BG) (BU) (BG) (AG) (BU) (AU)
                 (BG) (AU) (BU) (AG) (AU) (BG) (BU) (AU) (AG) (BG)
                 (AG) (BU) (BG) (AG) (AU) (AU) (BG) (BU) (AG) (BU)
                 (AU) (BG) (AG) (BU) (AG) (BG) (BU) (AU) (AG) (BU)
                 (AG) (BU) (BG) (AU) (BG) (AU) (AG) (AU) (BG) (BU)
                 (AG) (BU) (AU) (AG) (BG) (BU) (AG) (AU) (BG) (BU)
                 (AU) (AG) (BU) (BG) (AG) (BU) (AG) (AG) (BU) (AU)
                 (BG) (BG) (AU) (BU) (AG) (AU) (BG) (AU) (AG) (BU)
                 (BG) (BU) (AG) (BU) (AU) (BG) (AU) (BG) (AU) (AG)
                 (BG) (BU) (AG) (AU) (BU) (AG) (BG) (AU) (BU) (BG)
                 (AU) (BG) (AU) (AG) (BU) (BG) (BU) (AU) (AG) (BG)
                 (AG) (AU) (BG) (BU) (AG) (AU) (BG) (BU) (AU) (AG)
                 (BU) (BG) (AU) (AG) (BU) (BG) (AG) (BG) (AU) (BU)
                 (BG) (AU) (BG) (AG) (BU) (AU) (AG) (BU) (AU) (BG)
                 (AU) (AG) (BG) (BU) (AG) (BU) (AU) (BG) (AG) (BU)
                 (AG) (BU) (AG) (BG) (AU) (BU) (AG) (BU) (AG) (AU)
                 (BG) (AU) (BG) (BU) (BU) (BG) (AU) (AG) (AU) (BG)
                 (AU) (BG) (AG) (BU) (BU) (AG) (AG) (BU) (AU) (AG)
                 (BU) (BG) (AG) (AU) (BU) (BG) (AU) (BG) (AU) (BG)
                 (BU) (AU) (AG) (BG) (BU) (AG) (AU) (BG) (BG) (AU)
                 (AU) (AG) (BU) (BG) (AU) (BG) (AU) (BG) (AU) (AG)
                 (BU) (BG) (AG) (BU) (AU) (AG) (BU) (AG) (BG) (AU)
                 (BU) (BG) (AU) (AG) (BU) (BG) (AU) (BG) (AG) (BU)
                 (AU) (AG) (BU) (BG) (AG) (AU) (BG) (BU) (AG) (AU)
                 (BG) (BU) (BU) (AG) (AG) (BU) (BU) (AG) (AU) (BG)
                 (AU) (BG) (BG) (AG) (BU) (AU) (AU) (BG) (AG) (BU)
                 (BG) (AU) (AU) (BG) (AU) (AG) (BU) (BG) (AU) (BG)
                 (AU) (BG) (AG) (AU) (BG) (BU) (AG) (BU) (AG) (BG)
                 (AU) (BU) (AG) (AU) (BG) (BU) (AG) (BU) (AG) (BU)
                 (AG) (BU) (BU) (BG) (AU) (AG) (AU) (BG) (AG) (BU)
                 (AG) (BG) (AU) (BU) (BG) (AU) (AG) (BU) (BG) (AU)
                 (BG) (AG) (BU) (AU) (BG) (AU) (AG) (BU) (AG) (BU)
                 (AG) (BG) (AU) (BU) (BG) (AU) (AG) (BU) (AG) (AU)
                 (BG) (BU) (AG) (BU) (AG) (BU) (AG) (BU) (AG) (AU)
                 (BG) (BU) (BG) (BU) (AG) (AU) (AG) (BU) (AU) (BG)
                 (AU) (AG) (BU) (BG) (AU) (BG) (BU) (AG) (AG) (BU)
                 (AG) (BG) (AU) (BU) (AG) (BU) (BG) (AU) (AG) (AU)
                 (BG) (BU) (BG) (AU) (AG) (BU) (AG) (BU) (AG) (BU)
                 (AG) (AU) (BG) (BU) (AU) (BG) (AU) (AG) (BU) (BG)
                 (AU) (BG) (AG) (AU) (BG) (BU) (BU) (AG) (AU) (BG)
                 (AU) (AG) (BU) (BG) (BU) (AU) (BG) (AG) (AG) (BU)
                 (AU) (BG) (AU) (AG) (BU) (BG) (AU) (BG) (BG) (AG)
                 (BU) (AU) (AG) (BU) (BG) (AU) (BG) (AG) (BU) (AU)
                 (AG) (BU) (AU) (AG) (BU) (BG) (BG) (AU) (BG) (AG)
                 (BU) (AU) (AG) (AU) (BU) (BG) (AG) (BU) (BG) (AU)
                 (AG) (BU) (BU) (AG) (BU) (BG) (AG) (AU) (AG) (BU)
                 (AG) (BU) (AG) (BU) (AU) (BG) (AU) (AG) (BU) (BG)
                 (AU) (BG) (AG) (AU) (BG) (BU) (BG) (AU) (AU) (BG)
                 (AU) (AG) (BU) (BG) (AG) (AU) (BU) (BG) (AG) (BU)
                 (BU) (AG) (AG) (BU) (AG) (BU) (AG) (AU) (BG) (BU)
                 (AG) (BU) (AU) (AG) (BG) (BU) (AU) (BG) (AU) (BG)
                 (AU) (AG) (BU) (BG) (BG) (AU) (AU) (AG) (BU) (BG)
                 (AG) (BU) (BG) (AU) (BU) (AU) (BG) (AG) (BU) (AG)
                 (AU) (BG) (AG) (AU) (BG) (BU) (AG) (BU) (AG) (BU)
                 (AU) (BG) (AU) (BU) (AG) (BG) (AU) (BG) (BG) (AU)
                 (BG) (AG) (BU) (AU) (AG) (BU) (AG) (BU) (AG) (BU)
                 (BG) (AU) (AG) (AU) (BG) (BU) (AG) (BU) (AU) (AG)
                 (BU) (BG) (AU) (BG) (AG) (AU) (BU) (BG) (BU) (AG)
                 (AG) (BU) (AU) (BU) (AG) (BG) (AU) (BG) (AG) (BU)
                 (AG) (AU) (BG) (BU) (AU) (BG) (AG) (BU) (AG) (BU)
                 (AG) (AU) (BG) (BU) (AU) (AG) (BU) (BG) (AU) (BG)
                 (AG) (BU) (AG) (BU) (AG) (AU) (BG) (BU) (AU) (BG)
                 (AU) (BG) (AU) (AG) (BU) (AG) (BG) (BU) (AU) (BG)
                 (AG) (AU) (BG) (BU) (AG) (BU) (AU) (BG) (AU) (BU)
                 (AG) (BG) (AU) (BG) (AG) (BG) (AU) (BU) (BG) (AU)
                 (AU) (BG) (AG) (BU) (AU) (AG) (BU) (BG) (AU) (BG)
                 (AU) (AG) (BU) (BG) (AU) (BG) (AG) (BU) (AG) (AU)
                 (BG) (BU) (BU) (AG) (AG) (BU) (AU) (BG) (AU) (AG)
                 (BU) (BG) (AU) (BG) (AG) (BU) (AG) (BU) (AG) (BG)
                 (AU) (BU) (AU) (BG) (AG) (BU) (AU) (BG) (BG) (AU)
                 (AG) (BU) (AG) (BU) (AG) (BG) (AU) (BU) (AG) (BU)
                 (AG) (AU) (BG) (BU) (AG) (BU) (AU) (BG) (AU) (BG)
                 (AU) (AG) (BU) (BG) (AU) (BG) (AU) (BG) (AU) (AG)
                 (BU) (BG) (AU) (BG) (AG) (BG) (AU) (BU) (AG) (BU)
                 (AG) (AU) (BG) (BU) (AG) (BU) (AU) (BG) (AG) (BU)
                 (AU) (AG) (BG) (BU) (AU) (AU) (BG) (BG) (AU) (AG)
                 (BU) (BG) (AG) (BU) (AU) (BG) (AU) (BG) (AU) (BG)
                 (AU) (AG) (BU) (BG) (AG) (BU) (AU) (AG) (BU) (BG)
                 (BU) (AG) (BU) (AU) (BG) (AG) (BU) (AG) (AU) (BG)
                 (AG) (BU) (AU) (AG) (BU) (BG) (AG) (BU) (AU) (AG)
                 (BU) (BG) (AU) (BG) (AU) (BG) (AG) (BG) (AU) (BU)
                 (AG) (BU) (BU) (AG) (AU) (BG) (AU) (AG) (BG) (BU)
                 (AU) (BG) (AU) (AG) (BU) (BG) (AG) (BU) (AU) (BG)
                 (AU) (AG) (BU) (BG) (BG) (AU) (AG) (BU) (AU) (BG)
                 (AU) (AG) (BU) (BG) (AU) (BG) (AG) (BU) (AU) (BU)
                 (AG) (BG) (BU) (AU) (BG) (AG) (BU) (BG) (AU) (AG)
                 (AG) (BU) (AU) (BG) (AG) (BG) (AU) (BU) (AU) (BG)
                 (BU) (AU) (BG) (AG) (BU) (AG) (BG) (AU) (AG) (BU)
                 (AU) (BG) (BG) (AG) (BU) (AU) (BG) (AU) (BG) (AG)
                 (BU) (AU) (BG) (AU) (BG) (AU) (AG) (BU) (AG) (BU)
                 (AG) (BG) (AU) (BU) (AG) (AU) (BG) (BU)
 The electronic state of the initial guess is 1-AG.
 Requested convergence on RMS density matrix=1.00D-08 within 128 cycles.
 Requested convergence on MAX density matrix=1.00D-06.
 Requested convergence on             energy=1.00D-06.
 No special actions if energy rises.
 SCF Done:  E(RLC-B+HF-LYP) =  -6881.15634349     A.U. after   17 cycles
            NFock= 17  Conv=0.84D-08     -V/T= 2.0056
 Hyperfine terms turned off by default for NAtoms > 100.

 **********************************************************************

            Population analysis using the SCF density.

 **********************************************************************

 Orbital symmetries:
       Occupied  (BU) (AG) (BU) (AG) (AG) (BU) (BG) (AU) (BU) (AG)
                 (AU) (BG) (BU) (AG) (AG) (BU) (BU) (AG) (BU) (AG)
                 (BG) (AU) (BU) (AG) (AU) (BG) (BG) (AU) (BU) (AG)
                 (AU) (BG) (AU) (BG) (BU) (AG) (BU) (AG) (BG) (AU)
                 (AG) (BU) (AU) (BG) (BU) (AG) (AU) (BG) (BU) (AG)
                 (AU) (BG) (BU) (AG) (BG) (AU) (AG) (BU) (BG) (AU)
                 (BU) (AG) (BG) (AU) (BU) (AG) (BU) (AG) (AU) (BG)
                 (BG) (AU) (BU) (AG) (BU) (AG) (BG) (AU) (BU) (AG)
                 (BG) (AU) (BU) (AG) (BU) (AG) (BG) (AU) (BG) (AU)
                 (BU) (AG) (BU) (AG) (BG) (AU) (BU) (AG) (AG) (BU)
                 (BG) (AU) (AG) (BU) (AG) (BU) (BG) (AU) (AU) (BG)
                 (AG) (BU) (AG) (BU) (AU) (BG) (AG) (BU) (AG) (BU)
                 (AG) (BU) (AU) (BG) (AG) (BU) (AG) (AU) (BU) (BG)
                 (AU) (BG) (AG) (BU) (AG) (BU) (AU) (BG) (AU) (BG)
                 (AG) (BU) (AU) (BG) (AG) (BU) (AG) (BU) (AU) (BG)
                 (AG) (BU) (AU) (BG) (AG) (BU) (AU) (BG) (AG) (BU)
                 (AU) (BG) (AU) (BG) (AG) (BU) (AU) (BG) (AG) (BU)
                 (AG) (BU) (AU) (BG) (AG) (BU) (AU) (BG) (AU) (BG)
                 (AG) (BU) (AG) (BU) (AG) (BU) (AG) (BU) (AU) (BG)
                 (AG) (BU) (AU) (BG) (BG) (AU) (AG) (BU) (AG) (BU)
                 (BG) (AU) (AG) (BU) (AU) (BG) (AG) (BU) (AU) (BG)
                 (AG) (BU) (AG) (BU) (AU) (BG) (AU) (BG) (AG) (BU)
                 (AU) (BG) (AU) (BG) (AG) (BU) (AG) (BU) (AG) (BU)
                 (AU) (BG) (AG) (AU) (BG) (BU) (AG) (BU) (AU) (BG)
                 (BU) (AG) (AU) (BG) (AG) (BU) (AU) (BG) (BG) (AU)
                 (BU) (AG) (BU) (AG) (BG) (AU) (BU) (AG) (BU) (AG)
                 (AG) (AU) (BG) (BU) (AG) (BU) (AU) (BG) (AG) (BU)
                 (AU) (BG) (AU) (BG) (AG) (BU) (AU) (BG) (AG) (BU)
                 (AU) (BG) (AU) (BG) (AG) (BU) (AG) (BU) (AG) (BU)
                 (AG) (BU) (AU) (BG)
       Virtual   (AG) (BU) (AU) (BG) (AU) (BG) (AG) (BU) (AG) (BU)
                 (AU) (BG) (AG) (BU) (AG) (BU) (AU) (BG) (AG) (BU)
                 (AU) (BG) (AG) (BU) (AG) (BU) (AU) (BG) (AG) (BU)
                 (AU) (BG) (AG) (BU) (AG) (BU) (AU) (BG) (AU) (BU)
                 (AG) (BG) (BU) (AG) (AU) (BG) (AU) (AG) (BU) (BG)
                 (BU) (AG) (AU) (BG) (BG) (AG) (AU) (BU) (BU) (AG)
                 (BG) (BU) (AG) (AU) (BG) (AU) (AG) (BG) (BU) (AU)
                 (AG) (BU) (AU) (BG) (AU) (BG) (AG) (BU) (AU) (BG)
                 (AG) (BU) (AU) (BG) (AG) (BU) (AG) (BU) (BG) (AU)
                 (AU) (BG) (AU) (BG) (AG) (AU) (BG) (BU) (AG) (BU)
                 (AU) (AG) (BU) (BG) (AU) (BG) (AG) (AU) (AG) (BU)
                 (BU) (BG) (AU) (BG) (BG) (AU) (AG) (BU) (AG) (BU)
                 (BU) (AG) (AG) (BU) (BG) (AU) (AU) (BG) (BU) (AG)
                 (AG) (BU) (AG) (BG) (AU) (BU) (AG) (AU) (BU) (BG)
                 (AG) (BU) (AU) (AG) (BG) (BU) (BG) (AG) (BU) (AU)
                 (AU) (AG) (BU) (BG) (BG) (BU) (AG) (AU) (AG) (BG)
                 (AU) (BG) (BU) (AU) (AG) (AU) (BG) (BU) (BU) (AG)
                 (AG) (BU) (AU) (BG) (AG) (BU) (AG) (AU) (BG) (BU)
                 (AG) (BG) (AU) (BU) (AG) (BG) (BU) (AU) (BG) (AU)
                 (AG) (BU) (AG) (BU) (AG) (BU) (AU) (AG) (BG) (AU)
                 (BU) (BG) (AG) (AU) (BG) (BU) (AG) (AU) (BG) (AU)
                 (AG) (BU) (BG) (BU) (AG) (BU) (AU) (BG) (AU) (AG)
                 (BU) (BG) (AG) (BU) (AU) (BG) (AG) (AU) (BG) (BU)
                 (AG) (AU) (BG) (BU) (AG) (AU) (BU) (BG) (AU) (BG)
                 (AU) (BU) (AG) (BG) (AU) (BG) (AG) (AU) (BU) (BG)
                 (AU) (AG) (BG) (BU) (AG) (BU) (AU) (BG) (AU) (AG)
                 (BU) (BG) (AU) (AG) (BU) (BG) (AU) (BG) (AG) (BU)
                 (AU) (BG) (AU) (BU) (AG) (BG) (BU) (AG) (BU) (AG)
                 (BG) (BU) (AG) (AU) (BG) (AG) (AU) (BU) (BG) (AU)
                 (AG) (BU) (AU) (BG) (AG) (BU) (AU) (BG) (AG) (BU)
                 (AG) (BU) (AU) (AG) (BG) (BU) (AU) (AG) (BG) (BU)
                 (AG) (BU) (AU) (BG) (AG) (BU) (AU) (BG) (AU) (BG)
                 (AU) (BG) (AU) (AU) (BU) (AG) (BU) (BG) (AG) (BG)
                 (AU) (BG) (AU) (AG) (BU) (BG) (BU) (AG) (AU) (AG)
                 (BG) (AU) (BU) (BG) (AU) (AG) (BU) (BG) (AU) (AG)
                 (BU) (BG) (BU) (AU) (AG) (BG) (AU) (BG) (AU) (AG)
                 (BU) (BG) (AG) (BU) (AU) (BG) (AG) (BU) (AU) (BG)
                 (AU) (BG) (AG) (BU) (AU) (AG) (BU) (BG) (AU) (BG)
                 (AU) (AG) (BU) (BG) (BU) (AG) (BU) (AG) (AG) (BU)
                 (AU) (BG) (AU) (BG) (AG) (BU) (AU) (BG) (AG) (BU)
                 (BG) (AU) (BG) (AU) (BU) (AG) (BG) (AU) (BG) (AU)
                 (AU) (BG) (AU) (BG) (AG) (BU) (AG) (BG) (AU) (BU)
                 (AG) (BU) (AG) (BU) (AG) (BG) (AU) (BU) (AG) (BU)
                 (AG) (BU) (BU) (BG) (AU) (AG) (AU) (BG) (AG) (BU)
                 (AG) (BG) (AU) (BU) (BG) (AU) (AG) (BU) (BG) (AU)
                 (BG) (AG) (BU) (AU) (BG) (AU) (AG) (BU) (AG) (BU)
                 (BG) (AU) (AG) (BG) (AU) (BU) (AG) (BU) (AG) (BU)
                 (AU) (BG) (AG) (BU) (BG) (BU) (AG) (AU) (AG) (BU)
                 (AG) (BU) (AG) (BU) (AU) (BG) (AG) (BU) (AG) (BG)
                 (AU) (BU) (BU) (AG) (BG) (AU) (AG) (BU) (AU) (BG)
                 (AG) (BU) (AU) (BG) (AU) (BG) (AG) (BU) (BG) (AU)
                 (AG) (BU) (AG) (AU) (BG) (AG) (BU) (BU) (AG) (AU)
                 (BG) (BU) (AG) (BU) (AU) (BG) (AG) (BU) (AU) (BG)
                 (AG) (BU) (AU) (BG) (AU) (BG) (BG) (AU) (BU) (AG)
                 (AU) (AG) (BU) (AU) (BG) (BU) (AG) (BG) (AU) (BG)
                 (AG) (BU) (AG) (BU) (AU) (BG) (AU) (BG) (BG) (AG)
                 (BU) (AU) (AG) (BU) (BG) (AU) (BG) (AG) (BU) (AU)
                 (AG) (BU) (AU) (AG) (BU) (BG) (BG) (AU) (AG) (BU)
                 (BG) (AU) (AU) (AG) (BG) (BU) (BG) (AU) (AG) (BU)
                 (AG) (BU) (AG) (BU) (AU) (AG) (BU) (BG) (AU) (BU)
                 (AG) (BG) (AU) (AG) (BU) (BG) (AU) (BG) (BU) (AG)
                 (AU) (AG) (BU) (BG) (AG) (BU) (BG) (AU) (AU) (BG)
                 (AG) (AU) (BU) (BG) (AU) (AG) (BG) (BU) (AG) (BU)
                 (AG) (BU) (BU) (AG) (AG) (BU) (AU) (AG) (BG) (BU)
                 (AG) (AU) (BG) (BU) (AG) (BU) (AU) (BG) (BG) (AU)
                 (AU) (BG) (AU) (AG) (BU) (BG) (AU) (BG) (AG) (BU)
                 (AU) (BG) (AG) (BU) (BG) (AU) (BU) (AG) (BU) (AG)
                 (AU) (BG) (AU) (AG) (BG) (BU) (AU) (BG) (AG) (BU)
                 (BU) (AG) (AU) (AG) (BU) (BG) (AU) (BG) (BG) (AU)
                 (AG) (BU) (BG) (AU) (AG) (BU) (AG) (BU) (AU) (BG)
                 (AG) (BU) (BG) (AU) (AG) (BU) (AG) (BU) (AG) (AU)
                 (BG) (BU) (AU) (BG) (AG) (BU) (AU) (BG) (AG) (BU)
                 (BU) (AG) (AU) (BG) (AU) (BG) (BU) (AG) (AG) (BU)
                 (AU) (BG) (AG) (BU) (AU) (BG) (AG) (BU) (AG) (BU)
                 (AG) (AU) (BG) (BU) (AG) (AU) (BU) (BG) (AU) (BG)
                 (AG) (BU) (AG) (AU) (BG) (BG) (AU) (BU) (AU) (BG)
                 (AG) (BU) (AG) (BU) (AG) (AU) (BU) (BG) (AU) (BG)
                 (AG) (AU) (BG) (BU) (AG) (BU) (AG) (BG) (AU) (BU)
                 (AU) (BG) (AU) (BG) (AU) (AG) (BU) (BG) (BG) (AU)
                 (AG) (BU) (AU) (BG) (AG) (BU) (AU) (BG) (AU) (BG)
                 (AU) (BG) (AU) (AG) (BG) (BU) (BU) (AG) (AG) (BU)
                 (AU) (BG) (AG) (BU) (AU) (BG) (AG) (BU) (AG) (BU)
                 (AU) (BG) (AG) (BU) (AU) (BG) (BG) (AU) (AG) (BU)
                 (AG) (BU) (AU) (BG) (AG) (BU) (BG) (AU) (BG) (AU)
                 (BU) (AG) (AG) (BU) (AU) (BG) (AG) (BU) (AG) (BU)
                 (AG) (BU) (AG) (AU) (BG) (BU) (BG) (AU) (AU) (BG)
                 (AG) (BU) (AU) (BG) (AU) (BG) (AU) (BG) (AU) (AG)
                 (BU) (BG) (AG) (BU) (AU) (BG) (AU) (BG) (AG) (BU)
                 (AG) (AU) (BG) (BU) (AG) (AU) (BG) (BU) (AG) (BU)
                 (AG) (BU) (AU) (BG) (AG) (BU) (AU) (BG) (AU) (AG)
                 (BU) (BG) (AU) (BG) (AU) (BG) (BG) (AU) (AU) (BG)
                 (AU) (BU) (AG) (BG) (BU) (AG) (AG) (BU) (AU) (BG)
                 (AU) (BG) (BU) (AG) (AU) (BG) (BU) (AG) (BU) (AG)
                 (AG) (BU) (AU) (AG) (BG) (BU) (AG) (BU) (AU) (AG)
                 (BU) (BG) (AU) (BG) (AU) (BG) (AG) (BU) (BG) (AG)
                 (AU) (BU) (AG) (BU) (AU) (BG) (AG) (BU) (AU) (BG)
                 (AG) (BU) (AU) (AG) (BU) (BG) (AU) (BG) (AU) (BG)
                 (AG) (BU) (BG) (AU) (AG) (BU) (BG) (AU) (AU) (BG)
                 (AG) (AU) (BU) (BG) (AU) (BG) (AG) (BU) (AU) (BG)
                 (BU) (AG) (AU) (BG) (BU) (AG) (BU) (BG) (AU) (AG)
                 (BU) (AG) (AU) (BG) (AG) (BU) (BG) (AU) (AU) (BG)
                 (BU) (AG) (AU) (BG) (BU) (AG) (AG) (BU) (BG) (AU)
                 (AU) (BG) (AG) (BU) (BG) (AU) (BG) (AU) (AG) (BU)
                 (BG) (AU) (BG) (AU) (AG) (BU) (BG) (AU) (AG) (BU)
                 (BG) (AU) (AG) (BU) (AG) (AU) (BG) (BU)
 The electronic state is 1-AG.
 Alpha  occ. eigenvalues -- -345.98437-345.98437 -41.86367 -41.86367 -36.96073
 Alpha  occ. eigenvalues --  -36.96073 -36.95292 -36.95292 -36.95292 -36.95292
 Alpha  occ. eigenvalues --  -14.21334 -14.21334 -14.21331 -14.21331 -14.21329
 Alpha  occ. eigenvalues --  -14.21329 -14.21319 -14.21319 -14.20487 -14.20487
 Alpha  occ. eigenvalues --  -14.20485 -14.20485 -14.20483 -14.20483 -14.20482
 Alpha  occ. eigenvalues --  -14.20482 -10.17893 -10.17893 -10.17891 -10.17891
 Alpha  occ. eigenvalues --  -10.17885 -10.17885 -10.17879 -10.17879 -10.17877
 Alpha  occ. eigenvalues --  -10.17877 -10.17874 -10.17874 -10.17870 -10.17870
 Alpha  occ. eigenvalues --  -10.17863 -10.17863 -10.11042 -10.11042 -10.11041
 Alpha  occ. eigenvalues --  -10.11041 -10.11028 -10.11028 -10.11026 -10.11026
 Alpha  occ. eigenvalues --  -10.11026 -10.11026 -10.11013 -10.11013 -10.10957
 Alpha  occ. eigenvalues --  -10.10957 -10.10942 -10.10942 -10.10871 -10.10871
 Alpha  occ. eigenvalues --  -10.10871 -10.10871 -10.10859 -10.10859 -10.10859
 Alpha  occ. eigenvalues --  -10.10859 -10.10857 -10.10857 -10.10845 -10.10845
 Alpha  occ. eigenvalues --  -10.10808 -10.10808 -10.10807 -10.10807 -10.10798
 Alpha  occ. eigenvalues --  -10.10798 -10.10798 -10.10798 -10.10794 -10.10794
 Alpha  occ. eigenvalues --  -10.10785 -10.10785 -10.10752 -10.10752 -10.10746
 Alpha  occ. eigenvalues --  -10.10746 -10.10744 -10.10744 -10.10733 -10.10732
 Alpha  occ. eigenvalues --   -4.78163  -4.78163  -3.22853  -3.22853  -3.21552
 Alpha  occ. eigenvalues --   -3.21552  -3.21551  -3.21551  -1.12008  -1.12008
 Alpha  occ. eigenvalues --   -1.10563  -1.10563  -1.10556  -1.10556  -1.07831
 Alpha  occ. eigenvalues --   -1.07831  -1.05441  -1.05441  -1.01386  -1.01386
 Alpha  occ. eigenvalues --   -1.01382  -1.01382  -0.98343  -0.98343  -0.97088
 Alpha  occ. eigenvalues --   -0.97088  -0.97061  -0.97061  -0.97018  -0.97015
 Alpha  occ. eigenvalues --   -0.96906  -0.96904  -0.88983  -0.88983  -0.87666
 Alpha  occ. eigenvalues --   -0.87664  -0.87392  -0.87391  -0.87390  -0.87390
 Alpha  occ. eigenvalues --   -0.87041  -0.87040  -0.87038  -0.87037  -0.86819
 Alpha  occ. eigenvalues --   -0.86817  -0.86703  -0.86702  -0.83268  -0.83267
 Alpha  occ. eigenvalues --   -0.80696  -0.80696  -0.80684  -0.80684  -0.75354
 Alpha  occ. eigenvalues --   -0.75354  -0.75146  -0.75146  -0.74338  -0.74338
 Alpha  occ. eigenvalues --   -0.74294  -0.74293  -0.73620  -0.73619  -0.73489
 Alpha  occ. eigenvalues --   -0.73489  -0.70962  -0.70962  -0.70949  -0.70949
 Alpha  occ. eigenvalues --   -0.70918  -0.70916  -0.69739  -0.69738  -0.67399
 Alpha  occ. eigenvalues --   -0.67398  -0.66496  -0.66496  -0.66472  -0.66470
 Alpha  occ. eigenvalues --   -0.65077  -0.65076  -0.64933  -0.64933  -0.64929
 Alpha  occ. eigenvalues --   -0.64928  -0.61497  -0.61497  -0.61080  -0.61080
 Alpha  occ. eigenvalues --   -0.60882  -0.60882  -0.60525  -0.60524  -0.59535
 Alpha  occ. eigenvalues --   -0.59535  -0.59076  -0.59075  -0.59072  -0.59072
 Alpha  occ. eigenvalues --   -0.59068  -0.59067  -0.59048  -0.59048  -0.57878
 Alpha  occ. eigenvalues --   -0.57878  -0.57820  -0.57820  -0.56966  -0.56966
 Alpha  occ. eigenvalues --   -0.56789  -0.56788  -0.56497  -0.56497  -0.56066
 Alpha  occ. eigenvalues --   -0.56066  -0.56060  -0.56058  -0.55976  -0.55976
 Alpha  occ. eigenvalues --   -0.55474  -0.55473  -0.54932  -0.54931  -0.54917
 Alpha  occ. eigenvalues --   -0.54916  -0.54846  -0.54845  -0.54513  -0.54508
 Alpha  occ. eigenvalues --   -0.53934  -0.53933  -0.53686  -0.53685  -0.53668
 Alpha  occ. eigenvalues --   -0.53667  -0.52390  -0.52390  -0.51316  -0.51316
 Alpha  occ. eigenvalues --   -0.50626  -0.50626  -0.48598  -0.48596  -0.48596
 Alpha  occ. eigenvalues --   -0.48595  -0.48580  -0.48502  -0.47481  -0.47481
 Alpha  occ. eigenvalues --   -0.47251  -0.47251  -0.47187  -0.47186  -0.46640
 Alpha  occ. eigenvalues --   -0.46608  -0.46481  -0.46481  -0.46355  -0.46355
 Alpha  occ. eigenvalues --   -0.46330  -0.46329  -0.45762  -0.45762  -0.44590
 Alpha  occ. eigenvalues --   -0.44590  -0.44564  -0.44564  -0.44447  -0.44446
 Alpha  occ. eigenvalues --   -0.42900  -0.42897  -0.42895  -0.42886  -0.41103
 Alpha  occ. eigenvalues --   -0.41103  -0.38365  -0.38365  -0.38364  -0.38364
 Alpha  occ. eigenvalues --   -0.38015  -0.38004  -0.36604  -0.36604  -0.35982
 Alpha  occ. eigenvalues --   -0.35961  -0.35742  -0.35728  -0.35494  -0.35485
 Alpha  occ. eigenvalues --   -0.35472  -0.35438  -0.34718  -0.34715  -0.34705
 Alpha  occ. eigenvalues --   -0.34674  -0.34674  -0.34667  -0.34572  -0.34528
 Alpha  occ. eigenvalues --   -0.33600  -0.33586  -0.23927  -0.23916
 Alpha virt. eigenvalues --   -0.05808  -0.05807  -0.05801  -0.05783   0.02853
 Alpha virt. eigenvalues --    0.02880   0.03999   0.04007   0.04939   0.04947
 Alpha virt. eigenvalues --    0.05313   0.05320   0.05346   0.05365   0.08613
 Alpha virt. eigenvalues --    0.08616   0.10322   0.10362   0.10738   0.10739
 Alpha virt. eigenvalues --    0.10742   0.10828   0.13629   0.13632   0.14114
 Alpha virt. eigenvalues --    0.14160   0.14494   0.14501   0.14513   0.14647
 Alpha virt. eigenvalues --    0.14763   0.14792   0.15126   0.15127   0.15192
 Alpha virt. eigenvalues --    0.15277   0.16324   0.16392   0.17462   0.17512
 Alpha virt. eigenvalues --    0.17541   0.17585   0.18681   0.18758   0.19451
 Alpha virt. eigenvalues --    0.19567   0.20702   0.20704   0.20706   0.20710
 Alpha virt. eigenvalues --    0.20769   0.20817   0.20824   0.20862   0.21697
 Alpha virt. eigenvalues --    0.21742   0.21754   0.21761   0.23792   0.23829
 Alpha virt. eigenvalues --    0.24274   0.24310   0.24339   0.24389   0.24893
 Alpha virt. eigenvalues --    0.25016   0.25529   0.25531   0.25534   0.25547
 Alpha virt. eigenvalues --    0.26450   0.26451   0.27281   0.27282   0.27797
 Alpha virt. eigenvalues --    0.27797   0.27857   0.27857   0.27899   0.27901
 Alpha virt. eigenvalues --    0.28710   0.28714   0.29239   0.29261   0.31249
 Alpha virt. eigenvalues --    0.31297   0.31451   0.31469   0.31472   0.31473
 Alpha virt. eigenvalues --    0.32062   0.32070   0.33459   0.33474   0.33768
 Alpha virt. eigenvalues --    0.33799   0.33803   0.33869   0.34698   0.34699
 Alpha virt. eigenvalues --    0.34984   0.35022   0.35026   0.35078   0.35361
 Alpha virt. eigenvalues --    0.35468   0.35660   0.35706   0.35759   0.35761
 Alpha virt. eigenvalues --    0.35782   0.35852   0.36038   0.36150   0.37234
 Alpha virt. eigenvalues --    0.37238   0.37246   0.37250   0.38348   0.38355
 Alpha virt. eigenvalues --    0.39283   0.39318   0.39789   0.39790   0.40184
 Alpha virt. eigenvalues --    0.40222   0.40253   0.40253   0.40295   0.40322
 Alpha virt. eigenvalues --    0.40550   0.40595   0.41114   0.41151   0.41195
 Alpha virt. eigenvalues --    0.41228   0.41398   0.41417   0.41448   0.41489
 Alpha virt. eigenvalues --    0.41665   0.41767   0.43212   0.43219   0.43261
 Alpha virt. eigenvalues --    0.43271   0.44791   0.44847   0.44893   0.44972
 Alpha virt. eigenvalues --    0.45726   0.45733   0.45788   0.45790   0.46320
 Alpha virt. eigenvalues --    0.46327   0.46342   0.46358   0.46699   0.46727
 Alpha virt. eigenvalues --    0.46819   0.46874   0.46882   0.46925   0.47684
 Alpha virt. eigenvalues --    0.47729   0.47737   0.47804   0.49470   0.49473
 Alpha virt. eigenvalues --    0.49776   0.49979   0.52130   0.52195   0.52584
 Alpha virt. eigenvalues --    0.52771   0.52814   0.52892   0.52907   0.52990
 Alpha virt. eigenvalues --    0.53065   0.53073   0.53073   0.53142   0.53803
 Alpha virt. eigenvalues --    0.53832   0.53931   0.53944   0.54073   0.54074
 Alpha virt. eigenvalues --    0.54127   0.54345   0.54578   0.54747   0.55480
 Alpha virt. eigenvalues --    0.55626   0.55743   0.55746   0.55811   0.55823
 Alpha virt. eigenvalues --    0.55869   0.55904   0.56300   0.56542   0.56544
 Alpha virt. eigenvalues --    0.56749   0.56838   0.56845   0.56942   0.56997
 Alpha virt. eigenvalues --    0.57084   0.57115   0.57269   0.57496   0.57740
 Alpha virt. eigenvalues --    0.57837   0.57847   0.58001   0.58233   0.58278
 Alpha virt. eigenvalues --    0.58381   0.58439   0.58515   0.58674   0.58980
 Alpha virt. eigenvalues --    0.59098   0.59617   0.59935   0.60022   0.60051
 Alpha virt. eigenvalues --    0.60712   0.60724   0.60845   0.60929   0.61026
 Alpha virt. eigenvalues --    0.61032   0.61054   0.61056   0.61175   0.61324
 Alpha virt. eigenvalues --    0.63837   0.63863   0.63866   0.64113   0.64293
 Alpha virt. eigenvalues --    0.64307   0.64949   0.64995   0.65030   0.65037
 Alpha virt. eigenvalues --    0.65056   0.65070   0.65284   0.65369   0.66352
 Alpha virt. eigenvalues --    0.66699   0.67863   0.67864   0.67992   0.68215
 Alpha virt. eigenvalues --    0.68341   0.68367   0.68457   0.68559   0.68749
 Alpha virt. eigenvalues --    0.68916   0.70808   0.70837   0.70852   0.70859
 Alpha virt. eigenvalues --    0.70889   0.71096   0.71198   0.71251   0.71261
 Alpha virt. eigenvalues --    0.71488   0.71496   0.71505   0.71673   0.71677
 Alpha virt. eigenvalues --    0.72171   0.72180   0.72181   0.72199   0.72228
 Alpha virt. eigenvalues --    0.72260   0.72287   0.72344   0.73279   0.73346
 Alpha virt. eigenvalues --    0.74153   0.74153   0.74900   0.74901   0.74918
 Alpha virt. eigenvalues --    0.74925   0.75899   0.75994   0.76100   0.76141
 Alpha virt. eigenvalues --    0.76559   0.76665   0.76676   0.76693   0.76759
 Alpha virt. eigenvalues --    0.76799   0.76809   0.76866   0.76917   0.76995
 Alpha virt. eigenvalues --    0.77113   0.77131   0.77154   0.77240   0.77340
 Alpha virt. eigenvalues --    0.77453   0.77713   0.77770   0.78424   0.78516
 Alpha virt. eigenvalues --    0.79113   0.79415   0.79447   0.79502   0.79504
 Alpha virt. eigenvalues --    0.79511   0.79518   0.79522   0.79549   0.79785
 Alpha virt. eigenvalues --    0.79898   0.80067   0.81804   0.81861   0.81871
 Alpha virt. eigenvalues --    0.81922   0.82257   0.82259   0.83993   0.84188
 Alpha virt. eigenvalues --    0.84203   0.84204   0.84209   0.84279   0.84644
 Alpha virt. eigenvalues --    0.84747   0.84769   0.84854   0.84919   0.85023
 Alpha virt. eigenvalues --    0.85064   0.85201   0.85408   0.85410   0.85459
 Alpha virt. eigenvalues --    0.85521   0.85778   0.85820   0.86586   0.86652
 Alpha virt. eigenvalues --    0.86699   0.86820   0.86829   0.86838   0.87107
 Alpha virt. eigenvalues --    0.87400   0.88683   0.88702   0.89056   0.89095
 Alpha virt. eigenvalues --    0.90332   0.90333   0.90333   0.90336   0.91613
 Alpha virt. eigenvalues --    0.91618   0.91662   0.91683   0.91923   0.91929
 Alpha virt. eigenvalues --    0.92000   0.92013   0.92049   0.92092   0.92160
 Alpha virt. eigenvalues --    0.92181   0.93029   0.93030   0.93497   0.93598
 Alpha virt. eigenvalues --    0.95402   0.95513   0.99048   0.99092   0.99424
 Alpha virt. eigenvalues --    0.99432   0.99444   0.99491   1.00748   1.00751
 Alpha virt. eigenvalues --    1.01373   1.01384   1.02156   1.02168   1.02560
 Alpha virt. eigenvalues --    1.02561   1.02605   1.02615   1.02867   1.02899
 Alpha virt. eigenvalues --    1.03597   1.03597   1.03739   1.03740   1.03741
 Alpha virt. eigenvalues --    1.03743   1.05600   1.05654   1.05659   1.05732
 Alpha virt. eigenvalues --    1.06416   1.06523   1.07554   1.07580   1.07964
 Alpha virt. eigenvalues --    1.08010   1.08011   1.08021   1.08028   1.08089
 Alpha virt. eigenvalues --    1.10738   1.10741   1.11703   1.11709   1.11713
 Alpha virt. eigenvalues --    1.11752   1.12910   1.12928   1.13535   1.13565
 Alpha virt. eigenvalues --    1.14991   1.14992   1.15004   1.15016   1.15504
 Alpha virt. eigenvalues --    1.15515   1.17554   1.17585   1.17716   1.17765
 Alpha virt. eigenvalues --    1.20549   1.20552   1.20589   1.20643   1.21138
 Alpha virt. eigenvalues --    1.21143   1.24137   1.24194   1.25688   1.25692
 Alpha virt. eigenvalues --    1.27294   1.27381   1.27773   1.27779   1.27782
 Alpha virt. eigenvalues --    1.27846   1.28991   1.29006   1.30124   1.30133
 Alpha virt. eigenvalues --    1.30517   1.30517   1.30571   1.30608   1.30955
 Alpha virt. eigenvalues --    1.30959   1.30966   1.30969   1.31713   1.31744
 Alpha virt. eigenvalues --    1.33556   1.33568   1.33803   1.33822   1.33936
 Alpha virt. eigenvalues --    1.33936   1.33977   1.33979   1.34003   1.34006
 Alpha virt. eigenvalues --    1.34014   1.34049   1.34361   1.34364   1.34881
 Alpha virt. eigenvalues --    1.34887   1.35194   1.35194   1.35367   1.35375
 Alpha virt. eigenvalues --    1.35528   1.35529   1.35568   1.35598   1.35847
 Alpha virt. eigenvalues --    1.35872   1.37551   1.37589   1.37723   1.37750
 Alpha virt. eigenvalues --    1.38135   1.38151   1.38525   1.38527   1.38527
 Alpha virt. eigenvalues --    1.38594   1.38595   1.38628   1.38657   1.38673
 Alpha virt. eigenvalues --    1.38678   1.38818   1.40090   1.40107   1.41876
 Alpha virt. eigenvalues --    1.41880   1.41884   1.41888   1.42956   1.42968
 Alpha virt. eigenvalues --    1.43341   1.43341   1.43366   1.43384   1.43513
 Alpha virt. eigenvalues --    1.43530   1.46384   1.46394   1.46572   1.46573
 Alpha virt. eigenvalues --    1.47018   1.47071   1.47081   1.47121   1.47122
 Alpha virt. eigenvalues --    1.47137   1.47139   1.47222   1.48802   1.48802
 Alpha virt. eigenvalues --    1.49322   1.49323   1.51008   1.51009   1.51476
 Alpha virt. eigenvalues --    1.51699   1.52825   1.52975   1.53271   1.53284
 Alpha virt. eigenvalues --    1.53294   1.53391   1.53643   1.53649   1.57410
 Alpha virt. eigenvalues --    1.57573   1.58383   1.58501   1.58511   1.58781
 Alpha virt. eigenvalues --    1.60802   1.60804   1.62110   1.62224   1.62225
 Alpha virt. eigenvalues --    1.62395   1.63475   1.63735   1.65117   1.65117
 Alpha virt. eigenvalues --    1.65118   1.65118   1.69687   1.69687   1.69722
 Alpha virt. eigenvalues --    1.69729   1.70460   1.70460   1.71810   1.71826
 Alpha virt. eigenvalues --    1.75193   1.75227   1.75231   1.75237   1.77581
 Alpha virt. eigenvalues --    1.77647   1.77649   1.77702   1.77736   1.77780
 Alpha virt. eigenvalues --    1.77785   1.77811   1.77855   1.77856   1.77881
 Alpha virt. eigenvalues --    1.78065   1.78075   1.78099   1.78144   1.78155
 Alpha virt. eigenvalues --    1.78535   1.78559   1.78570   1.78638   1.79137
 Alpha virt. eigenvalues --    1.79154   1.82742   1.82755   1.83528   1.83544
 Alpha virt. eigenvalues --    1.84190   1.84192   1.84207   1.84262   1.85031
 Alpha virt. eigenvalues --    1.85046   1.85070   1.85120   1.85123   1.85148
 Alpha virt. eigenvalues --    1.85299   1.85312   1.85420   1.85427   1.86139
 Alpha virt. eigenvalues --    1.86149   1.86173   1.86194   1.86196   1.86253
 Alpha virt. eigenvalues --    1.87362   1.87374   1.87403   1.87472   1.87766
 Alpha virt. eigenvalues --    1.87928   1.88179   1.88250   1.88311   1.88321
 Alpha virt. eigenvalues --    1.88390   1.88456   1.88557   1.88582   1.88586
 Alpha virt. eigenvalues --    1.88759   1.88844   1.88853   1.89096   1.89127
 Alpha virt. eigenvalues --    1.89151   1.89173   1.90074   1.90134   1.91250
 Alpha virt. eigenvalues --    1.91252   1.91255   1.91269   1.91314   1.91339
 Alpha virt. eigenvalues --    1.92480   1.92939   1.95704   1.95716   1.95735
 Alpha virt. eigenvalues --    1.95807   1.96580   1.96615   1.98525   1.98583
 Alpha virt. eigenvalues --    2.00410   2.00410   2.00874   2.00932   2.00934
 Alpha virt. eigenvalues --    2.00996   2.01838   2.01993   2.02806   2.02830
 Alpha virt. eigenvalues --    2.03734   2.03734   2.03756   2.03782   2.04069
 Alpha virt. eigenvalues --    2.04136   2.04324   2.04336   2.05153   2.05155
 Alpha virt. eigenvalues --    2.05187   2.05235   2.05252   2.05266   2.05601
 Alpha virt. eigenvalues --    2.05649   2.05793   2.05831   2.06943   2.06948
 Alpha virt. eigenvalues --    2.07063   2.07091   2.07848   2.07849   2.07852
 Alpha virt. eigenvalues --    2.07870   2.07885   2.07905   2.08207   2.08248
 Alpha virt. eigenvalues --    2.08642   2.08662   2.08828   2.08835   2.09066
 Alpha virt. eigenvalues --    2.09098   2.09112   2.09160   2.10846   2.10866
 Alpha virt. eigenvalues --    2.11295   2.11296   2.11302   2.11327   2.12979
 Alpha virt. eigenvalues --    2.13067   2.13237   2.13250   2.13744   2.13921
 Alpha virt. eigenvalues --    2.14547   2.14562   2.14666   2.14709   2.19228
 Alpha virt. eigenvalues --    2.19237   2.19256   2.19329   2.19728   2.19860
 Alpha virt. eigenvalues --    2.23269   2.23356   2.23367   2.23372   2.23402
 Alpha virt. eigenvalues --    2.23415   2.23425   2.23461   2.23683   2.23703
 Alpha virt. eigenvalues --    2.23731   2.23925   2.24055   2.24099   2.24566
 Alpha virt. eigenvalues --    2.24595   2.24616   2.24637   2.24697   2.24788
 Alpha virt. eigenvalues --    2.25356   2.25381   2.25477   2.25536   2.26821
 Alpha virt. eigenvalues --    2.26948   2.28133   2.28158   2.28163   2.28190
 Alpha virt. eigenvalues --    2.28245   2.28255   2.29857   2.29917   2.29952
 Alpha virt. eigenvalues --    2.29965   2.29988   2.30028   2.30991   2.31016
 Alpha virt. eigenvalues --    2.33050   2.33106   2.34080   2.34081   2.34751
 Alpha virt. eigenvalues --    2.34752   2.34785   2.34788   2.35161   2.35165
 Alpha virt. eigenvalues --    2.35196   2.35212   2.35212   2.35220   2.35252
 Alpha virt. eigenvalues --    2.35269   2.35982   2.35983   2.38230   2.38241
 Alpha virt. eigenvalues --    2.38560   2.38562   2.38578   2.38598   2.39280
 Alpha virt. eigenvalues --    2.39285   2.39429   2.39436   2.40775   2.40779
 Alpha virt. eigenvalues --    2.40802   2.40808   2.40997   2.41005   2.41201
 Alpha virt. eigenvalues --    2.41205   2.43348   2.43348   2.43377   2.43380
 Alpha virt. eigenvalues --    2.43803   2.43805   2.44352   2.44359   2.45230
 Alpha virt. eigenvalues --    2.45233   2.45276   2.45289   2.47405   2.47411
 Alpha virt. eigenvalues --    2.47979   2.47983   2.48664   2.48664   2.49371
 Alpha virt. eigenvalues --    2.49372   2.49386   2.49386   2.50374   2.50407
 Alpha virt. eigenvalues --    2.55362   2.55362   2.56408   2.56425   2.56427
 Alpha virt. eigenvalues --    2.56464   2.57108   2.57108   2.57548   2.57548
 Alpha virt. eigenvalues --    2.59703   2.59703   2.59748   2.59749   2.61267
 Alpha virt. eigenvalues --    2.61303   2.63839   2.63840   2.65777   2.65784
 Alpha virt. eigenvalues --    2.65822   2.65881   2.66432   2.66432   2.66454
 Alpha virt. eigenvalues --    2.66454   2.66911   2.66975   2.68252   2.68333
 Alpha virt. eigenvalues --    2.69315   2.69329   2.69330   2.69421   2.69575
 Alpha virt. eigenvalues --    2.69640   2.69641   2.69661   2.70279   2.70347
 Alpha virt. eigenvalues --    2.74663   2.74663   2.74685   2.74685   2.74925
 Alpha virt. eigenvalues --    2.74925   2.75459   2.75459   2.75898   2.75906
 Alpha virt. eigenvalues --    2.75914   2.75978   2.76759   2.76855   2.77131
 Alpha virt. eigenvalues --    2.77161   2.77772   2.77772   2.78027   2.78109
 Alpha virt. eigenvalues --    2.79584   2.79623   2.79624   2.79682   2.80248
 Alpha virt. eigenvalues --    2.80249   2.80585   2.80585   2.80611   2.80611
 Alpha virt. eigenvalues --    2.82745   2.82745   2.83600   2.83622   2.83933
 Alpha virt. eigenvalues --    2.83937   2.83977   2.84026   2.84146   2.84237
 Alpha virt. eigenvalues --    2.87886   2.87898   2.88993   2.88995   2.89026
 Alpha virt. eigenvalues --    2.89032   2.92141   2.92159   2.93987   2.94047
 Alpha virt. eigenvalues --    2.94048   2.94136   2.94282   2.94424   2.94860
 Alpha virt. eigenvalues --    2.94977   2.95149   2.95165   2.95214   2.95223
 Alpha virt. eigenvalues --    2.95226   2.95250   2.97832   2.97832   2.98014
 Alpha virt. eigenvalues --    2.98014   2.99784   2.99784   2.99785   2.99785
 Alpha virt. eigenvalues --    3.00744   3.00744   3.01286   3.01305   3.01321
 Alpha virt. eigenvalues --    3.01380   3.02545   3.02644   3.05707   3.05712
 Alpha virt. eigenvalues --    3.07954   3.07959   3.08840   3.08858   3.09143
 Alpha virt. eigenvalues --    3.09147   3.09195   3.09202   3.10431   3.10435
 Alpha virt. eigenvalues --    3.12430   3.12441   3.12449   3.12485   3.13476
 Alpha virt. eigenvalues --    3.13529   3.16675   3.16679   3.20609   3.20619
 Alpha virt. eigenvalues --    3.20632   3.20638   3.23150   3.23160   3.23371
 Alpha virt. eigenvalues --    3.23383   3.24703   3.24703   3.24703   3.24707
 Alpha virt. eigenvalues --    3.27698   3.27699   3.33247   3.33249   3.34124
 Alpha virt. eigenvalues --    3.34124   3.34146   3.34147   3.35442   3.35443
 Alpha virt. eigenvalues --    3.47336   3.47339   3.47342   3.47344   3.54334
 Alpha virt. eigenvalues --    3.54335   3.56590   3.56592   3.58598   3.58602
 Alpha virt. eigenvalues --    3.62489   3.62490   3.64527   3.64528   3.64545
 Alpha virt. eigenvalues --    3.64556   3.72059   3.72089   3.76248   3.76248
 Alpha virt. eigenvalues --    3.76270   3.76301   3.78666   3.78678   6.59895
 Alpha virt. eigenvalues --    6.59895   6.60128   6.60128   6.60571   6.60571
 Alpha virt. eigenvalues --    6.60802   6.60802   6.60802   6.60802   6.64733
 Alpha virt. eigenvalues --    6.64733   6.64733   6.64734
          Condensed to atoms (all electrons):
 Mulliken charges:
               1
     1  C    0.023994
     2  C    0.024039
     3  C   -0.068251
     4  C    0.100202
     5  C    0.100346
     6  C   -0.068056
     7  C   -0.068944
     8  C   -0.068890
     9  N   -0.208989
    10  N    0.104360
    11  N    0.104230
    12  H   -0.006977
    13  H   -0.006920
    14  H   -0.012542
    15  H   -0.012499
    16  C    0.026050
    17  C    0.026050
    18  C   -0.069793
    19  C    0.100010
    20  C    0.100010
    21  C   -0.069793
    22  C   -0.069124
    23  C   -0.069124
    24  N   -0.209114
    25  N    0.104230
    26  H   -0.004510
    27  H   -0.004510
    28  H   -0.012919
    29  H   -0.012919
    30  C    0.024022
    31  C    0.024022
    32  C   -0.068070
    33  C    0.100294
    34  C    0.100294
    35  C   -0.068070
    36  C   -0.068905
    37  C   -0.068905
    38  N   -0.208949
    39  N    0.104360
    40  H   -0.006962
    41  H   -0.006962
    42  H   -0.012588
    43  H   -0.012588
    44  C    0.024039
    45  C    0.023994
    46  C   -0.068056
    47  C    0.100346
    48  C    0.100202
    49  C   -0.068251
    50  C   -0.068890
    51  C   -0.068944
    52  N   -0.208989
    53  H   -0.006920
    54  H   -0.006977
    55  H   -0.012499
    56  H   -0.012542
    57  Zn   0.672849
    58  C    0.024039
    59  C    0.023994
    60  C   -0.068056
    61  C    0.100346
    62  C    0.100202
    63  C   -0.068251
    64  C   -0.068890
    65  C   -0.068944
    66  N   -0.208989
    67  N    0.104230
    68  N    0.104360
    69  H   -0.006920
    70  H   -0.006977
    71  H   -0.012499
    72  H   -0.012542
    73  C    0.024022
    74  C    0.024022
    75  C   -0.068070
    76  C    0.100294
    77  C    0.100294
    78  C   -0.068070
    79  C   -0.068905
    80  C   -0.068905
    81  N   -0.208949
    82  N    0.104360
    83  H   -0.006962
    84  H   -0.006962
    85  H   -0.012588
    86  H   -0.012588
    87  C    0.026050
    88  C    0.026050
    89  C   -0.069793
    90  C    0.100010
    91  C    0.100010
    92  C   -0.069793
    93  C   -0.069124
    94  C   -0.069124
    95  N   -0.209114
    96  N    0.104230
    97  H   -0.004510
    98  H   -0.004510
    99  H   -0.012919
   100  H   -0.012919
   101  C    0.023994
   102  C    0.024039
   103  C   -0.068251
   104  C    0.100202
   105  C    0.100346
   106  C   -0.068056
   107  C   -0.068944
   108  C   -0.068890
   109  N   -0.208989
   110  H   -0.006977
   111  H   -0.006920
   112  H   -0.012542
   113  H   -0.012499
   114  Zn   0.672849
 Sum of Mulliken charges =  -0.00000
 Mulliken charges with hydrogens summed into heavy atoms:
               1
     1  C    0.017017
     2  C    0.017119
     3  C   -0.080793
     4  C    0.100202
     5  C    0.100346
     6  C   -0.080555
     7  C   -0.068944
     8  C   -0.068890
     9  N   -0.208989
    10  N    0.104360
    11  N    0.104230
    16  C    0.021540
    17  C    0.021540
    18  C   -0.082712
    19  C    0.100010
    20  C    0.100010
    21  C   -0.082712
    22  C   -0.069124
    23  C   -0.069124
    24  N   -0.209114
    25  N    0.104230
    30  C    0.017060
    31  C    0.017060
    32  C   -0.080658
    33  C    0.100294
    34  C    0.100294
    35  C   -0.080658
    36  C   -0.068905
    37  C   -0.068905
    38  N   -0.208949
    39  N    0.104360
    44  C    0.017119
    45  C    0.017017
    46  C   -0.080555
    47  C    0.100346
    48  C    0.100202
    49  C   -0.080793
    50  C   -0.068890
    51  C   -0.068944
    52  N   -0.208989
    57  Zn   0.672849
    58  C    0.017119
    59  C    0.017017
    60  C   -0.080555
    61  C    0.100346
    62  C    0.100202
    63  C   -0.080793
    64  C   -0.068890
    65  C   -0.068944
    66  N   -0.208989
    67  N    0.104230
    68  N    0.104360
    73  C    0.017060
    74  C    0.017060
    75  C   -0.080658
    76  C    0.100294
    77  C    0.100294
    78  C   -0.080658
    79  C   -0.068905
    80  C   -0.068905
    81  N   -0.208949
    82  N    0.104360
    87  C    0.021540
    88  C    0.021540
    89  C   -0.082712
    90  C    0.100010
    91  C    0.100010
    92  C   -0.082712
    93  C   -0.069124
    94  C   -0.069124
    95  N   -0.209114
    96  N    0.104230
   101  C    0.017017
   102  C    0.017119
   103  C   -0.080793
   104  C    0.100202
   105  C    0.100346
   106  C   -0.080555
   107  C   -0.068944
   108  C   -0.068890
   109  N   -0.208989
   114  Zn   0.672849
 Electronic spatial extent (au):  <R**2>=         160066.1499
 Charge=              0.0000 electrons
 Dipole moment (field-independent basis, Debye):
    X=             -0.0000    Y=              0.0000    Z=             -0.0000  Tot=              0.0000
 Quadrupole moment (field-independent basis, Debye-Ang):
   XX=           -488.7598   YY=           -424.8300   ZZ=           -423.0991
   XY=             -0.4516   XZ=              0.0000   YZ=              0.0000
 Traceless Quadrupole moment (field-independent basis, Debye-Ang):
   XX=            -43.1969   YY=             20.7330   ZZ=             22.4639
   XY=             -0.4516   XZ=              0.0000   YZ=              0.0000
 Octapole moment (field-independent basis, Debye-Ang**2):
  XXX=              0.0000  YYY=              0.0000  ZZZ=              0.0000  XYY=              0.0000
  XXY=             -0.0000  XXZ=             -0.0000  XZZ=             -0.0000  YZZ=              0.0000
  YYZ=             -0.0000  XYZ=             -0.0000
 Hexadecapole moment (field-independent basis, Debye-Ang**3):
 XXXX=         -18841.1316 YYYY=        -151306.2736 ZZZZ=         -26846.4542 XXXY=         -25672.0867
 XXXZ=             -0.0000 YYYX=         -22222.6640 YYYZ=             -0.0000 ZZZX=             -0.0000
 ZZZY=              0.0000 XXYY=         -32260.4851 XXZZ=          -8295.8569 YYZZ=         -30387.2662
 XXYZ=              0.0000 YYXZ=             -0.0000 ZZXY=          -7400.2286
 N-N= 1.328092850786D+04 E-N=-4.279574404470D+04  KE= 6.843173213933D+03
 Symmetry AG   KE= 2.414096229466D+03
 Symmetry BG   KE= 1.007477271809D+03
 Symmetry AU   KE= 1.007465247952D+03
 Symmetry BU   KE= 2.414134464706D+03

 Test job not archived.
 1\1\ WCSS.PL-BEM-KETKOV-PC2\SP\RLC-BLYP\def2SVP\C64H32N16Zn2\SERGEY\12
 -Apr-2026\0\\# lc-blyp/def2svp iop(3/107=0350000000,3/108=0350000000)\
 \monomer geom r2scan-3c\\0,1\C,0,0.701663,6.554204,0.\C,0,-0.701663,6.
 554204,0.\C,0,1.422571,5.364926,0.\C,0,0.703967,4.174565,0.\C,0,-0.703
 967,4.174565,0.\C,0,-1.422571,5.364926,0.\C,0,1.120422,2.78002,0.\C,0,
 -1.120422,2.78002,0.\N,0,0.,1.989101,0.\N,0,-2.390568,2.390568,0.\N,0,
 2.390568,2.390568,0.\H,0,1.231071,7.50255,0.\H,0,-1.231071,7.50255,0.\
 H,0,2.508027,5.356475,0.\H,0,-2.508027,5.356475,0.\C,0,6.554204,-0.701
 663,0.\C,0,6.554204,0.701663,0.\C,0,5.364926,-1.422571,0.\C,0,4.174565
 ,-0.703967,0.\C,0,4.174565,0.703967,0.\C,0,5.364926,1.422571,0.\C,0,2.
 78002,-1.120422,0.\C,0,2.78002,1.120422,0.\N,0,1.989101,0.,0.\N,0,2.39
 0568,-2.390568,0.\H,0,7.50255,-1.231071,0.\H,0,7.50255,1.231071,0.\H,0
 ,5.356475,-2.508027,0.\H,0,5.356475,2.508027,0.\C,0,-6.554204,0.701663
 ,0.\C,0,-6.554204,-0.701663,0.\C,0,-5.364926,1.422571,0.\C,0,-4.174565
 ,0.703967,0.\C,0,-4.174565,-0.703967,0.\C,0,-5.364926,-1.422571,0.\C,0
 ,-2.78002,1.120422,0.\C,0,-2.78002,-1.120422,0.\N,0,-1.989101,0.,0.\N,
 0,-2.390568,-2.390568,0.\H,0,-7.50255,1.231071,0.\H,0,-7.50255,-1.2310
 71,0.\H,0,-5.356475,2.508027,0.\H,0,-5.356475,-2.508027,0.\C,0,-0.7016
 63,-6.554204,0.\C,0,0.701663,-6.554204,0.\C,0,-1.422571,-5.364926,0.\C
 ,0,-0.703967,-4.174565,0.\C,0,0.703967,-4.174565,0.\C,0,1.422571,-5.36
 4926,0.\C,0,-1.120422,-2.78002,0.\C,0,1.120422,-2.78002,0.\N,0,0.,-1.9
 89101,0.\H,0,-1.231071,-7.50255,0.\H,0,1.231071,-7.50255,0.\H,0,-2.508
 027,-5.356475,0.\H,0,2.508027,-5.356475,0.\Zn,0,0.,0.,0.\C,0,14.701663
 ,6.554204,5.\C,0,13.298337,6.554204,5.\C,0,15.422571,5.364926,5.\C,0,1
 4.703967,4.174565,5.\C,0,13.296033,4.174565,5.\C,0,12.577429,5.364926,
 5.\C,0,15.120422,2.78002,5.\C,0,12.879578,2.78002,5.\N,0,14.,1.989101,
 5.\N,0,11.609432,2.390568,5.\N,0,16.390568,2.390568,5.\H,0,15.231071,7
 .50255,5.\H,0,12.768929,7.50255,5.\H,0,16.508027,5.356475,5.\H,0,11.49
 1973,5.356475,5.\C,0,20.554204,-0.701663,5.\C,0,20.554204,0.701663,5.\
 C,0,19.364926,-1.422571,5.\C,0,18.174565,-0.703967,5.\C,0,18.174565,0.
 703967,5.\C,0,19.364926,1.422571,5.\C,0,16.78002,-1.120422,5.\C,0,16.7
 8002,1.120422,5.\N,0,15.989101,0.,5.\N,0,16.390568,-2.390568,5.\H,0,21
 .50255,-1.231071,5.\H,0,21.50255,1.231071,5.\H,0,19.356475,-2.508027,5
 .\H,0,19.356475,2.508027,5.\C,0,7.445796,0.701663,5.\C,0,7.445796,-0.7
 01663,5.\C,0,8.635074,1.422571,5.\C,0,9.825435,0.703967,5.\C,0,9.82543
 5,-0.703967,5.\C,0,8.635074,-1.422571,5.\C,0,11.21998,1.120422,5.\C,0,
 11.21998,-1.120422,5.\N,0,12.010899,0.,5.\N,0,11.609432,-2.390568,5.\H
 ,0,6.49745,1.231071,5.\H,0,6.49745,-1.231071,5.\H,0,8.643525,2.508027,
 5.\H,0,8.643525,-2.508027,5.\C,0,13.298337,-6.554204,5.\C,0,14.701663,
 -6.554204,5.\C,0,12.577429,-5.364926,5.\C,0,13.296033,-4.174565,5.\C,0
 ,14.703967,-4.174565,5.\C,0,15.422571,-5.364926,5.\C,0,12.879578,-2.78
 002,5.\C,0,15.120422,-2.78002,5.\N,0,14.,-1.989101,5.\H,0,12.768929,-7
 .50255,5.\H,0,15.231071,-7.50255,5.\H,0,11.491973,-5.356475,5.\H,0,16.
 508027,-5.356475,5.\Zn,0,14.,0.,5.\\Version=ES64L-G09RevE.01\State=1-A
 G\HF=-6881.1563435\RMSD=8.427e-09\Dipole=0.,0.,0.\Quadrupole=15.414475
 2,16.7013497,-32.1158249,0.,-0.3357713,0.\PG=C02H [SGH(N4Zn2),X(C64H32
 N12)]\\@


 IT WAS AN ACT OF DESPARATION. FOR SIX YEARS I HAD STRUGGLED WITH THE
 BLACKBODY THEORY. I KNEW THE PROBLEM WAS FUNDAMENTAL, AND I KNEW
 THE ANSWER. I HAD TO FIND A THEORETICAL EXPLANATION AT ANY COST,
 EXCEPT FOR THE INVIOLABLITY OF THE TWO LAWS OF THERMODYNAMICS.
   -- MAX PLANCK, 1931
 Job cpu time:       0 days  0 hours 35 minutes 27.6 seconds.
 File lengths (MBytes):  RWF=    939 Int=      0 D2E=      0 Chk=     91 Scr=      1
 Normal termination of Gaussian 09 at Sun Apr 12 01:57:28 2026.
 Initial command:
 /home/sergey/g09/l1.exe "/home/sergey/scratch/Gau-31408.inp" -scrdir="/home/sergey/scratch/"
 Entering Link 1 = /home/sergey/g09/l1.exe PID=     31645.
  
 Copyright (c) 1988,1990,1992,1993,1995,1998,2003,2009,2015,
            Gaussian, Inc.  All Rights Reserved.
  
 This is part of the Gaussian(R) 09 program.  It is based on
 the Gaussian(R) 03 system (copyright 2003, Gaussian, Inc.),
 the Gaussian(R) 98 system (copyright 1998, Gaussian, Inc.),
 the Gaussian(R) 94 system (copyright 1995, Gaussian, Inc.),
 the Gaussian 92(TM) system (copyright 1992, Gaussian, Inc.),
 the Gaussian 90(TM) system (copyright 1990, Gaussian, Inc.),
 the Gaussian 88(TM) system (copyright 1988, Gaussian, Inc.),
 the Gaussian 86(TM) system (copyright 1986, Carnegie Mellon
 University), and the Gaussian 82(TM) system (copyright 1983,
 Carnegie Mellon University). Gaussian is a federally registered
 trademark of Gaussian, Inc.
  
 This software contains proprietary and confidential information,
 including trade secrets, belonging to Gaussian, Inc.
  
 This software is provided under written license and may be
 used, copied, transmitted, or stored only in accord with that
 written license.
  
 The following legend is applicable only to US Government
 contracts under FAR:
  
                    RESTRICTED RIGHTS LEGEND
  
 Use, reproduction and disclosure by the US Government is
 subject to restrictions as set forth in subparagraphs (a)
 and (c) of the Commercial Computer Software - Restricted
 Rights clause in FAR 52.227-19.
  
 Gaussian, Inc.
 340 Quinnipiac St., Bldg. 40, Wallingford CT 06492
  
  
 ---------------------------------------------------------------
 Warning -- This program may not be used in any manner that
 competes with the business of Gaussian, Inc. or will provide
 assistance to any competitor of Gaussian, Inc.  The licensee
 of this program is prohibited from giving any competitor of
 Gaussian, Inc. access to this program.  By using this program,
 the user acknowledges that Gaussian, Inc. is engaged in the
 business of creating and licensing software in the field of
 computational chemistry and represents and warrants to the
 licensee that it is not a competitor of Gaussian, Inc. and that
 it will not use this program in any manner prohibited above.
 ---------------------------------------------------------------
  

 Cite this work as:
 Gaussian 09, Revision E.01,
 M. J. Frisch, G. W. Trucks, H. B. Schlegel, G. E. Scuseria, 
 M. A. Robb, J. R. Cheeseman, G. Scalmani, V. Barone, B. Mennucci, 
 G. A. Petersson, H. Nakatsuji, M. Caricato, X. Li, H. P. Hratchian, 
 A. F. Izmaylov, J. Bloino, G. Zheng, J. L. Sonnenberg, M. Hada, 
 M. Ehara, K. Toyota, R. Fukuda, J. Hasegawa, M. Ishida, T. Nakajima, 
 Y. Honda, O. Kitao, H. Nakai, T. Vreven, J. A. Montgomery, Jr., 
 J. E. Peralta, F. Ogliaro, M. Bearpark, J. J. Heyd, E. Brothers, 
 K. N. Kudin, V. N. Staroverov, T. Keith, R. Kobayashi, J. Normand, 
 K. Raghavachari, A. Rendell, J. C. Burant, S. S. Iyengar, J. Tomasi, 
 M. Cossi, N. Rega, J. M. Millam, M. Klene, J. E. Knox, J. B. Cross, 
 V. Bakken, C. Adamo, J. Jaramillo, R. Gomperts, R. E. Stratmann, 
 O. Yazyev, A. J. Austin, R. Cammi, C. Pomelli, J. W. Ochterski, 
 R. L. Martin, K. Morokuma, V. G. Zakrzewski, G. A. Voth, 
 P. Salvador, J. J. Dannenberg, S. Dapprich, A. D. Daniels, 
 O. Farkas, J. B. Foresman, J. V. Ortiz, J. Cioslowski, 
 and D. J. Fox, Gaussian, Inc., Wallingford CT, 2013.
 
 ******************************************
 Gaussian 09:  ES64L-G09RevE.01 30-Nov-2015
                12-Apr-2026 
 ******************************************
 %chk=ZnPc2_50_140.chk
 %mem=60GB
 %nproc=6
 Will use up to    6 processors via shared memory.
 Default route:  MaxDisk=200GW
 ----------------------------------------------------------------------
 # td(nstates=4) lc-blyp/gen iop(3/107=0350000000,3/108=0350000000) geo
 m=check guess=read
 ----------------------------------------------------------------------
 1/29=2,38=1/1;
 2/12=2,40=1/2;
 3/5=7,11=9,14=-4,16=1,25=1,30=1,74=1000402,107=350000000,108=350000000,116=-2/1,2,8,3;
 4/5=1/1;
 5/5=2,38=6/2;
 8/6=1,10=1,108=4/1;
 9/41=4,42=1,70=2/14;
 6/7=2,8=2,9=2,10=2/1;
 99/5=1,9=1/99;
 ----------------------------------
 def2tzvp-f, monomer geom r2scan-3c
 ----------------------------------
 Structure from the checkpoint file:  "ZnPc2_50_140.chk"
 Charge =  0 Multiplicity = 1
 Z-Matrix found in file.
 C,0,0.701663,6.554204,0.
 C,0,-0.701663,6.554204,0.
 C,0,1.422571,5.364926,0.
 C,0,0.703967,4.174565,0.
 C,0,-0.703967,4.174565,0.
 C,0,-1.422571,5.364926,0.
 C,0,1.120422,2.78002,0.
 C,0,-1.120422,2.78002,0.
 N,0,0.,1.989101,0.
 N,0,-2.390568,2.390568,0.
 N,0,2.390568,2.390568,0.
 H,0,1.231071,7.50255,0.
 H,0,-1.231071,7.50255,0.
 H,0,2.508027,5.356475,0.
 H,0,-2.508027,5.356475,0.
 C,0,6.554204,-0.701663,0.
 C,0,6.554204,0.701663,0.
 C,0,5.364926,-1.422571,0.
 C,0,4.174565,-0.703967,0.
 C,0,4.174565,0.703967,0.
 C,0,5.364926,1.422571,0.
 C,0,2.78002,-1.120422,0.
 C,0,2.78002,1.120422,0.
 N,0,1.989101,0.,0.
 N,0,2.390568,-2.390568,0.
 H,0,7.50255,-1.231071,0.
 H,0,7.50255,1.231071,0.
 H,0,5.356475,-2.508027,0.
 H,0,5.356475,2.508027,0.
 C,0,-6.554204,0.701663,0.
 C,0,-6.554204,-0.701663,0.
 C,0,-5.364926,1.422571,0.
 C,0,-4.174565,0.703967,0.
 C,0,-4.174565,-0.703967,0.
 C,0,-5.364926,-1.422571,0.
 C,0,-2.78002,1.120422,0.
 C,0,-2.78002,-1.120422,0.
 N,0,-1.989101,0.,0.
 N,0,-2.390568,-2.390568,0.
 H,0,-7.50255,1.231071,0.
 H,0,-7.50255,-1.231071,0.
 H,0,-5.356475,2.508027,0.
 H,0,-5.356475,-2.508027,0.
 C,0,-0.701663,-6.554204,0.
 C,0,0.701663,-6.554204,0.
 C,0,-1.422571,-5.364926,0.
 C,0,-0.703967,-4.174565,0.
 C,0,0.703967,-4.174565,0.
 C,0,1.422571,-5.364926,0.
 C,0,-1.120422,-2.78002,0.
 C,0,1.120422,-2.78002,0.
 N,0,0.,-1.989101,0.
 H,0,-1.231071,-7.50255,0.
 H,0,1.231071,-7.50255,0.
 H,0,-2.508027,-5.356475,0.
 H,0,2.508027,-5.356475,0.
 Zn,0,0.,0.,0.
 C,0,14.701663,6.554204,5.
 C,0,13.298337,6.554204,5.
 C,0,15.422571,5.364926,5.
 C,0,14.703967,4.174565,5.
 C,0,13.296033,4.174565,5.
 C,0,12.577429,5.364926,5.
 C,0,15.120422,2.78002,5.
 C,0,12.879578,2.78002,5.
 N,0,14.,1.989101,5.
 N,0,11.609432,2.390568,5.
 N,0,16.390568,2.390568,5.
 H,0,15.231071,7.50255,5.
 H,0,12.768929,7.50255,5.
 H,0,16.508027,5.356475,5.
 H,0,11.491973,5.356475,5.
 C,0,20.554204,-0.701663,5.
 C,0,20.554204,0.701663,5.
 C,0,19.364926,-1.422571,5.
 C,0,18.174565,-0.703967,5.
 C,0,18.174565,0.703967,5.
 C,0,19.364926,1.422571,5.
 C,0,16.78002,-1.120422,5.
 C,0,16.78002,1.120422,5.
 N,0,15.989101,0.,5.
 N,0,16.390568,-2.390568,5.
 H,0,21.50255,-1.231071,5.
 H,0,21.50255,1.231071,5.
 H,0,19.356475,-2.508027,5.
 H,0,19.356475,2.508027,5.
 C,0,7.445796,0.701663,5.
 C,0,7.445796,-0.701663,5.
 C,0,8.635074,1.422571,5.
 C,0,9.825435,0.703967,5.
 C,0,9.825435,-0.703967,5.
 C,0,8.635074,-1.422571,5.
 C,0,11.21998,1.120422,5.
 C,0,11.21998,-1.120422,5.
 N,0,12.010899,0.,5.
 N,0,11.609432,-2.390568,5.
 H,0,6.49745,1.231071,5.
 H,0,6.49745,-1.231071,5.
 H,0,8.643525,2.508027,5.
 H,0,8.643525,-2.508027,5.
 C,0,13.298337,-6.554204,5.
 C,0,14.701663,-6.554204,5.
 C,0,12.577429,-5.364926,5.
 C,0,13.296033,-4.174565,5.
 C,0,14.703967,-4.174565,5.
 C,0,15.422571,-5.364926,5.
 C,0,12.879578,-2.78002,5.
 C,0,15.120422,-2.78002,5.
 N,0,14.,-1.989101,5.
 H,0,12.768929,-7.50255,5.
 H,0,15.231071,-7.50255,5.
 H,0,11.491973,-5.356475,5.
 H,0,16.508027,-5.356475,5.
 Zn,0,14.,0.,5.
 Recover connectivity data from disk.
 Stoichiometry    C64H32N16Zn2
 Framework group  C2H[SGH(N4Zn2),X(C64H32N12)]
 Deg. of freedom    86
 Full point group                 C2H     NOp   4
 Largest Abelian subgroup         C2H     NOp   4
 Largest concise Abelian subgroup C2H     NOp   4
                         Standard orientation:                         
 ---------------------------------------------------------------------
 Center     Atomic      Atomic             Coordinates (Angstroms)
 Number     Number       Type             X           Y           Z
 ---------------------------------------------------------------------
      1          6           0        2.500000    6.298337    6.554204
      2          6           0        2.500000    7.701663    6.554204
      3          6           0        2.500000    5.577429    5.364926
      4          6           0        2.500000    6.296033    4.174565
      5          6           0        2.500000    7.703967    4.174565
      6          6           0        2.500000    8.422571    5.364926
      7          6           0        2.500000    5.879578    2.780020
      8          6           0        2.500000    8.120422    2.780020
      9          7           0        2.500000    7.000000    1.989101
     10          7           0        2.500000    9.390568    2.390568
     11          7           0        2.500000    4.609432    2.390568
     12          1           0        2.500000    5.768929    7.502550
     13          1           0        2.500000    8.231071    7.502550
     14          1           0        2.500000    4.491973    5.356475
     15          1           0        2.500000    9.508027    5.356475
     16          6           0        2.500000    0.445796   -0.701663
     17          6           0        2.500000    0.445796    0.701663
     18          6           0        2.500000    1.635074   -1.422571
     19          6           0        2.500000    2.825435   -0.703967
     20          6           0        2.500000    2.825435    0.703967
     21          6           0        2.500000    1.635074    1.422571
     22          6           0        2.500000    4.219980   -1.120422
     23          6           0        2.500000    4.219980    1.120422
     24          7           0        2.500000    5.010899   -0.000000
     25          7           0        2.500000    4.609432   -2.390568
     26          1           0        2.500000   -0.502550   -1.231071
     27          1           0        2.500000   -0.502550    1.231071
     28          1           0        2.500000    1.643525   -2.508027
     29          1           0        2.500000    1.643525    2.508027
     30          6           0        2.500000   13.554204    0.701663
     31          6           0        2.500000   13.554204   -0.701663
     32          6           0        2.500000   12.364926    1.422571
     33          6           0        2.500000   11.174565    0.703967
     34          6           0        2.500000   11.174565   -0.703967
     35          6           0        2.500000   12.364926   -1.422571
     36          6           0        2.500000    9.780020    1.120422
     37          6           0        2.500000    9.780020   -1.120422
     38          7           0        2.500000    8.989101   -0.000000
     39          7           0        2.500000    9.390568   -2.390568
     40          1           0        2.500000   14.502550    1.231071
     41          1           0        2.500000   14.502550   -1.231071
     42          1           0        2.500000   12.356475    2.508027
     43          1           0        2.500000   12.356475   -2.508027
     44          6           0        2.500000    7.701663   -6.554204
     45          6           0        2.500000    6.298337   -6.554204
     46          6           0        2.500000    8.422571   -5.364926
     47          6           0        2.500000    7.703967   -4.174565
     48          6           0        2.500000    6.296033   -4.174565
     49          6           0        2.500000    5.577429   -5.364926
     50          6           0        2.500000    8.120422   -2.780020
     51          6           0        2.500000    5.879578   -2.780020
     52          7           0        2.500000    7.000000   -1.989101
     53          1           0        2.500000    8.231071   -7.502550
     54          1           0        2.500000    5.768929   -7.502550
     55          1           0        2.500000    9.508027   -5.356475
     56          1           0        2.500000    4.491973   -5.356475
     57         30           0        2.500000    7.000000   -0.000000
     58          6           0       -2.500000   -7.701663    6.554204
     59          6           0       -2.500000   -6.298337    6.554204
     60          6           0       -2.500000   -8.422571    5.364926
     61          6           0       -2.500000   -7.703967    4.174565
     62          6           0       -2.500000   -6.296033    4.174565
     63          6           0       -2.500000   -5.577429    5.364926
     64          6           0       -2.500000   -8.120422    2.780020
     65          6           0       -2.500000   -5.879578    2.780020
     66          7           0       -2.500000   -7.000000    1.989101
     67          7           0       -2.500000   -4.609432    2.390568
     68          7           0       -2.500000   -9.390568    2.390568
     69          1           0       -2.500000   -8.231071    7.502550
     70          1           0       -2.500000   -5.768929    7.502550
     71          1           0       -2.500000   -9.508027    5.356475
     72          1           0       -2.500000   -4.491973    5.356475
     73          6           0       -2.500000  -13.554204   -0.701663
     74          6           0       -2.500000  -13.554204    0.701663
     75          6           0       -2.500000  -12.364926   -1.422571
     76          6           0       -2.500000  -11.174565   -0.703967
     77          6           0       -2.500000  -11.174565    0.703967
     78          6           0       -2.500000  -12.364926    1.422571
     79          6           0       -2.500000   -9.780020   -1.120422
     80          6           0       -2.500000   -9.780020    1.120422
     81          7           0       -2.500000   -8.989101    0.000000
     82          7           0       -2.500000   -9.390568   -2.390568
     83          1           0       -2.500000  -14.502550   -1.231071
     84          1           0       -2.500000  -14.502550    1.231071
     85          1           0       -2.500000  -12.356475   -2.508027
     86          1           0       -2.500000  -12.356475    2.508027
     87          6           0       -2.500000   -0.445796    0.701663
     88          6           0       -2.500000   -0.445796   -0.701663
     89          6           0       -2.500000   -1.635074    1.422571
     90          6           0       -2.500000   -2.825435    0.703967
     91          6           0       -2.500000   -2.825435   -0.703967
     92          6           0       -2.500000   -1.635074   -1.422571
     93          6           0       -2.500000   -4.219980    1.120422
     94          6           0       -2.500000   -4.219980   -1.120422
     95          7           0       -2.500000   -5.010899    0.000000
     96          7           0       -2.500000   -4.609432   -2.390568
     97          1           0       -2.500000    0.502550    1.231071
     98          1           0       -2.500000    0.502550   -1.231071
     99          1           0       -2.500000   -1.643525    2.508027
    100          1           0       -2.500000   -1.643525   -2.508027
    101          6           0       -2.500000   -6.298337   -6.554204
    102          6           0       -2.500000   -7.701663   -6.554204
    103          6           0       -2.500000   -5.577429   -5.364926
    104          6           0       -2.500000   -6.296033   -4.174565
    105          6           0       -2.500000   -7.703967   -4.174565
    106          6           0       -2.500000   -8.422571   -5.364926
    107          6           0       -2.500000   -5.879578   -2.780020
    108          6           0       -2.500000   -8.120422   -2.780020
    109          7           0       -2.500000   -7.000000   -1.989101
    110          1           0       -2.500000   -5.768929   -7.502550
    111          1           0       -2.500000   -8.231071   -7.502550
    112          1           0       -2.500000   -4.491973   -5.356475
    113          1           0       -2.500000   -9.508027   -5.356475
    114         30           0       -2.500000   -7.000000    0.000000
 ---------------------------------------------------------------------
 Rotational constants (GHZ):      0.0406741      0.0067403      0.0059319
 General basis read from cards:  (5D, 7F)
 There are   618 symmetry adapted cartesian basis functions of AG  symmetry.
 There are   573 symmetry adapted cartesian basis functions of BG  symmetry.
 There are   573 symmetry adapted cartesian basis functions of AU  symmetry.
 There are   618 symmetry adapted cartesian basis functions of BU  symmetry.
 There are   570 symmetry adapted basis functions of AG  symmetry.
 There are   534 symmetry adapted basis functions of BG  symmetry.
 There are   534 symmetry adapted basis functions of AU  symmetry.
 There are   570 symmetry adapted basis functions of BU  symmetry.
  2208 basis functions,  3746 primitive gaussians,  2382 cartesian basis functions
   294 alpha electrons      294 beta electrons
       nuclear repulsion energy     13280.9285078644 Hartrees.
 NAtoms=  114 NActive=  114 NUniq=   30 SFac= 4.00D+00 NAtFMM=   60 NAOKFM=T Big=F
 Integral buffers will be    131072 words long.
 Raffenetti 1 integral format.
 Two-electron integral symmetry is turned on.
 One-electron integrals computed using PRISM.
 NBasis=  2208 RedAO= T EigKep=  1.23D-06  NBF=   570   534   534   570
 NBsUse=  2208 1.00D-06 EigRej= -1.00D+00 NBFU=   570   534   534   570
 Initial guess from the checkpoint file:  "ZnPc2_50_140.chk"
 B after Tr=    -0.000000   -0.000000    0.000000
         Rot=    1.000000   -0.000000    0.000000    0.000000 Ang=   0.00 deg.
 Initial guess orbital symmetries:
       Occupied  (BU) (AG) (BU) (AG) (AG) (BU) (BG) (AU) (BU) (AG)
                 (AU) (BG) (BU) (AG) (AG) (BU) (BU) (AG) (BU) (AG)
                 (BG) (AU) (BU) (AG) (AU) (BG) (BG) (AU) (BU) (AG)
                 (AU) (BG) (AU) (BG) (BU) (AG) (BU) (AG) (BG) (AU)
                 (AG) (BU) (AU) (BG) (BU) (AG) (AU) (BG) (BU) (AG)
                 (AU) (BG) (BU) (AG) (BG) (AU) (AG) (BU) (BG) (AU)
                 (BU) (AG) (BG) (AU) (BU) (AG) (BU) (AG) (AU) (BG)
                 (BG) (AU) (BU) (AG) (BU) (AG) (BG) (AU) (BU) (AG)
                 (BG) (AU) (BU) (AG) (BU) (AG) (BG) (AU) (BG) (AU)
                 (BU) (AG) (BU) (AG) (BG) (AU) (BU) (AG) (AG) (BU)
                 (BG) (AU) (AG) (BU) (AG) (BU) (BG) (AU) (AU) (BG)
                 (AG) (BU) (AG) (BU) (AU) (BG) (AG) (BU) (AG) (BU)
                 (AG) (BU) (AU) (BG) (AG) (BU) (AG) (AU) (BU) (BG)
                 (AU) (BG) (AG) (BU) (AG) (BU) (AU) (BG) (AU) (BG)
                 (AG) (BU) (AU) (BG) (AG) (BU) (AG) (BU) (AU) (BG)
                 (AG) (BU) (AU) (BG) (AG) (BU) (AU) (BG) (AG) (BU)
                 (AU) (BG) (AU) (BG) (AG) (BU) (AU) (BG) (AG) (BU)
                 (AG) (BU) (AU) (BG) (AG) (BU) (AU) (BG) (AU) (BG)
                 (AG) (BU) (AG) (BU) (AG) (BU) (AG) (BU) (AU) (BG)
                 (AG) (BU) (AU) (BG) (BG) (AU) (AG) (BU) (AG) (BU)
                 (BG) (AU) (AG) (BU) (AU) (BG) (AG) (BU) (AU) (BG)
                 (AG) (BU) (AG) (BU) (AU) (BG) (AU) (BG) (AG) (BU)
                 (AU) (BG) (AU) (BG) (AG) (BU) (AG) (BU) (AG) (BU)
                 (AU) (BG) (AG) (AU) (BG) (BU) (AG) (BU) (AU) (BG)
                 (BU) (AG) (AU) (BG) (AG) (BU) (AU) (BG) (BG) (AU)
                 (BU) (AG) (BU) (AG) (BG) (AU) (BU) (AG) (BU) (AG)
                 (AG) (AU) (BG) (BU) (AG) (BU) (AU) (BG) (AG) (BU)
                 (AU) (BG) (AU) (BG) (AG) (BU) (AU) (BG) (AG) (BU)
                 (AU) (BG) (AU) (BG) (AG) (BU) (AG) (BU) (AG) (BU)
                 (AG) (BU) (AU) (BG)
       Virtual   (AG) (BU) (AU) (BG) (AU) (BG) (AG) (BU) (AG) (BU)
                 (AU) (BG) (AG) (BU) (AG) (BU) (AU) (BG) (AG) (BU)
                 (AU) (BG) (AG) (BU) (AG) (BU) (AU) (BG) (AG) (BU)
                 (AU) (BG) (AG) (BU) (AG) (BU) (AU) (BG) (AU) (BU)
                 (AG) (BG) (BU) (AG) (AU) (BG) (AU) (AG) (BU) (BG)
                 (BU) (AG) (AU) (BG) (BG) (AG) (AU) (BU) (BU) (AG)
                 (BG) (BU) (AG) (AU) (BG) (AU) (AG) (BG) (BU) (AU)
                 (AG) (BU) (AU) (BG) (AU) (BG) (AG) (BU) (AU) (BG)
                 (AG) (BU) (AU) (BG) (AG) (BU) (AG) (BU) (BG) (AU)
                 (AU) (BG) (AU) (BG) (AG) (AU) (BG) (BU) (AG) (BU)
                 (AU) (AG) (BU) (BG) (AU) (BG) (AG) (AU) (AG) (BU)
                 (BU) (BG) (AU) (BG) (BG) (AU) (AG) (BU) (AG) (BU)
                 (BU) (AG) (AG) (BU) (BG) (AU) (AU) (BG) (BU) (AG)
                 (AG) (BU) (AG) (BG) (AU) (BU) (AG) (AU) (BU) (BG)
                 (AG) (BU) (AU) (AG) (BG) (BU) (BG) (AG) (BU) (AU)
                 (AU) (AG) (BU) (BG) (BG) (BU) (AG) (AU) (AG) (BG)
                 (AU) (BG) (BU) (AU) (AG) (AU) (BG) (BU) (BU) (AG)
                 (AG) (BU) (AU) (BG) (AG) (BU) (AG) (AU) (BG) (BU)
                 (AG) (BG) (AU) (BU) (AG) (BG) (BU) (AU) (BG) (AU)
                 (AG) (BU) (AG) (BU) (AG) (BU) (AU) (AG) (BG) (AU)
                 (BU) (BG) (AG) (AU) (BG) (BU) (AG) (AU) (BG) (AU)
                 (AG) (BU) (BG) (BU) (AG) (BU) (AU) (BG) (AU) (AG)
                 (BU) (BG) (AG) (BU) (AU) (BG) (AG) (AU) (BG) (BU)
                 (AG) (AU) (BG) (BU) (AG) (AU) (BU) (BG) (AU) (BG)
                 (AU) (BU) (AG) (BG) (AU) (BG) (AG) (AU) (BU) (BG)
                 (AU) (AG) (BG) (BU) (AG) (BU) (AU) (BG) (AU) (AG)
                 (BU) (BG) (AU) (AG) (BU) (BG) (AU) (BG) (AG) (BU)
                 (AU) (BG) (AU) (BU) (AG) (BG) (BU) (AG) (BU) (AG)
                 (BG) (BU) (AG) (AU) (BG) (AG) (AU) (BU) (BG) (AU)
                 (AG) (BU) (AU) (BG) (AG) (BU) (AU) (BG) (AG) (BU)
                 (AG) (BU) (AU) (AG) (BG) (BU) (AU) (AG) (BG) (BU)
                 (AG) (BU) (AU) (BG) (AG) (BU) (AU) (BG) (AU) (BG)
                 (AU) (BG) (AU) (AU) (BU) (AG) (BU) (BG) (AG) (BG)
                 (AU) (BG) (AU) (AG) (BU) (BG) (BU) (AG) (AU) (AG)
                 (BG) (AU) (BU) (BG) (AU) (AG) (BU) (BG) (AU) (AG)
                 (BU) (BG) (BU) (AU) (AG) (BG) (AU) (BG) (AU) (AG)
                 (BU) (BG) (AG) (BU) (AU) (BG) (AG) (BU) (AU) (BG)
                 (AU) (BG) (AG) (BU) (AU) (AG) (BU) (BG) (AU) (BG)
                 (AU) (AG) (BU) (BG) (BU) (AG) (BU) (AG) (AG) (BU)
                 (AU) (BG) (AU) (BG) (AG) (BU) (AU) (BG) (AG) (BU)
                 (BG) (AU) (BG) (AU) (BU) (AG) (BG) (AU) (BG) (AU)
                 (AU) (BG) (AU) (BG) (AG) (BU) (AG) (BG) (AU) (BU)
                 (AG) (BU) (AG) (BU) (AG) (BG) (AU) (BU) (AG) (BU)
                 (AG) (BU) (BU) (BG) (AU) (AG) (AU) (BG) (AG) (BU)
                 (AG) (BG) (AU) (BU) (BG) (AU) (AG) (BU) (BG) (AU)
                 (BG) (AG) (BU) (AU) (BG) (AU) (AG) (BU) (AG) (BU)
                 (BG) (AU) (AG) (BG) (AU) (BU) (AG) (BU) (AG) (BU)
                 (AU) (BG) (AG) (BU) (BG) (BU) (AG) (AU) (AG) (BU)
                 (AG) (BU) (AG) (BU) (AU) (BG) (AG) (BU) (AG) (BG)
                 (AU) (BU) (BU) (AG) (BG) (AU) (AG) (BU) (AU) (BG)
                 (AG) (BU) (AU) (BG) (AU) (BG) (AG) (BU) (BG) (AU)
                 (AG) (BU) (AG) (AU) (BG) (AG) (BU) (BU) (AG) (AU)
                 (BG) (BU) (AG) (BU) (AU) (BG) (AG) (BU) (AU) (BG)
                 (AG) (BU) (AU) (BG) (AU) (BG) (BG) (AU) (BU) (AG)
                 (AU) (AG) (BU) (AU) (BG) (BU) (AG) (BG) (AU) (BG)
                 (AG) (BU) (AG) (BU) (AU) (BG) (AU) (BG) (BG) (AG)
                 (BU) (AU) (AG) (BU) (BG) (AU) (BG) (AG) (BU) (AU)
                 (AG) (BU) (AU) (AG) (BU) (BG) (BG) (AU) (AG) (BU)
                 (BG) (AU) (AU) (AG) (BG) (BU) (BG) (AU) (AG) (BU)
                 (AG) (BU) (AG) (BU) (AU) (AG) (BU) (BG) (AU) (BU)
                 (AG) (BG) (AU) (AG) (BU) (BG) (AU) (BG) (BU) (AG)
                 (AU) (AG) (BU) (BG) (AG) (BU) (BG) (AU) (AU) (BG)
                 (AG) (AU) (BU) (BG) (AU) (AG) (BG) (BU) (AG) (BU)
                 (AG) (BU) (BU) (AG) (AG) (BU) (AU) (AG) (BG) (BU)
                 (AG) (AU) (BG) (BU) (AG) (BU) (AU) (BG) (BG) (AU)
                 (AU) (BG) (AU) (AG) (BU) (BG) (AU) (BG) (AG) (BU)
                 (AU) (BG) (AG) (BU) (BG) (AU) (BU) (AG) (BU) (AG)
                 (AU) (BG) (AU) (AG) (BG) (BU) (AU) (BG) (AG) (BU)
                 (BU) (AG) (AU) (AG) (BU) (BG) (AU) (BG) (BG) (AU)
                 (AG) (BU) (BG) (AU) (AG) (BU) (AG) (BU) (AU) (BG)
                 (AG) (BU) (BG) (AU) (AG) (BU) (AG) (BU) (AG) (AU)
                 (BG) (BU) (AU) (BG) (AG) (BU) (AU) (BG) (AG) (BU)
                 (BU) (AG) (AU) (BG) (AU) (BG) (BU) (AG) (AG) (BU)
                 (AU) (BG) (AG) (BU) (AU) (BG) (AG) (BU) (AG) (BU)
                 (AG) (AU) (BG) (BU) (AG) (AU) (BU) (BG) (AU) (BG)
                 (AG) (BU) (AG) (AU) (BG) (BG) (AU) (BU) (AU) (BG)
                 (AG) (BU) (AG) (BU) (AG) (AU) (BU) (BG) (AU) (BG)
                 (AG) (AU) (BG) (BU) (AG) (BU) (AG) (BG) (AU) (BU)
                 (AU) (BG) (AU) (BG) (AU) (AG) (BU) (BG) (BG) (AU)
                 (AG) (BU) (AU) (BG) (AG) (BU) (AU) (BG) (AU) (BG)
                 (AU) (BG) (AU) (AG) (BG) (BU) (BU) (AG) (AG) (BU)
                 (AU) (BG) (AG) (BU) (AU) (BG) (AG) (BU) (AG) (BU)
                 (AU) (BG) (AG) (BU) (AU) (BG) (BG) (AU) (AG) (BU)
                 (AG) (BU) (AU) (BG) (AG) (BU) (BG) (AU) (BG) (AU)
                 (BU) (AG) (AG) (BU) (AU) (BG) (AG) (BU) (AG) (BU)
                 (AG) (BU) (AG) (AU) (BG) (BU) (BG) (AU) (AU) (BG)
                 (AG) (BU) (AU) (BG) (AU) (BG) (AU) (BG) (AU) (AG)
                 (BU) (BG) (AG) (BU) (AU) (BG) (AU) (BG) (AG) (BU)
                 (AG) (AU) (BG) (BU) (AG) (AU) (BG) (BU) (AG) (BU)
                 (AG) (BU) (AU) (BG) (AG) (BU) (AU) (BG) (AU) (AG)
                 (BU) (BG) (AU) (BG) (AU) (BG) (BG) (AU) (AU) (BG)
                 (AU) (BU) (AG) (BG) (BU) (AG) (AG) (BU) (AU) (BG)
                 (AU) (BG) (BU) (AG) (AU) (BG) (BU) (AG) (BU) (AG)
                 (AG) (BU) (AU) (AG) (BG) (BU) (AG) (BU) (AU) (AG)
                 (BU) (BG) (AU) (BG) (AU) (BG) (AG) (BU) (BG) (AG)
                 (AU) (BU) (AG) (BU) (AU) (BG) (AG) (BU) (AU) (BG)
                 (AG) (BU) (AU) (AG) (BU) (BG) (AU) (BG) (AU) (BG)
                 (AG) (BU) (BG) (AU) (AG) (BU) (BG) (AU) (AU) (BG)
                 (AG) (AU) (BU) (BG) (AU) (BG) (AG) (BU) (AU) (BG)
                 (BU) (AG) (AU) (BG) (BU) (AG) (BU) (BG) (AU) (AG)
                 (BU) (AG) (AU) (BG) (AG) (BU) (BG) (AU) (AU) (BG)
                 (BU) (AG) (AU) (BG) (BU) (AG) (AG) (BU) (BG) (AU)
                 (AU) (BG) (AG) (BU) (BG) (AU) (BG) (AU) (AG) (BU)
                 (BG) (AU) (BG) (AU) (AG) (BU) (BG) (AU) (AG) (BU)
                 (BG) (AU) (AG) (BU) (AG) (AU) (BG) (BU) (AG) (AG)
                 (AG) (AG) (AG) (AG) (AG) (AG) (AG) (AG) (AG) (AG)
                 (AG) (AG) (AG) (AG) (AG) (AG) (AG) (AG) (AG) (AG)
                 (AG) (AG) (AG) (AG) (AG) (AG) (AG) (AG) (AG) (AG)
                 (AG) (AG) (AG) (AG) (AG) (AG) (AG) (AG) (AG) (AG)
                 (AG) (AG) (AG) (AG) (AG) (AG) (AG) (AG) (AG) (AG)
                 (AG) (AG) (AG) (AG) (AG) (AG) (AG) (AG) (AG) (AG)
                 (AG) (AG) (AG) (AG) (AG) (AG) (AG) (AG) (AG) (AG)
                 (AG) (AG) (AG) (AG) (AG) (AG) (AG) (AG) (AG) (AG)
                 (AG) (AG) (AG) (AG) (AG) (AG) (AG) (AG) (AG) (AG)
                 (AG) (AG) (AG) (AG) (AG) (AG) (AG) (AG) (AG) (AG)
                 (AG) (AG) (AG) (AG) (AG) (AG) (AG) (AG) (AG) (AG)
                 (AG) (AG) (AG) (AG) (AG) (AG) (AG) (AG) (AG) (AG)
                 (AG) (AG) (AG) (AG) (AG) (AG) (AG) (AG) (AG) (AG)
                 (AG) (AG) (AG) (AG) (AG) (AG) (AG) (AG) (AG) (AG)
                 (AG) (AG) (AG) (AG) (AG) (AG) (AG) (AG) (AG) (AG)
                 (AG) (AG) (AG) (AG) (AG) (AG) (AG) (AG) (AG) (AG)
                 (AG) (AG) (AG) (AG) (AG) (AG) (AG) (AG) (AG) (AG)
                 (AG) (AG) (AG) (AG) (AG) (AG) (AG) (AG) (AG) (AG)
                 (AG) (AG) (AG) (AG) (AG) (AG) (AG) (AG) (AG) (AG)
                 (AG) (AG) (AG) (AG) (AG) (AG) (AG) (AG) (AG) (AG)
                 (AG) (AG) (AG) (AG) (AG) (AG) (AG) (AG) (AG) (AG)
                 (AG) (AG) (AG) (AG) (AG) (AG) (AG) (AG) (AG) (AG)
                 (AG) (BG) (BG) (BG) (BG) (BG) (BG) (BG) (BG) (BG)
                 (BG) (BG) (BG) (BG) (BG) (BG) (BG) (BG) (BG) (BG)
                 (BG) (BG) (BG) (BG) (BG) (BG) (BG) (BG) (BG) (BG)
                 (BG) (BG) (BG) (BG) (BG) (BG) (BG) (BG) (BG) (BG)
                 (BG) (BG) (BG) (BG) (BG) (BG) (BG) (BG) (BG) (BG)
                 (BG) (BG) (BG) (BG) (BG) (BG) (BG) (BG) (BG) (BG)
                 (BG) (BG) (BG) (BG) (BG) (BG) (BG) (BG) (BG) (BG)
                 (BG) (BG) (BG) (BG) (BG) (BG) (BG) (BG) (BG) (BG)
                 (BG) (BG) (BG) (BG) (BG) (BG) (BG) (BG) (BG) (BG)
                 (BG) (BG) (BG) (BG) (BG) (BG) (BG) (BG) (BG) (BG)
                 (BG) (BG) (BG) (BG) (BG) (BG) (BG) (BG) (BG) (BG)
                 (BG) (BG) (BG) (BG) (BG) (BG) (BG) (BG) (BG) (BG)
                 (BG) (BG) (BG) (BG) (BG) (BG) (BG) (BG) (BG) (BG)
                 (BG) (BG) (BG) (BG) (BG) (BG) (BG) (BG) (BG) (BG)
                 (BG) (BG) (BG) (BG) (BG) (BG) (BG) (BG) (BG) (BG)
                 (BG) (BG) (BG) (BG) (BG) (BG) (BG) (BG) (BG) (BG)
                 (BG) (BG) (BG) (BG) (BG) (BG) (BG) (BG) (BG) (BG)
                 (BG) (BG) (BG) (BG) (BG) (BG) (BG) (BG) (BG) (BG)
                 (BG) (BG) (BG) (BG) (BG) (BG) (BG) (BG) (BG) (BG)
                 (BG) (BG) (BG) (BG) (BG) (BG) (BG) (BG) (BG) (BG)
                 (BG) (BG) (BG) (BG) (BG) (BG) (BG) (BG) (BG) (BG)
                 (BG) (AU) (AU) (AU) (AU) (AU) (AU) (AU) (AU) (AU)
                 (AU) (AU) (AU) (AU) (AU) (AU) (AU) (AU) (AU) (AU)
                 (AU) (AU) (AU) (AU) (AU) (AU) (AU) (AU) (AU) (AU)
                 (AU) (AU) (AU) (AU) (AU) (AU) (AU) (AU) (AU) (AU)
                 (AU) (AU) (AU) (AU) (AU) (AU) (AU) (AU) (AU) (AU)
                 (AU) (AU) (AU) (AU) (AU) (AU) (AU) (AU) (AU) (AU)
                 (AU) (AU) (AU) (AU) (AU) (AU) (AU) (AU) (AU) (AU)
                 (AU) (AU) (AU) (AU) (AU) (AU) (AU) (AU) (AU) (AU)
                 (AU) (AU) (AU) (AU) (AU) (AU) (AU) (AU) (AU) (AU)
                 (AU) (AU) (AU) (AU) (AU) (AU) (AU) (AU) (AU) (AU)
                 (AU) (AU) (AU) (AU) (AU) (AU) (AU) (AU) (AU) (AU)
                 (AU) (AU) (AU) (AU) (AU) (AU) (AU) (AU) (AU) (AU)
                 (AU) (AU) (AU) (AU) (AU) (AU) (AU) (AU) (AU) (AU)
                 (AU) (AU) (AU) (AU) (AU) (AU) (AU) (AU) (AU) (AU)
                 (AU) (AU) (AU) (AU) (AU) (AU) (AU) (AU) (AU) (AU)
                 (AU) (AU) (AU) (AU) (AU) (AU) (AU) (AU) (AU) (AU)
                 (AU) (AU) (AU) (AU) (AU) (AU) (AU) (AU) (AU) (AU)
                 (AU) (AU) (AU) (AU) (AU) (AU) (AU) (AU) (AU) (AU)
                 (AU) (AU) (AU) (AU) (AU) (AU) (AU) (AU) (AU) (AU)
                 (AU) (AU) (AU) (AU) (AU) (AU) (AU) (AU) (AU) (AU)
                 (AU) (AU) (AU) (AU) (AU) (AU) (AU) (AU) (AU) (AU)
                 (AU) (BU) (BU) (BU) (BU) (BU) (BU) (BU) (BU) (BU)
                 (BU) (BU) (BU) (BU) (BU) (BU) (BU) (BU) (BU) (BU)
                 (BU) (BU) (BU) (BU) (BU) (BU) (BU) (BU) (BU) (BU)
                 (BU) (BU) (BU) (BU) (BU) (BU) (BU) (BU) (BU) (BU)
                 (BU) (BU) (BU) (BU) (BU) (BU) (BU) (BU) (BU) (BU)
                 (BU) (BU) (BU) (BU) (BU) (BU) (BU) (BU) (BU) (BU)
                 (BU) (BU) (BU) (BU) (BU) (BU) (BU) (BU) (BU) (BU)
                 (BU) (BU) (BU) (BU) (BU) (BU) (BU) (BU) (BU) (BU)
                 (BU) (BU) (BU) (BU) (BU) (BU) (BU) (BU) (BU) (BU)
                 (BU) (BU) (BU) (BU) (BU) (BU) (BU) (BU) (BU) (BU)
                 (BU) (BU) (BU) (BU) (BU) (BU) (BU) (BU) (BU) (BU)
                 (BU) (BU) (BU) (BU) (BU) (BU) (BU) (BU) (BU) (BU)
                 (BU) (BU) (BU) (BU) (BU) (BU) (BU) (BU) (BU) (BU)
                 (BU) (BU) (BU) (BU) (BU) (BU) (BU) (BU) (BU) (BU)
                 (BU) (BU) (BU) (BU) (BU) (BU) (BU) (BU) (BU) (BU)
                 (BU) (BU) (BU) (BU) (BU) (BU) (BU) (BU) (BU) (BU)
                 (BU) (BU) (BU) (BU) (BU) (BU) (BU) (BU) (BU) (BU)
                 (BU) (BU) (BU) (BU) (BU) (BU) (BU) (BU) (BU) (BU)
                 (BU) (BU) (BU) (BU) (BU) (BU) (BU) (BU) (BU) (BU)
                 (BU) (BU) (BU) (BU) (BU) (BU) (BU) (BU) (BU) (BU)
                 (BU) (BU) (BU) (BU) (BU) (BU) (BU) (BU) (BU) (BU)
                 (BU) (BU) (BU) (BU) (BU) (BU) (BU) (BU) (BU) (BU)
                 (BU) (BU) (BU) (BU)
 Requested convergence on RMS density matrix=1.00D-08 within 128 cycles.
 Requested convergence on MAX density matrix=1.00D-06.
 Requested convergence on             energy=1.00D-06.
 No special actions if energy rises.
 SCF Done:  E(RLC-B+HF-LYP) =  -6885.16798448     A.U. after   14 cycles
            NFock= 14  Conv=0.92D-08     -V/T= 2.0025
 ExpMin= 4.78D-02 ExpMax= 4.06D+05 ExpMxC= 3.92D+03 IAcc=3 IRadAn=         5 AccDes= 0.00D+00
 HarFok:  IExCor=  205 AccDes= 0.00D+00 IRadAn=         5 IDoV=-2 UseB2=F ITyADJ=14
 ICtDFT= 12500011 ScaDFX=  1.000000  1.000000  1.000000  1.000000
 Range of M.O.s used for correlation:    99  2208
 NBasis=  2208 NAE=   294 NBE=   294 NFC=    98 NFV=     0
 NROrb=   2110 NOA=   196 NOB=   196 NVA=  1914 NVB=  1914

 **** Warning!!: The largest alpha MO coefficient is  0.46478796D+02

 Would need an additional       7426252400000 words for in-memory AO integral storage.
 Orbital symmetries:
       Occupied  (BU) (AG) (BU) (AG) (AG) (BU) (BG) (AU) (AG) (BU)
                 (AG) (BU) (AU) (BG) (BU) (AG) (BU) (AG) (BG) (AU)
                 (BU) (AG) (BG) (AU) (BU) (AG) (BG) (AU) (AG) (BU)
                 (BG) (AU) (BU) (AG) (BG) (AU) (BU) (AG) (BG) (AU)
                 (BU) (AG) (BG) (AU) (BU) (AG) (BU) (AG) (BG) (AU)
                 (BU) (AG) (AU) (BG) (AG) (BU) (BG) (AU) (AU) (BG)
                 (BU) (AG) (AU) (BG) (BU) (AG) (BG) (AU) (BU) (AG)
                 (AU) (BG) (BU) (AG) (BG) (AU) (BU) (AG) (BU) (AG)
                 (AU) (BG) (AG) (BU) (AU) (BG) (BU) (AG) (BG) (AU)
                 (BU) (AG) (AG) (BU) (BG) (AU) (AG) (BU) (AG) (BU)
                 (BG) (AU) (AG) (BU) (AG) (BU) (AU) (BG) (AU) (BG)
                 (AG) (BU) (AG) (BU) (AU) (BG) (AG) (BU) (AG) (BU)
                 (AG) (BU) (AU) (BG) (AG) (BU) (AU) (AG) (BG) (BU)
                 (AU) (BG) (AG) (BU) (AG) (BU) (AU) (BG) (AU) (BG)
                 (AG) (BU) (AU) (BG) (AG) (BU) (AG) (BU) (AU) (BG)
                 (AG) (BU) (AU) (BG) (AG) (BU) (AG) (BU) (AU) (BG)
                 (AU) (BG) (AU) (BG) (AG) (BU) (AU) (BG) (AG) (BU)
                 (AG) (BU) (AU) (BG) (AG) (BU) (AU) (BG) (AU) (BG)
                 (AG) (BU) (AG) (BU) (AG) (BU) (AU) (BG) (AG) (BU)
                 (AG) (BU) (AU) (BG) (AU) (BG) (AG) (BU) (AG) (BU)
                 (BG) (AU) (AG) (BU) (BG) (AU) (AU) (BG) (AG) (BU)
                 (AG) (BU) (AG) (BU) (AU) (BG) (AU) (BG) (AG) (BU)
                 (AU) (BG) (AU) (BG) (AG) (BU) (AG) (BU) (BU) (AG)
                 (AU) (BG) (AU) (BG) (AG) (BU) (AG) (BU) (AU) (BG)
                 (BU) (AG) (AU) (BG) (AG) (BU) (AU) (BG) (AU) (BG)
                 (BU) (AG) (BU) (AG) (AU) (BG) (BU) (AG) (BU) (AG)
                 (AG) (AU) (BG) (BU) (AG) (BU) (AU) (BG) (AG) (BU)
                 (AU) (BG) (AU) (BG) (AG) (BU) (AU) (BG) (AG) (BU)
                 (AU) (BG) (BU) (AG) (AU) (BG) (AG) (BU) (AG) (BU)
                 (AG) (BU) (AU) (BG)
       Virtual   (AG) (BU) (AU) (BG) (AU) (BG) (BU) (AG) (BU) (AG)
                 (AU) (BG) (BU) (AG) (AG) (BU) (AG) (BU) (AU) (BG)
                 (AU) (BU) (AG) (BG) (AG) (AU) (BG) (BU) (AG) (BU)
                 (BU) (BG) (AG) (AU) (AU) (AG) (BU) (BG) (BU) (AG)
                 (AU) (BG) (AG) (AU) (BG) (BU) (BU) (AG) (AU) (BG)
                 (BG) (AG) (AU) (BU) (BG) (AU) (AG) (BU) (AG) (BU)
                 (BU) (AG) (AG) (BG) (AU) (BU) (AG) (AU) (BG) (BG)
                 (BU) (AU) (BU) (AG) (AG) (BG) (AU) (BU) (BG) (AG)
                 (AU) (BU) (AG) (AU) (BG) (AU) (BU) (AG) (BU) (AG)
                 (BG) (BU) (AG) (BU) (BG) (AU) (AU) (BG) (AU) (AG)
                 (BG) (BG) (AU) (AG) (BG) (BU) (BU) (AG) (AU) (BU)
                 (AG) (BU) (AG) (BG) (AU) (BU) (BG) (AG) (AU) (BU)
                 (AU) (AG) (BU) (BG) (AU) (AG) (AG) (BU) (BG) (AU)
                 (BU) (AG) (BG) (BG) (AU) (AU) (BG) (AU) (AG) (BU)
                 (BG) (AU) (BU) (AG) (BG) (AU) (AG) (BU) (BG) (BU)
                 (AG) (AU) (BU) (BU) (AG) (BG) (AU) (BG) (AU) (AG)
                 (AG) (BU) (BG) (AG) (BU) (AU) (AG) (BU) (BG) (BU)
                 (AG) (AU) (BU) (AG) (BU) (BG) (AU) (AG) (BU) (BG)
                 (AU) (BG) (AG) (AG) (BU) (AG) (AU) (BG) (BU) (BU)
                 (AU) (AG) (BU) (BG) (AU) (BG) (AU) (AG) (BG) (BU)
                 (AG) (BU) (AU) (AG) (BG) (AU) (BU) (AG) (BU) (BG)
                 (BU) (AG) (AU) (AG) (BG) (BU) (AG) (AG) (BU) (AU)
                 (BG) (AU) (BU) (AG) (BG) (BU) (AU) (BU) (AU) (AG)
                 (BG) (AG) (BU) (BG) (AU) (AG) (BU) (AG) (BU) (BG)
                 (AU) (BU) (AG) (AG) (BG) (BU) (AU) (AU) (BG) (BU)
                 (AG) (BG) (AG) (AU) (BU) (BG) (AU) (BG) (AU) (AG)
                 (BU) (BG) (BU) (AU) (BG) (AG) (BU) (AU) (BG) (AG)
                 (AU) (BG) (BU) (AG) (BU) (BG) (AG) (BU) (AG) (AU)
                 (AG) (AU) (BU) (BG) (BU) (BG) (AU) (AG) (AU) (BG)
                 (BG) (AU) (AG) (BU) (BU) (BG) (AU) (AG) (BG) (BG)
                 (AU) (AG) (AU) (BU) (AU) (BG) (AU) (AG) (BU) (BG)
                 (AU) (BG) (BU) (AU) (BG) (AG) (AU) (AG) (BU) (BU)
                 (AG) (BG) (AU) (BG) (BU) (AG) (BU) (BG) (AU) (AG)
                 (BG) (AG) (AU) (BU) (BU) (AG) (AU) (BG) (BG) (AU)
                 (AU) (BG) (AG) (BU) (AU) (BG) (AG) (BU) (AG) (AU)
                 (BU) (BG) (AG) (BU) (AU) (BG) (AU) (BU) (AG) (BG)
                 (AG) (BU) (BU) (AG) (AU) (BG) (AG) (BU) (AU) (BG)
                 (AG) (BU) (BG) (AG) (BU) (AU) (BU) (AG) (AG) (BG)
                 (BU) (AU) (AG) (BU) (AU) (BG) (AG) (BG) (AU) (BU)
                 (AU) (AG) (BG) (BU) (AU) (AU) (BG) (BG) (AG) (BG)
                 (AU) (BU) (AU) (BG) (AG) (AG) (BU) (AU) (BU) (AG)
                 (BG) (BU) (BG) (AU) (AG) (BG) (AU) (BU) (AG) (BU)
                 (BU) (AG) (AU) (BG) (BG) (AG) (AU) (BU) (AG) (BU)
                 (BG) (AG) (BU) (AU) (BG) (AU) (AG) (BU) (BG) (AU)
                 (BU) (AG) (BU) (AG) (BG) (AU) (AG) (BU) (AG) (BU)
                 (AU) (AG) (BG) (BU) (BG) (AU) (AG) (BG) (AU) (AU)
                 (BG) (BU) (BG) (BU) (AG) (AG) (BU) (BG) (AU) (AU)
                 (BU) (AG) (AU) (BG) (BU) (AG) (AG) (AU) (BU) (BG)
                 (AU) (BG) (BU) (AU) (AG) (BG) (BG) (AU) (AG) (AU)
                 (BU) (BG) (AG) (BU) (BG) (BU) (AG) (AU) (AG) (BG)
                 (BU) (AG) (BU) (AU) (AG) (AU) (BG) (BU) (AG) (BU)
                 (AG) (BU) (AG) (BG) (AU) (BG) (AU) (BG) (AU) (BU)
                 (AG) (BG) (BU) (AU) (AG) (BU) (AU) (BG) (BU) (BG)
                 (AG) (AU) (AG) (BU) (AG) (BU) (AG) (AU) (BU) (BG)
                 (AG) (AU) (BG) (BU) (AG) (BG) (AG) (BU) (AU) (AU)
                 (BU) (AG) (BG) (AU) (BG) (BU) (AU) (BG) (AU) (BG)
                 (AG) (BU) (AG) (BU) (AU) (AG) (BG) (AU) (BU) (AG)
                 (BG) (AU) (BU) (BG) (AU) (BG) (AU) (AG) (BU) (BG)
                 (AU) (AG) (BU) (BG) (AG) (BU) (AG) (BU) (AG) (AG)
                 (BU) (AU) (AG) (BU) (BG) (AU) (BU) (AU) (BG) (AG)
                 (BU) (BG) (AU) (AG) (BG) (AU) (BU) (BG) (AU) (BG)
                 (AG) (BU) (BU) (AG) (AG) (AU) (BG) (BU) (AG) (BU)
                 (AU) (AG) (BU) (BG) (AU) (BG) (AG) (AG) (BU) (BU)
                 (AU) (BG) (BG) (AU) (AG) (AU) (BG) (BU) (AG) (BU)
                 (AU) (BG) (AU) (BG) (AG) (BU) (AG) (AU) (BU) (AG)
                 (BG) (AU) (BG) (BU) (AG) (AU) (BG) (BU) (AU) (BG)
                 (AU) (AG) (BG) (BU) (AU) (BG) (BU) (AG) (AU) (BG)
                 (AU) (AG) (BG) (BU) (AU) (AG) (BU) (BG) (AU) (AG)
                 (BU) (BG) (AG) (BG) (AU) (BU) (AG) (BU) (AG) (AU)
                 (BG) (BU) (AU) (AG) (BG) (BU) (AG) (BU) (AU) (BG)
                 (AG) (AU) (BU) (BG) (BU) (AU) (AG) (BG) (BU) (AG)
                 (AU) (AG) (BG) (BU) (BU) (AG) (AU) (BG) (AU) (AG)
                 (BU) (BG) (AG) (AU) (BG) (BU) (AU) (BG) (BU) (AG)
                 (AU) (BG) (BU) (AU) (AG) (BG) (AG) (AU) (BU) (BG)
                 (BU) (AG) (AG) (AU) (BG) (BU) (AG) (BU) (BU) (BG)
                 (AG) (AU) (AG) (BU) (BG) (AU) (BG) (AU) (AU) (BG)
                 (AG) (AU) (BU) (BG) (AG) (BU) (AG) (AU) (BG) (BG)
                 (AU) (BU) (BU) (AG) (AU) (AG) (AG) (BU) (BG) (AG)
                 (BU) (AU) (BG) (BU) (AG) (BU) (AG) (BU) (BG) (AU)
                 (BG) (AU) (AG) (AU) (AU) (BU) (BG) (BG) (AG) (AU)
                 (BG) (AU) (BU) (BG) (AG) (BU) (AG) (BU) (AG) (AG)
                 (AU) (BG) (BG) (AU) (BU) (AU) (BU) (BG) (AG) (AG)
                 (BU) (AG) (BU) (BU) (AU) (AG) (BG) (AG) (AU) (BU)
                 (BG) (BG) (AG) (AU) (BG) (AU) (BU) (AU) (BU) (AG)
                 (BG) (AU) (AG) (BU) (BU) (BG) (AG) (AU) (BU) (BG)
                 (AU) (BG) (AG) (AU) (BU) (AU) (AG) (BG) (BG) (BU)
                 (AU) (BG) (AG) (BU) (AG) (BU) (AG) (BU) (AU) (AG)
                 (BU) (BG) (AU) (AG) (BG) (BU) (AU) (AG) (BG) (AU)
                 (BU) (BG) (AU) (BG) (AU) (AG) (BU) (AG) (BG) (AU)
                 (AU) (BU) (BG) (AG) (BG) (BU) (AU) (AG) (BG) (AU)
                 (AG) (BU) (AU) (BG) (AU) (AG) (BU) (BU) (BG) (AG)
                 (BU) (BU) (AG) (BG) (AU) (BG) (AU) (BU) (AG) (BU)
                 (AG) (BG) (AU) (BU) (BG) (AG) (BG) (AG) (BU) (AU)
                 (AG) (AU) (BU) (BG) (AG) (BU) (AG) (BU) (BG) (AU)
                 (BU) (AG) (BG) (BU) (AU) (AG) (AG) (BU) (BG) (AU)
                 (AU) (BG) (AU) (BG) (AU) (BG) (BG) (AU) (AG) (BU)
                 (AG) (BU) (AU) (BG) (BU) (AU) (AG) (BG) (AU) (BG)
                 (BU) (AG) (BU) (BG) (AU) (BG) (AU) (AG) (BU) (AU)
                 (BG) (AG) (BU) (AU) (BG) (AG) (BG) (AU) (BU) (AU)
                 (AG) (BG) (BU) (AG) (BG) (AU) (BU) (AG) (BG) (AU)
                 (BG) (BU) (AG) (AU) (BG) (BU) (AU) (AG) (BG) (AG)
                 (BU) (AU) (BU) (AG) (AU) (AG) (BU) (BG) (AU) (AG)
                 (BG) (BU) (AU) (BG) (AG) (BU) (AG) (BU) (AU) (BG)
                 (AG) (BU) (AG) (BU) (AU) (BG) (BU) (AU) (AG) (BG)
                 (AU) (BG) (BG) (AU) (AU) (BG) (AG) (BU) (AU) (BG)
                 (AU) (BG) (AU) (BU) (AG) (BG) (BU) (AG) (AG) (BU)
                 (AU) (BG) (BU) (AG) (BU) (AG) (AU) (AG) (BU) (BU)
                 (AG) (BG) (AU) (BG) (BU) (AG) (AU) (BG) (AU) (BG)
                 (AG) (BU) (AG) (AU) (BG) (BU) (BU) (AG) (BG) (AU)
                 (BG) (AU) (AG) (AU) (BG) (BU) (AU) (BG) (BG) (AU)
                 (AG) (BU) (BG) (AG) (BU) (AU) (BG) (AU) (AG) (BU)
                 (AG) (BG) (AU) (BU) (AG) (BU) (AG) (AU) (BG) (BU)
                 (AG) (BU) (AG) (BU) (BG) (AU) (BG) (AU) (BG) (AU)
                 (BU) (AG) (AG) (BU) (AG) (BU) (AG) (BU) (AU) (BG)
                 (BU) (AG) (BU) (AG) (AG) (BG) (AU) (BU) (AU) (BG)
                 (BU) (AG) (AG) (BU) (AG) (BG) (BU) (AU) (BG) (AU)
                 (BG) (AU) (AG) (BU) (BG) (AU) (BU) (AG) (AU) (BG)
                 (BU) (AG) (BG) (AU) (BG) (AU) (AG) (BU) (BG) (AU)
                 (AG) (BG) (BU) (AU) (AG) (BU) (BU) (AG) (BU) (AG)
                 (BG) (AU) (BG) (BU) (AU) (BG) (AG) (AU) (BU) (BG)
                 (AG) (BU) (AU) (AG) (BG) (AU) (BG) (AU) (BU) (AG)
                 (AU) (BG) (BU) (AG) (BU) (AG) (AG) (BU) (BU) (AU)
                 (BG) (AG) (AU) (BG) (AU) (BG) (BU) (BG) (AG) (AU)
                 (BG) (AU) (AG) (BU) (BU) (AG) (BG) (AU) (BU) (BG)
                 (AU) (AG) (AG) (BG) (AU) (BG) (BU) (AU) (BU) (BG)
                 (AU) (AG) (BU) (AG) (BU) (AG) (BG) (AU) (BU) (AG)
                 (AG) (BU) (BU) (AG) (AU) (BG) (BU) (BG) (AU) (AG)
                 (BG) (AU) (AG) (BU) (AG) (BU) (BG) (AU) (BG) (AU)
                 (AG) (BU) (BU) (AG) (BU) (AG) (AU) (BG) (BU) (AG)
                 (BG) (AU) (BU) (AG) (AU) (BG) (BU) (AG) (AU) (BU)
                 (BG) (AG) (AG) (BU) (BU) (AG) (BG) (AU) (AG) (BU)
                 (AU) (BG) (AG) (BG) (AU) (BU) (AG) (BG) (BU) (AU)
                 (AG) (BU) (AU) (BG) (AG) (BU) (BG) (AU) (AG) (BU)
                 (BU) (AG) (BG) (AU) (AG) (BU) (BG) (BU) (AU) (AG)
                 (AG) (AU) (BG) (BU) (AG) (BU) (BG) (AU) (BG) (AU)
                 (BU) (AG) (BG) (AU) (BG) (AU) (BU) (AG) (AG) (BU)
                 (BG) (AG) (AU) (BU) (BG) (AU) (AG) (BU) (AU) (BG)
                 (AG) (AU) (BU) (BG) (AU) (BG) (AU) (AG) (BG) (BU)
                 (AG) (BU) (AG) (BU) (AG) (AU) (BG) (AU) (BU) (BG)
                 (AG) (AU) (BG) (BU) (BG) (AU) (AG) (BU) (AU) (BG)
                 (AG) (BU) (AG) (AU) (BG) (BU) (AU) (BG) (AG) (BU)
                 (AG) (AU) (BG) (AG) (AU) (BU) (BG) (BU) (AU) (BG)
                 (AG) (BG) (AU) (BU) (AG) (BU) (AG) (BU) (AG) (AU)
                 (BG) (AU) (BU) (AG) (BG) (BU) (AU) (BG) (AU) (BG)
                 (AG) (BU) (AG) (AU) (BG) (BU) (AG) (BU) (AU) (AG)
                 (BU) (BG) (BU) (AG) (AU) (AG) (AU) (BG) (BG) (BU)
                 (AG) (BU) (AG) (BG) (AU) (BU) (AU) (BG) (AG) (BU)
                 (BG) (AG) (AU) (BU) (AG) (BU) (AU) (BG) (AG) (BU)
                 (AU) (BG) (AU) (BG) (AG) (BU) (AU) (BG) (BU) (AG)
                 (AU) (AG) (BU) (BG) (AU) (AG) (BU) (BG) (AG) (BU)
                 (AU) (AG) (BG) (BU) (AU) (BG) (AG) (BU) (BG) (AG)
                 (BU) (AU) (AU) (BG) (AG) (AG) (BU) (AU) (BU) (BG)
                 (BG) (AU) (AG) (BU) (AU) (BG) (AU) (BG) (AU) (BG)
                 (AG) (BU) (BU) (AG) (AU) (BG) (BG) (AU) (AG) (BU)
                 (AU) (AG) (BU) (BG) (AU) (BG) (BU) (AG) (AU) (BG)
                 (AG) (BU) (AG) (BU) (BG) (AU) (AU) (BG) (AG) (BU)
                 (AU) (BG) (BU) (AG) (BU) (AU) (AG) (BG) (BU) (AG)
                 (AG) (BU) (BG) (AU) (BG) (AU) (BG) (AU) (BU) (AG)
                 (BG) (AU) (AU) (BG) (AG) (BU) (BG) (AU) (AU) (BG)
                 (BG) (AU) (AU) (BG) (AU) (AG) (BG) (BU) (AG) (BU)
                 (AU) (AG) (BU) (BG) (AU) (BG) (AU) (BG) (AG) (BU)
                 (AU) (AG) (BU) (BG) (AU) (AG) (BG) (BU) (AU) (BG)
                 (AG) (BU) (AG) (BU) (AU) (BG) (AU) (BG) (AG) (AU)
                 (BU) (BG) (AU) (AG) (BU) (BG) (AU) (BG) (AU) (BG)
                 (AG) (BU) (AG) (BU) (AU) (BG) (AG) (BU) (AU) (BG)
                 (AU) (BG) (AU) (AG) (BU) (BG) (AG) (AU) (BU) (BG)
                 (AU) (BG) (AU) (AG) (BU) (BG) (BG) (AU) (AG) (BU)
                 (AG) (BU) (AU) (BG) (AU) (AG) (BU) (BG) (AG) (BU)
                 (AU) (BG) (AU) (BG) (AG) (BU) (BU) (AG) (AG) (AU)
                 (BU) (BG) (AG) (BU) (AG) (BU) (AU) (BG) (AG) (AU)
                 (BG) (BU) (BG) (AU) (AU) (BG) (AG) (BU) (BG) (AU)
                 (AG) (BU) (BG) (AU) (AG) (BU) (AU) (BG) (AU) (BG)
                 (BU) (AG) (AU) (BG) (AG) (BU) (AU) (BG) (AU) (BG)
                 (BG) (AU) (AG) (BU) (AG) (AU) (BU) (BG) (AU) (BG)
                 (AG) (BU) (AG) (BU) (AG) (BU) (BG) (AU) (BU) (AG)
                 (BG) (AU) (AG) (BG) (AU) (BU) (BG) (AU) (BU) (AG)
                 (AG) (BU) (AU) (BG) (AG) (BU) (BG) (AG) (AU) (BU)
                 (BG) (AU) (BG) (AU) (BG) (AU) (AG) (BU) (BG) (AU)
                 (AG) (BU) (AG) (BU) (AU) (BG) (AG) (AU) (BG) (BU)
                 (BU) (AG) (BU) (AU) (BG) (AG) (AG) (BU) (BU) (BG)
                 (AU) (AG) (BG) (AU) (BU) (AG) (AG) (BU) (AG) (AU)
                 (BG) (BU) (AU) (BG) (AG) (BU) (AU) (BG) (AG) (BU)
                 (AU) (BG) (AG) (BU) (BU) (AG) (BG) (AU) (AG) (BU)
                 (AU) (AG) (BG) (BU) (AG) (BU) (AG) (AU) (BG) (BU)
                 (AG) (BU) (AG) (BU) (AG) (AU) (BG) (BU) (AG) (BU)
                 (AG) (BU) (AU) (AG) (BU) (BG) (AU) (BG) (AU) (AG)
                 (BG) (AU) (BU) (BG) (AG) (BU) (AU) (AG) (BU) (BG)
                 (AU) (BG) (AU) (BG) (AU) (BG) (AU) (BU) (BG) (AG)
                 (BU) (AG) (BU) (AG) (BU) (AU) (BG) (AG) (AU) (BG)
                 (AU) (BG) (AG) (BU) (AU) (BG) (AU) (BG) (BG) (BU)
                 (AU) (AG) (BU) (AG) (BU) (AG) (AU) (AG) (BU) (BG)
                 (AU) (BG) (AG) (BU)
    16 initial guesses have been made.
 Convergence on wavefunction:    0.001000000000000
 Iteration     1 Dimension    16 NMult     0 NNew     16
 CISAX will form    16 AO SS matrices at one time.
 New state      1 was old state      3
 New state      2 was old state      1
 New state      3 was old state      2
 New state      4 was old state      6
 Iteration     2 Dimension    24 NMult    16 NNew      8
 Iteration     3 Dimension    32 NMult    24 NNew      8
 Iteration     4 Dimension    40 NMult    32 NNew      8
 Iteration     5 Dimension    48 NMult    40 NNew      8
 Iteration     6 Dimension    56 NMult    48 NNew      8
 Iteration     7 Dimension    64 NMult    56 NNew      8
 ***********************************************************************
 Excited states from <AA,BB:AA,BB> singles matrix:
 ***********************************************************************
 
 Ground to excited state transition densities written to RWF  633
 Ground to excited state transition electric dipole moments (Au):
       state          X           Y           Z        Dip. S.      Osc.
         1         0.0860      4.8582      0.0000     23.6093      1.0504
         2        -0.0000     -0.0000      0.0000      0.0000      0.0000
         3         0.0000      0.0000     -4.4630     19.9181      0.9022
         4         0.0000     -0.0000      0.0000      0.0000      0.0000
 Ground to excited state transition velocity dipole moments (Au):
       state          X           Y           Z        Dip. S.      Osc.
         1        -0.0056     -0.3253     -0.0000      0.1059      1.0576
         2         0.0000      0.0000     -0.0000      0.0000      0.0000
         3        -0.0000     -0.0000      0.3045      0.0927      0.9098
         4        -0.0000     -0.0000      0.0000      0.0000      0.0000
 Ground to excited state transition magnetic dipole moments (Au):
       state          X           Y           Z
         1         0.0000     -0.0000      0.0000
         2         4.2149     -1.5056      0.0000
         3         0.0000     -0.0000     -0.0000
         4         0.0000     -0.0000     -1.4400
 Ground to excited state transition velocity quadrupole moments (Au):
       state          XX          YY          ZZ          XY          XZ          YZ
         1        -0.0000      0.0000      0.0000      0.0000      0.0000      0.0000
         2        -0.0000      0.0000      0.0000      0.0000      1.4986      4.1663
         3        -0.0000     -0.0000     -0.0000     -0.0000      0.0000      0.0000
         4         0.0426     -7.9826      0.0870     -1.3820      0.0000      0.0000
 <0|del|b> * <b|rxdel|0> + <0|del|b> * <b|delr+rdel|0>
 Rotatory Strengths (R) in cgs (10**-40 erg-esu-cm/Gauss)
       state          XX          YY          ZZ    R(velocity)    E-M Angle
         1         0.0000     -0.0000      0.0000      0.0000       90.00
         2        -0.0000      0.0000     -0.0000     -0.0000       90.00
         3        -0.0000      0.0000      0.0000     -0.0000       90.00
         4        -0.0000     -0.0000     -0.0000     -0.0000       90.00
 1/2[<0|r|b>*<b|rxdel|0> + (<0|rxdel|b>*<b|r|0>)*]
 Rotatory Strengths (R) in cgs (10**-40 erg-esu-cm/Gauss)
       state          XX          YY          ZZ     R(length)
         1        -0.0000      0.0000     -0.0000      0.0000
         2         0.0000     -0.0000     -0.0000     -0.0000
         3        -0.0000      0.0000     -0.0000     -0.0000
         4        -0.0000     -0.0000      0.0000      0.0000
  1/2[<0|del|b>*<b|r|0> + (<0|r|b>*<b|del|0>)*] (Au)
       state          X           Y           Z        Dip. S.   Osc.(frdel)
         1        -0.0005     -1.5805     -0.0000      1.5810      1.0540
         2        -0.0000     -0.0000     -0.0000      0.0000      0.0000
         3        -0.0000     -0.0000     -1.3589      1.3589      0.9060
         4        -0.0000      0.0000      0.0000     -0.0000     -0.0000

 Excitation energies and oscillator strengths:
 
 Excited State   1:      Singlet-BU     1.8159 eV  682.76 nm  f=1.0504  <S**2>=0.000
     291 -> 296        0.12062
     292 -> 295        0.11999
     293 -> 298        0.48207
     294 -> 297        0.48544
 This state for optimization and/or second-order correction.
 Total Energy, E(TD-HF/TD-KS) =  -6885.10125044    
 Copying the excited state density for this state as the 1-particle RhoCI density.
 
 Excited State   2:      Singlet-BG     1.8304 eV  677.35 nm  f=0.0000  <S**2>=0.000
     291 -> 298       -0.12272
     292 -> 297       -0.12183
     293 -> 296        0.48254
     294 -> 295        0.48364
 
 Excited State   3:      Singlet-AU     1.8487 eV  670.64 nm  f=0.9022  <S**2>=0.000
     291 -> 297       -0.12617
     292 -> 298       -0.12498
     293 -> 295        0.48167
     294 -> 296        0.48260
 
 Excited State   4:      Singlet-AG     1.8650 eV  664.80 nm  f=0.0000  <S**2>=0.000
     291 -> 295        0.12828
     292 -> 296        0.12779
     293 -> 297        0.48179
     294 -> 298        0.48112
 SavETr:  write IOETrn=   770 NScale= 10 NData=  16 NLR=1 NState=    4 LETran=      82.
 Hyperfine terms turned off by default for NAtoms > 100.

 **********************************************************************

            Population analysis using the SCF density.

 **********************************************************************

 Orbital symmetries:
       Occupied  (BU) (AG) (BU) (AG) (AG) (BU) (BG) (AU) (AG) (BU)
                 (AG) (BU) (AU) (BG) (BU) (AG) (BU) (AG) (BG) (AU)
                 (BU) (AG) (BG) (AU) (BU) (AG) (BG) (AU) (AG) (BU)
                 (BG) (AU) (BU) (AG) (BG) (AU) (BU) (AG) (BG) (AU)
                 (BU) (AG) (BG) (AU) (BU) (AG) (BU) (AG) (BG) (AU)
                 (BU) (AG) (AU) (BG) (AG) (BU) (BG) (AU) (AU) (BG)
                 (BU) (AG) (AU) (BG) (BU) (AG) (BG) (AU) (BU) (AG)
                 (AU) (BG) (BU) (AG) (BG) (AU) (BU) (AG) (BU) (AG)
                 (AU) (BG) (AG) (BU) (AU) (BG) (BU) (AG) (BG) (AU)
                 (BU) (AG) (AG) (BU) (BG) (AU) (AG) (BU) (AG) (BU)
                 (BG) (AU) (AG) (BU) (AG) (BU) (AU) (BG) (AU) (BG)
                 (AG) (BU) (AG) (BU) (AU) (BG) (AG) (BU) (AG) (BU)
                 (AG) (BU) (AU) (BG) (AG) (BU) (AU) (AG) (BG) (BU)
                 (AU) (BG) (AG) (BU) (AG) (BU) (AU) (BG) (AU) (BG)
                 (AG) (BU) (AU) (BG) (AG) (BU) (AG) (BU) (AU) (BG)
                 (AG) (BU) (AU) (BG) (AG) (BU) (AG) (BU) (AU) (BG)
                 (AU) (BG) (AU) (BG) (AG) (BU) (AU) (BG) (AG) (BU)
                 (AG) (BU) (AU) (BG) (AG) (BU) (AU) (BG) (AU) (BG)
                 (AG) (BU) (AG) (BU) (AG) (BU) (AU) (BG) (AG) (BU)
                 (AG) (BU) (AU) (BG) (AU) (BG) (AG) (BU) (AG) (BU)
                 (BG) (AU) (AG) (BU) (BG) (AU) (AU) (BG) (AG) (BU)
                 (AG) (BU) (AG) (BU) (AU) (BG) (AU) (BG) (AG) (BU)
                 (AU) (BG) (AU) (BG) (AG) (BU) (AG) (BU) (BU) (AG)
                 (AU) (BG) (AU) (BG) (AG) (BU) (AG) (BU) (AU) (BG)
                 (BU) (AG) (AU) (BG) (AG) (BU) (AU) (BG) (AU) (BG)
                 (BU) (AG) (BU) (AG) (AU) (BG) (BU) (AG) (BU) (AG)
                 (AG) (AU) (BG) (BU) (AG) (BU) (AU) (BG) (AG) (BU)
                 (AU) (BG) (AU) (BG) (AG) (BU) (AU) (BG) (AG) (BU)
                 (AU) (BG) (BU) (AG) (AU) (BG) (AG) (BU) (AG) (BU)
                 (AG) (BU) (AU) (BG)
       Virtual   (AG) (BU) (AU) (BG) (AU) (BG) (BU) (AG) (BU) (AG)
                 (AU) (BG) (BU) (AG) (AG) (BU) (AG) (BU) (AU) (BG)
                 (AU) (BU) (AG) (BG) (AG) (AU) (BG) (BU) (AG) (BU)
                 (BU) (BG) (AG) (AU) (AU) (AG) (BU) (BG) (BU) (AG)
                 (AU) (BG) (AG) (AU) (BG) (BU) (BU) (AG) (AU) (BG)
                 (BG) (AG) (AU) (BU) (BG) (AU) (AG) (BU) (AG) (BU)
                 (BU) (AG) (AG) (BG) (AU) (BU) (AG) (AU) (BG) (BG)
                 (BU) (AU) (BU) (AG) (AG) (BG) (AU) (BU) (BG) (AG)
                 (AU) (BU) (AG) (AU) (BG) (AU) (BU) (AG) (BU) (AG)
                 (BG) (BU) (AG) (BU) (BG) (AU) (AU) (BG) (AU) (AG)
                 (BG) (BG) (AU) (AG) (BG) (BU) (BU) (AG) (AU) (BU)
                 (AG) (BU) (AG) (BG) (AU) (BU) (BG) (AG) (AU) (BU)
                 (AU) (AG) (BU) (BG) (AU) (AG) (AG) (BU) (BG) (AU)
                 (BU) (AG) (BG) (BG) (AU) (AU) (BG) (AU) (AG) (BU)
                 (BG) (AU) (BU) (AG) (BG) (AU) (AG) (BU) (BG) (BU)
                 (AG) (AU) (BU) (BU) (AG) (BG) (AU) (BG) (AU) (AG)
                 (AG) (BU) (BG) (AG) (BU) (AU) (AG) (BU) (BG) (BU)
                 (AG) (AU) (BU) (AG) (BU) (BG) (AU) (AG) (BU) (BG)
                 (AU) (BG) (AG) (AG) (BU) (AG) (AU) (BG) (BU) (BU)
                 (AU) (AG) (BU) (BG) (AU) (BG) (AU) (AG) (BG) (BU)
                 (AG) (BU) (AU) (AG) (BG) (AU) (BU) (AG) (BU) (BG)
                 (BU) (AG) (AU) (AG) (BG) (BU) (AG) (AG) (BU) (AU)
                 (BG) (AU) (BU) (AG) (BG) (BU) (AU) (BU) (AU) (AG)
                 (BG) (AG) (BU) (BG) (AU) (AG) (BU) (AG) (BU) (BG)
                 (AU) (BU) (AG) (AG) (BG) (BU) (AU) (AU) (BG) (BU)
                 (AG) (BG) (AG) (AU) (BU) (BG) (AU) (BG) (AU) (AG)
                 (BU) (BG) (BU) (AU) (BG) (AG) (BU) (AU) (BG) (AG)
                 (AU) (BG) (BU) (AG) (BU) (BG) (AG) (BU) (AG) (AU)
                 (AG) (AU) (BU) (BG) (BU) (BG) (AU) (AG) (AU) (BG)
                 (BG) (AU) (AG) (BU) (BU) (BG) (AU) (AG) (BG) (BG)
                 (AU) (AG) (AU) (BU) (AU) (BG) (AU) (AG) (BU) (BG)
                 (AU) (BG) (BU) (AU) (BG) (AG) (AU) (AG) (BU) (BU)
                 (AG) (BG) (AU) (BG) (BU) (AG) (BU) (BG) (AU) (AG)
                 (BG) (AG) (AU) (BU) (BU) (AG) (AU) (BG) (BG) (AU)
                 (AU) (BG) (AG) (BU) (AU) (BG) (AG) (BU) (AG) (AU)
                 (BU) (BG) (AG) (BU) (AU) (BG) (AU) (BU) (AG) (BG)
                 (AG) (BU) (BU) (AG) (AU) (BG) (AG) (BU) (AU) (BG)
                 (AG) (BU) (BG) (AG) (BU) (AU) (BU) (AG) (AG) (BG)
                 (BU) (AU) (AG) (BU) (AU) (BG) (AG) (BG) (AU) (BU)
                 (AU) (AG) (BG) (BU) (AU) (AU) (BG) (BG) (AG) (BG)
                 (AU) (BU) (AU) (BG) (AG) (AG) (BU) (AU) (BU) (AG)
                 (BG) (BU) (BG) (AU) (AG) (BG) (AU) (BU) (AG) (BU)
                 (BU) (AG) (AU) (BG) (BG) (AG) (AU) (BU) (AG) (BU)
                 (BG) (AG) (BU) (AU) (BG) (AU) (AG) (BU) (BG) (AU)
                 (BU) (AG) (BU) (AG) (BG) (AU) (AG) (BU) (AG) (BU)
                 (AU) (AG) (BG) (BU) (BG) (AU) (AG) (BG) (AU) (AU)
                 (BG) (BU) (BG) (BU) (AG) (AG) (BU) (BG) (AU) (AU)
                 (BU) (AG) (AU) (BG) (BU) (AG) (AG) (AU) (BU) (BG)
                 (AU) (BG) (BU) (AU) (AG) (BG) (BG) (AU) (AG) (AU)
                 (BU) (BG) (AG) (BU) (BG) (BU) (AG) (AU) (AG) (BG)
                 (BU) (AG) (BU) (AU) (AG) (AU) (BG) (BU) (AG) (BU)
                 (AG) (BU) (AG) (BG) (AU) (BG) (AU) (BG) (AU) (BU)
                 (AG) (BG) (BU) (AU) (AG) (BU) (AU) (BG) (BU) (BG)
                 (AG) (AU) (AG) (BU) (AG) (BU) (AG) (AU) (BU) (BG)
                 (AG) (AU) (BG) (BU) (AG) (BG) (AG) (BU) (AU) (AU)
                 (BU) (AG) (BG) (AU) (BG) (BU) (AU) (BG) (AU) (BG)
                 (AG) (BU) (AG) (BU) (AU) (AG) (BG) (AU) (BU) (AG)
                 (BG) (AU) (BU) (BG) (AU) (BG) (AU) (AG) (BU) (BG)
                 (AU) (AG) (BU) (BG) (AG) (BU) (AG) (BU) (AG) (AG)
                 (BU) (AU) (AG) (BU) (BG) (AU) (BU) (AU) (BG) (AG)
                 (BU) (BG) (AU) (AG) (BG) (AU) (BU) (BG) (AU) (BG)
                 (AG) (BU) (BU) (AG) (AG) (AU) (BG) (BU) (AG) (BU)
                 (AU) (AG) (BU) (BG) (AU) (BG) (AG) (AG) (BU) (BU)
                 (AU) (BG) (BG) (AU) (AG) (AU) (BG) (BU) (AG) (BU)
                 (AU) (BG) (AU) (BG) (AG) (BU) (AG) (AU) (BU) (AG)
                 (BG) (AU) (BG) (BU) (AG) (AU) (BG) (BU) (AU) (BG)
                 (AU) (AG) (BG) (BU) (AU) (BG) (BU) (AG) (AU) (BG)
                 (AU) (AG) (BG) (BU) (AU) (AG) (BU) (BG) (AU) (AG)
                 (BU) (BG) (AG) (BG) (AU) (BU) (AG) (BU) (AG) (AU)
                 (BG) (BU) (AU) (AG) (BG) (BU) (AG) (BU) (AU) (BG)
                 (AG) (AU) (BU) (BG) (BU) (AU) (AG) (BG) (BU) (AG)
                 (AU) (AG) (BG) (BU) (BU) (AG) (AU) (BG) (AU) (AG)
                 (BU) (BG) (AG) (AU) (BG) (BU) (AU) (BG) (BU) (AG)
                 (AU) (BG) (BU) (AU) (AG) (BG) (AG) (AU) (BU) (BG)
                 (BU) (AG) (AG) (AU) (BG) (BU) (AG) (BU) (BU) (BG)
                 (AG) (AU) (AG) (BU) (BG) (AU) (BG) (AU) (AU) (BG)
                 (AG) (AU) (BU) (BG) (AG) (BU) (AG) (AU) (BG) (BG)
                 (AU) (BU) (BU) (AG) (AU) (AG) (AG) (BU) (BG) (AG)
                 (BU) (AU) (BG) (BU) (AG) (BU) (AG) (BU) (BG) (AU)
                 (BG) (AU) (AG) (AU) (AU) (BU) (BG) (BG) (AG) (AU)
                 (BG) (AU) (BU) (BG) (AG) (BU) (AG) (BU) (AG) (AG)
                 (AU) (BG) (BG) (AU) (BU) (AU) (BU) (BG) (AG) (AG)
                 (BU) (AG) (BU) (BU) (AU) (AG) (BG) (AG) (AU) (BU)
                 (BG) (BG) (AG) (AU) (BG) (AU) (BU) (AU) (BU) (AG)
                 (BG) (AU) (AG) (BU) (BU) (BG) (AG) (AU) (BU) (BG)
                 (AU) (BG) (AG) (AU) (BU) (AU) (AG) (BG) (BG) (BU)
                 (AU) (BG) (AG) (BU) (AG) (BU) (AG) (BU) (AU) (AG)
                 (BU) (BG) (AU) (AG) (BG) (BU) (AU) (AG) (BG) (AU)
                 (BU) (BG) (AU) (BG) (AU) (AG) (BU) (AG) (BG) (AU)
                 (AU) (BU) (BG) (AG) (BG) (BU) (AU) (AG) (BG) (AU)
                 (AG) (BU) (AU) (BG) (AU) (AG) (BU) (BU) (BG) (AG)
                 (BU) (BU) (AG) (BG) (AU) (BG) (AU) (BU) (AG) (BU)
                 (AG) (BG) (AU) (BU) (BG) (AG) (BG) (AG) (BU) (AU)
                 (AG) (AU) (BU) (BG) (AG) (BU) (AG) (BU) (BG) (AU)
                 (BU) (AG) (BG) (BU) (AU) (AG) (AG) (BU) (BG) (AU)
                 (AU) (BG) (AU) (BG) (AU) (BG) (BG) (AU) (AG) (BU)
                 (AG) (BU) (AU) (BG) (BU) (AU) (AG) (BG) (AU) (BG)
                 (BU) (AG) (BU) (BG) (AU) (BG) (AU) (AG) (BU) (AU)
                 (BG) (AG) (BU) (AU) (BG) (AG) (BG) (AU) (BU) (AU)
                 (AG) (BG) (BU) (AG) (BG) (AU) (BU) (AG) (BG) (AU)
                 (BG) (BU) (AG) (AU) (BG) (BU) (AU) (AG) (BG) (AG)
                 (BU) (AU) (BU) (AG) (AU) (AG) (BU) (BG) (AU) (AG)
                 (BG) (BU) (AU) (BG) (AG) (BU) (AG) (BU) (AU) (BG)
                 (AG) (BU) (AG) (BU) (AU) (BG) (BU) (AU) (AG) (BG)
                 (AU) (BG) (BG) (AU) (AU) (BG) (AG) (BU) (AU) (BG)
                 (AU) (BG) (AU) (BU) (AG) (BG) (BU) (AG) (AG) (BU)
                 (AU) (BG) (BU) (AG) (BU) (AG) (AU) (AG) (BU) (BU)
                 (AG) (BG) (AU) (BG) (BU) (AG) (AU) (BG) (AU) (BG)
                 (AG) (BU) (AG) (AU) (BG) (BU) (BU) (AG) (BG) (AU)
                 (BG) (AU) (AG) (AU) (BG) (BU) (AU) (BG) (BG) (AU)
                 (AG) (BU) (BG) (AG) (BU) (AU) (BG) (AU) (AG) (BU)
                 (AG) (BG) (AU) (BU) (AG) (BU) (AG) (AU) (BG) (BU)
                 (AG) (BU) (AG) (BU) (BG) (AU) (BG) (AU) (BG) (AU)
                 (BU) (AG) (AG) (BU) (AG) (BU) (AG) (BU) (AU) (BG)
                 (BU) (AG) (BU) (AG) (AG) (BG) (AU) (BU) (AU) (BG)
                 (BU) (AG) (AG) (BU) (AG) (BG) (BU) (AU) (BG) (AU)
                 (BG) (AU) (AG) (BU) (BG) (AU) (BU) (AG) (AU) (BG)
                 (BU) (AG) (BG) (AU) (BG) (AU) (AG) (BU) (BG) (AU)
                 (AG) (BG) (BU) (AU) (AG) (BU) (BU) (AG) (BU) (AG)
                 (BG) (AU) (BG) (BU) (AU) (BG) (AG) (AU) (BU) (BG)
                 (AG) (BU) (AU) (AG) (BG) (AU) (BG) (AU) (BU) (AG)
                 (AU) (BG) (BU) (AG) (BU) (AG) (AG) (BU) (BU) (AU)
                 (BG) (AG) (AU) (BG) (AU) (BG) (BU) (BG) (AG) (AU)
                 (BG) (AU) (AG) (BU) (BU) (AG) (BG) (AU) (BU) (BG)
                 (AU) (AG) (AG) (BG) (AU) (BG) (BU) (AU) (BU) (BG)
                 (AU) (AG) (BU) (AG) (BU) (AG) (BG) (AU) (BU) (AG)
                 (AG) (BU) (BU) (AG) (AU) (BG) (BU) (BG) (AU) (AG)
                 (BG) (AU) (AG) (BU) (AG) (BU) (BG) (AU) (BG) (AU)
                 (AG) (BU) (BU) (AG) (BU) (AG) (AU) (BG) (BU) (AG)
                 (BG) (AU) (BU) (AG) (AU) (BG) (BU) (AG) (AU) (BU)
                 (BG) (AG) (AG) (BU) (BU) (AG) (BG) (AU) (AG) (BU)
                 (AU) (BG) (AG) (BG) (AU) (BU) (AG) (BG) (BU) (AU)
                 (AG) (BU) (AU) (BG) (AG) (BU) (BG) (AU) (AG) (BU)
                 (BU) (AG) (BG) (AU) (AG) (BU) (BG) (BU) (AU) (AG)
                 (AG) (AU) (BG) (BU) (AG) (BU) (BG) (AU) (BG) (AU)
                 (BU) (AG) (BG) (AU) (BG) (AU) (BU) (AG) (AG) (BU)
                 (BG) (AG) (AU) (BU) (BG) (AU) (AG) (BU) (AU) (BG)
                 (AG) (AU) (BU) (BG) (AU) (BG) (AU) (AG) (BG) (BU)
                 (AG) (BU) (AG) (BU) (AG) (AU) (BG) (AU) (BU) (BG)
                 (AG) (AU) (BG) (BU) (BG) (AU) (AG) (BU) (AU) (BG)
                 (AG) (BU) (AG) (AU) (BG) (BU) (AU) (BG) (AG) (BU)
                 (AG) (AU) (BG) (AG) (AU) (BU) (BG) (BU) (AU) (BG)
                 (AG) (BG) (AU) (BU) (AG) (BU) (AG) (BU) (AG) (AU)
                 (BG) (AU) (BU) (AG) (BG) (BU) (AU) (BG) (AU) (BG)
                 (AG) (BU) (AG) (AU) (BG) (BU) (AG) (BU) (AU) (AG)
                 (BU) (BG) (BU) (AG) (AU) (AG) (AU) (BG) (BG) (BU)
                 (AG) (BU) (AG) (BG) (AU) (BU) (AU) (BG) (AG) (BU)
                 (BG) (AG) (AU) (BU) (AG) (BU) (AU) (BG) (AG) (BU)
                 (AU) (BG) (AU) (BG) (AG) (BU) (AU) (BG) (BU) (AG)
                 (AU) (AG) (BU) (BG) (AU) (AG) (BU) (BG) (AG) (BU)
                 (AU) (AG) (BG) (BU) (AU) (BG) (AG) (BU) (BG) (AG)
                 (BU) (AU) (AU) (BG) (AG) (AG) (BU) (AU) (BU) (BG)
                 (BG) (AU) (AG) (BU) (AU) (BG) (AU) (BG) (AU) (BG)
                 (AG) (BU) (BU) (AG) (AU) (BG) (BG) (AU) (AG) (BU)
                 (AU) (AG) (BU) (BG) (AU) (BG) (BU) (AG) (AU) (BG)
                 (AG) (BU) (AG) (BU) (BG) (AU) (AU) (BG) (AG) (BU)
                 (AU) (BG) (BU) (AG) (BU) (AU) (AG) (BG) (BU) (AG)
                 (AG) (BU) (BG) (AU) (BG) (AU) (BG) (AU) (BU) (AG)
                 (BG) (AU) (AU) (BG) (AG) (BU) (BG) (AU) (AU) (BG)
                 (BG) (AU) (AU) (BG) (AU) (AG) (BG) (BU) (AG) (BU)
                 (AU) (AG) (BU) (BG) (AU) (BG) (AU) (BG) (AG) (BU)
                 (AU) (AG) (BU) (BG) (AU) (AG) (BG) (BU) (AU) (BG)
                 (AG) (BU) (AG) (BU) (AU) (BG) (AU) (BG) (AG) (AU)
                 (BU) (BG) (AU) (AG) (BU) (BG) (AU) (BG) (AU) (BG)
                 (AG) (BU) (AG) (BU) (AU) (BG) (AG) (BU) (AU) (BG)
                 (AU) (BG) (AU) (AG) (BU) (BG) (AG) (AU) (BU) (BG)
                 (AU) (BG) (AU) (AG) (BU) (BG) (BG) (AU) (AG) (BU)
                 (AG) (BU) (AU) (BG) (AU) (AG) (BU) (BG) (AG) (BU)
                 (AU) (BG) (AU) (BG) (AG) (BU) (BU) (AG) (AG) (AU)
                 (BU) (BG) (AG) (BU) (AG) (BU) (AU) (BG) (AG) (AU)
                 (BG) (BU) (BG) (AU) (AU) (BG) (AG) (BU) (BG) (AU)
                 (AG) (BU) (BG) (AU) (AG) (BU) (AU) (BG) (AU) (BG)
                 (BU) (AG) (AU) (BG) (AG) (BU) (AU) (BG) (AU) (BG)
                 (BG) (AU) (AG) (BU) (AG) (AU) (BU) (BG) (AU) (BG)
                 (AG) (BU) (AG) (BU) (AG) (BU) (BG) (AU) (BU) (AG)
                 (BG) (AU) (AG) (BG) (AU) (BU) (BG) (AU) (BU) (AG)
                 (AG) (BU) (AU) (BG) (AG) (BU) (BG) (AG) (AU) (BU)
                 (BG) (AU) (BG) (AU) (BG) (AU) (AG) (BU) (BG) (AU)
                 (AG) (BU) (AG) (BU) (AU) (BG) (AG) (AU) (BG) (BU)
                 (BU) (AG) (BU) (AU) (BG) (AG) (AG) (BU) (BU) (BG)
                 (AU) (AG) (BG) (AU) (BU) (AG) (AG) (BU) (AG) (AU)
                 (BG) (BU) (AU) (BG) (AG) (BU) (AU) (BG) (AG) (BU)
                 (AU) (BG) (AG) (BU) (BU) (AG) (BG) (AU) (AG) (BU)
                 (AU) (AG) (BG) (BU) (AG) (BU) (AG) (AU) (BG) (BU)
                 (AG) (BU) (AG) (BU) (AG) (AU) (BG) (BU) (AG) (BU)
                 (AG) (BU) (AU) (AG) (BU) (BG) (AU) (BG) (AU) (AG)
                 (BG) (AU) (BU) (BG) (AG) (BU) (AU) (AG) (BU) (BG)
                 (AU) (BG) (AU) (BG) (AU) (BG) (AU) (BU) (BG) (AG)
                 (BU) (AG) (BU) (AG) (BU) (AU) (BG) (AG) (AU) (BG)
                 (AU) (BG) (AG) (BU) (AU) (BG) (AU) (BG) (BG) (BU)
                 (AU) (AG) (BU) (AG) (BU) (AG) (AU) (AG) (BU) (BG)
                 (AU) (BG) (AG) (BU)
 The electronic state is 1-AG.
 Alpha  occ. eigenvalues -- -345.97249-345.97249 -41.84122 -41.84122 -36.92418
 Alpha  occ. eigenvalues --  -36.92418 -36.91574 -36.91574 -36.91574 -36.91574
 Alpha  occ. eigenvalues --  -14.20511 -14.20511 -14.20509 -14.20509 -14.20506
 Alpha  occ. eigenvalues --  -14.20506 -14.20496 -14.20496 -14.19660 -14.19660
 Alpha  occ. eigenvalues --  -14.19659 -14.19659 -14.19656 -14.19656 -14.19656
 Alpha  occ. eigenvalues --  -14.19656 -10.16861 -10.16861 -10.16860 -10.16860
 Alpha  occ. eigenvalues --  -10.16856 -10.16856 -10.16851 -10.16851 -10.16846
 Alpha  occ. eigenvalues --  -10.16846 -10.16845 -10.16845 -10.16840 -10.16840
 Alpha  occ. eigenvalues --  -10.16834 -10.16834 -10.09950 -10.09950 -10.09950
 Alpha  occ. eigenvalues --  -10.09950 -10.09935 -10.09935 -10.09919 -10.09919
 Alpha  occ. eigenvalues --  -10.09919 -10.09919 -10.09904 -10.09904 -10.09885
 Alpha  occ. eigenvalues --  -10.09885 -10.09854 -10.09854 -10.09761 -10.09761
 Alpha  occ. eigenvalues --  -10.09761 -10.09761 -10.09756 -10.09756 -10.09756
 Alpha  occ. eigenvalues --  -10.09756 -10.09744 -10.09744 -10.09740 -10.09740
 Alpha  occ. eigenvalues --  -10.09665 -10.09665 -10.09661 -10.09661 -10.09597
 Alpha  occ. eigenvalues --  -10.09597 -10.09597 -10.09597 -10.09580 -10.09580
 Alpha  occ. eigenvalues --  -10.09561 -10.09561 -10.09561 -10.09561 -10.09544
 Alpha  occ. eigenvalues --  -10.09544 -10.09462 -10.09462 -10.09426 -10.09425
 Alpha  occ. eigenvalues --   -4.78992  -4.78992  -3.23620  -3.23620  -3.22191
 Alpha  occ. eigenvalues --   -3.22191  -3.22191  -3.22191  -1.13243  -1.13243
 Alpha  occ. eigenvalues --   -1.11787  -1.11787  -1.11778  -1.11778  -1.08974
 Alpha  occ. eigenvalues --   -1.08974  -1.06777  -1.06777  -1.02631  -1.02631
 Alpha  occ. eigenvalues --   -1.02626  -1.02626  -0.99516  -0.99515  -0.98224
 Alpha  occ. eigenvalues --   -0.98224  -0.98191  -0.98191  -0.98159  -0.98159
 Alpha  occ. eigenvalues --   -0.98102  -0.98097  -0.90120  -0.90119  -0.88773
 Alpha  occ. eigenvalues --   -0.88772  -0.88558  -0.88558  -0.88558  -0.88557
 Alpha  occ. eigenvalues --   -0.88167  -0.88166  -0.88165  -0.88163  -0.87983
 Alpha  occ. eigenvalues --   -0.87980  -0.87847  -0.87845  -0.84352  -0.84351
 Alpha  occ. eigenvalues --   -0.81717  -0.81717  -0.81704  -0.81703  -0.76261
 Alpha  occ. eigenvalues --   -0.76261  -0.76046  -0.76045  -0.75244  -0.75244
 Alpha  occ. eigenvalues --   -0.75194  -0.75193  -0.74605  -0.74603  -0.74277
 Alpha  occ. eigenvalues --   -0.74277  -0.71779  -0.71779  -0.71747  -0.71746
 Alpha  occ. eigenvalues --   -0.71720  -0.71719  -0.70599  -0.70597  -0.68080
 Alpha  occ. eigenvalues --   -0.68079  -0.67145  -0.67145  -0.67119  -0.67117
 Alpha  occ. eigenvalues --   -0.65651  -0.65650  -0.65472  -0.65471  -0.65468
 Alpha  occ. eigenvalues --   -0.65467  -0.61894  -0.61893  -0.61789  -0.61789
 Alpha  occ. eigenvalues --   -0.61642  -0.61641  -0.61239  -0.61238  -0.59866
 Alpha  occ. eigenvalues --   -0.59865  -0.59828  -0.59828  -0.59824  -0.59824
 Alpha  occ. eigenvalues --   -0.59707  -0.59706  -0.59675  -0.59675  -0.58402
 Alpha  occ. eigenvalues --   -0.58402  -0.58337  -0.58337  -0.57639  -0.57639
 Alpha  occ. eigenvalues --   -0.57474  -0.57474  -0.56955  -0.56955  -0.56843
 Alpha  occ. eigenvalues --   -0.56843  -0.56725  -0.56725  -0.56717  -0.56714
 Alpha  occ. eigenvalues --   -0.55932  -0.55931  -0.55403  -0.55402  -0.55387
 Alpha  occ. eigenvalues --   -0.55387  -0.55309  -0.55308  -0.54842  -0.54836
 Alpha  occ. eigenvalues --   -0.54282  -0.54281  -0.54054  -0.54053  -0.54036
 Alpha  occ. eigenvalues --   -0.54035  -0.52788  -0.52788  -0.51806  -0.51806
 Alpha  occ. eigenvalues --   -0.50997  -0.50997  -0.48930  -0.48930  -0.48926
 Alpha  occ. eigenvalues --   -0.48923  -0.48916  -0.48815  -0.47892  -0.47892
 Alpha  occ. eigenvalues --   -0.47666  -0.47666  -0.47596  -0.47595  -0.46942
 Alpha  occ. eigenvalues --   -0.46900  -0.46848  -0.46848  -0.46830  -0.46830
 Alpha  occ. eigenvalues --   -0.46819  -0.46818  -0.46145  -0.46144  -0.44997
 Alpha  occ. eigenvalues --   -0.44997  -0.44965  -0.44965  -0.44815  -0.44814
 Alpha  occ. eigenvalues --   -0.43262  -0.43258  -0.43255  -0.43243  -0.42129
 Alpha  occ. eigenvalues --   -0.42129  -0.39183  -0.39183  -0.39182  -0.39182
 Alpha  occ. eigenvalues --   -0.38282  -0.38265  -0.37362  -0.37362  -0.36374
 Alpha  occ. eigenvalues --   -0.36351  -0.36034  -0.36013  -0.35811  -0.35802
 Alpha  occ. eigenvalues --   -0.35790  -0.35738  -0.35277  -0.35277  -0.34989
 Alpha  occ. eigenvalues --   -0.34985  -0.34974  -0.34926  -0.34795  -0.34746
 Alpha  occ. eigenvalues --   -0.34151  -0.34131  -0.24113  -0.24095
 Alpha virt. eigenvalues --   -0.06307  -0.06305  -0.06303  -0.06273   0.02261
 Alpha virt. eigenvalues --    0.02311   0.03314   0.03315   0.03356   0.03360
 Alpha virt. eigenvalues --    0.04321   0.04333   0.04368   0.04369   0.07718
 Alpha virt. eigenvalues --    0.07728   0.08084   0.08093   0.09398   0.09465
 Alpha virt. eigenvalues --    0.09569   0.09592   0.09593   0.09728   0.10705
 Alpha virt. eigenvalues --    0.11080   0.11084   0.11176   0.11385   0.11516
 Alpha virt. eigenvalues --    0.12072   0.12316   0.12317   0.12323   0.12341
 Alpha virt. eigenvalues --    0.12342   0.12362   0.12429   0.12599   0.12630
 Alpha virt. eigenvalues --    0.13357   0.13388   0.13743   0.13840   0.14004
 Alpha virt. eigenvalues --    0.14070   0.14412   0.14596   0.15563   0.15786
 Alpha virt. eigenvalues --    0.16419   0.16458   0.16527   0.16563   0.16620
 Alpha virt. eigenvalues --    0.16733   0.16990   0.17270   0.17401   0.17534
 Alpha virt. eigenvalues --    0.18705   0.18709   0.19145   0.19171   0.19184
 Alpha virt. eigenvalues --    0.19188   0.19194   0.19518   0.19803   0.19934
 Alpha virt. eigenvalues --    0.19955   0.20115   0.20291   0.20300   0.20515
 Alpha virt. eigenvalues --    0.20918   0.20942   0.21308   0.21393   0.21660
 Alpha virt. eigenvalues --    0.21723   0.22164   0.23326   0.23518   0.23583
 Alpha virt. eigenvalues --    0.23666   0.23682   0.23770   0.23973   0.24058
 Alpha virt. eigenvalues --    0.24258   0.24396   0.24439   0.24739   0.24987
 Alpha virt. eigenvalues --    0.25061   0.25185   0.25361   0.25498   0.25793
 Alpha virt. eigenvalues --    0.25795   0.26739   0.26853   0.26909   0.26921
 Alpha virt. eigenvalues --    0.26927   0.26946   0.26985   0.27054   0.27060
 Alpha virt. eigenvalues --    0.27073   0.27301   0.27312   0.27814   0.27852
 Alpha virt. eigenvalues --    0.27883   0.27888   0.27919   0.27972   0.28047
 Alpha virt. eigenvalues --    0.28363   0.28390   0.28408   0.28462   0.28671
 Alpha virt. eigenvalues --    0.28720   0.28953   0.29007   0.29180   0.29205
 Alpha virt. eigenvalues --    0.29276   0.29331   0.29505   0.29543   0.29545
 Alpha virt. eigenvalues --    0.29634   0.29637   0.29962   0.29973   0.30038
 Alpha virt. eigenvalues --    0.30112   0.30175   0.30360   0.30401   0.30544
 Alpha virt. eigenvalues --    0.30709   0.30810   0.30820   0.30909   0.31130
 Alpha virt. eigenvalues --    0.31137   0.31180   0.31363   0.31747   0.31748
 Alpha virt. eigenvalues --    0.32083   0.32235   0.32252   0.32277   0.32688
 Alpha virt. eigenvalues --    0.32843   0.32846   0.32910   0.33031   0.33098
 Alpha virt. eigenvalues --    0.33135   0.33242   0.33268   0.33732   0.34154
 Alpha virt. eigenvalues --    0.34615   0.34643   0.34712   0.34738   0.34748
 Alpha virt. eigenvalues --    0.34768   0.35015   0.35199   0.35314   0.35453
 Alpha virt. eigenvalues --    0.35478   0.35662   0.35721   0.36201   0.36203
 Alpha virt. eigenvalues --    0.36498   0.36564   0.36631   0.36661   0.37478
 Alpha virt. eigenvalues --    0.37624   0.37625   0.37735   0.37863   0.37881
 Alpha virt. eigenvalues --    0.37950   0.38065   0.38090   0.38395   0.39010
 Alpha virt. eigenvalues --    0.39067   0.39273   0.39487   0.39588   0.39679
 Alpha virt. eigenvalues --    0.39679   0.39680   0.39789   0.40074   0.40229
 Alpha virt. eigenvalues --    0.40557   0.40575   0.40591   0.40612   0.40742
 Alpha virt. eigenvalues --    0.40761   0.40890   0.41209   0.41246   0.41372
 Alpha virt. eigenvalues --    0.41486   0.41850   0.41854   0.41859   0.42070
 Alpha virt. eigenvalues --    0.42107   0.42380   0.42397   0.42398   0.42398
 Alpha virt. eigenvalues --    0.42438   0.42457   0.42715   0.42842   0.42894
 Alpha virt. eigenvalues --    0.42976   0.43092   0.43184   0.43187   0.43572
 Alpha virt. eigenvalues --    0.44096   0.44112   0.44137   0.44141   0.44151
 Alpha virt. eigenvalues --    0.44275   0.44808   0.45036   0.45036   0.45100
 Alpha virt. eigenvalues --    0.45120   0.45385   0.45631   0.45709   0.45713
 Alpha virt. eigenvalues --    0.46066   0.46555   0.46597   0.46649   0.46825
 Alpha virt. eigenvalues --    0.46836   0.46838   0.46985   0.47009   0.47128
 Alpha virt. eigenvalues --    0.47132   0.47547   0.47564   0.47632   0.47684
 Alpha virt. eigenvalues --    0.47988   0.48169   0.48250   0.48433   0.48671
 Alpha virt. eigenvalues --    0.48685   0.48716   0.48782   0.48957   0.49044
 Alpha virt. eigenvalues --    0.49065   0.49123   0.49187   0.49375   0.49493
 Alpha virt. eigenvalues --    0.49553   0.49587   0.49648   0.49744   0.49870
 Alpha virt. eigenvalues --    0.50485   0.50485   0.50524   0.50577   0.50644
 Alpha virt. eigenvalues --    0.50651   0.50686   0.50732   0.51606   0.51704
 Alpha virt. eigenvalues --    0.51717   0.51780   0.51807   0.51827   0.51875
 Alpha virt. eigenvalues --    0.51997   0.52734   0.52827   0.52846   0.53349
 Alpha virt. eigenvalues --    0.53390   0.53593   0.53808   0.54032   0.54045
 Alpha virt. eigenvalues --    0.54202   0.54450   0.54831   0.54833   0.55009
 Alpha virt. eigenvalues --    0.55282   0.55313   0.55382   0.55558   0.55700
 Alpha virt. eigenvalues --    0.55829   0.56443   0.56507   0.56518   0.56783
 Alpha virt. eigenvalues --    0.57249   0.57385   0.57406   0.57469   0.57626
 Alpha virt. eigenvalues --    0.57633   0.57654   0.57760   0.58096   0.58245
 Alpha virt. eigenvalues --    0.58420   0.58458   0.58542   0.58567   0.58653
 Alpha virt. eigenvalues --    0.58712   0.59044   0.59069   0.59159   0.59208
 Alpha virt. eigenvalues --    0.59286   0.59537   0.59575   0.59700   0.60078
 Alpha virt. eigenvalues --    0.60101   0.60104   0.60180   0.60197   0.60380
 Alpha virt. eigenvalues --    0.60624   0.60629   0.61462   0.61545   0.61955
 Alpha virt. eigenvalues --    0.61991   0.62213   0.62250   0.64355   0.64365
 Alpha virt. eigenvalues --    0.64402   0.64475   0.64580   0.64655   0.64711
 Alpha virt. eigenvalues --    0.64839   0.65613   0.65613   0.66069   0.66200
 Alpha virt. eigenvalues --    0.66204   0.66207   0.66416   0.66639   0.66655
 Alpha virt. eigenvalues --    0.66661   0.66661   0.66730   0.66786   0.66843
 Alpha virt. eigenvalues --    0.66883   0.66899   0.66939   0.67046   0.67288
 Alpha virt. eigenvalues --    0.67357   0.67372   0.67549   0.68557   0.68564
 Alpha virt. eigenvalues --    0.68565   0.68769   0.68769   0.68955   0.69960
 Alpha virt. eigenvalues --    0.70060   0.70083   0.70087   0.70096   0.70146
 Alpha virt. eigenvalues --    0.70155   0.70540   0.70638   0.70760   0.71447
 Alpha virt. eigenvalues --    0.71480   0.71489   0.71490   0.71565   0.71618
 Alpha virt. eigenvalues --    0.72274   0.72299   0.72345   0.72366   0.73347
 Alpha virt. eigenvalues --    0.73410   0.73523   0.73548   0.73719   0.73734
 Alpha virt. eigenvalues --    0.74337   0.74403   0.74502   0.74741   0.74950
 Alpha virt. eigenvalues --    0.75059   0.75707   0.75775   0.76776   0.76779
 Alpha virt. eigenvalues --    0.76976   0.77030   0.77095   0.77135   0.77175
 Alpha virt. eigenvalues --    0.77274   0.77408   0.77500   0.77980   0.78027
 Alpha virt. eigenvalues --    0.78105   0.78106   0.78181   0.78326   0.78507
 Alpha virt. eigenvalues --    0.78535   0.78605   0.78671   0.78697   0.78732
 Alpha virt. eigenvalues --    0.78751   0.78837   0.79534   0.79726   0.79729
 Alpha virt. eigenvalues --    0.79760   0.79785   0.79847   0.79880   0.80004
 Alpha virt. eigenvalues --    0.80225   0.80226   0.80322   0.80326   0.80915
 Alpha virt. eigenvalues --    0.81277   0.81478   0.81527   0.81538   0.81611
 Alpha virt. eigenvalues --    0.81688   0.81709   0.81790   0.81991   0.82013
 Alpha virt. eigenvalues --    0.82033   0.82226   0.82397   0.82421   0.82431
 Alpha virt. eigenvalues --    0.82467   0.82472   0.82698   0.82737   0.82823
 Alpha virt. eigenvalues --    0.82912   0.83075   0.83105   0.83279   0.83339
 Alpha virt. eigenvalues --    0.83424   0.83558   0.83661   0.83663   0.84349
 Alpha virt. eigenvalues --    0.84374   0.84393   0.84602   0.85106   0.85172
 Alpha virt. eigenvalues --    0.85536   0.85801   0.86598   0.86657   0.86807
 Alpha virt. eigenvalues --    0.86828   0.86861   0.86952   0.86998   0.87005
 Alpha virt. eigenvalues --    0.87061   0.87218   0.87438   0.87472   0.87567
 Alpha virt. eigenvalues --    0.88013   0.88482   0.88491   0.89075   0.89131
 Alpha virt. eigenvalues --    0.89152   0.89289   0.89404   0.89541   0.89745
 Alpha virt. eigenvalues --    0.89753   0.90540   0.90596   0.90600   0.90645
 Alpha virt. eigenvalues --    0.91036   0.91315   0.91388   0.91419   0.91505
 Alpha virt. eigenvalues --    0.91610   0.91622   0.91710   0.91723   0.92269
 Alpha virt. eigenvalues --    0.92293   0.92392   0.92422   0.92498   0.92911
 Alpha virt. eigenvalues --    0.92963   0.93083   0.93869   0.95834   0.95838
 Alpha virt. eigenvalues --    0.95867   0.95886   0.95975   0.96489   0.96829
 Alpha virt. eigenvalues --    0.97031   0.97206   0.97254   0.97258   0.97324
 Alpha virt. eigenvalues --    0.97339   0.97416   0.97426   0.97534   0.97591
 Alpha virt. eigenvalues --    0.97890   0.99292   0.99360   0.99565   1.00010
 Alpha virt. eigenvalues --    1.00099   1.00136   1.00147   1.00448   1.01139
 Alpha virt. eigenvalues --    1.01300   1.02094   1.02134   1.02398   1.02672
 Alpha virt. eigenvalues --    1.02698   1.02709   1.02758   1.02818   1.02872
 Alpha virt. eigenvalues --    1.03101   1.03217   1.03384   1.03388   1.03404
 Alpha virt. eigenvalues --    1.03823   1.03894   1.04428   1.04470   1.04485
 Alpha virt. eigenvalues --    1.04970   1.05123   1.05520   1.05876   1.06239
 Alpha virt. eigenvalues --    1.06369   1.06403   1.06490   1.06527   1.07086
 Alpha virt. eigenvalues --    1.07213   1.07278   1.07511   1.08789   1.08814
 Alpha virt. eigenvalues --    1.10394   1.10547   1.10587   1.10785   1.10987
 Alpha virt. eigenvalues --    1.11189   1.12158   1.12947   1.12956   1.13174
 Alpha virt. eigenvalues --    1.13419   1.13485   1.13552   1.13565   1.13627
 Alpha virt. eigenvalues --    1.13801   1.14013   1.14150   1.14299   1.14731
 Alpha virt. eigenvalues --    1.15298   1.15908   1.16082   1.16196   1.16254
 Alpha virt. eigenvalues --    1.16582   1.16737   1.16789   1.16796   1.16810
 Alpha virt. eigenvalues --    1.16884   1.17080   1.17193   1.18878   1.19043
 Alpha virt. eigenvalues --    1.19100   1.19157   1.19203   1.19245   1.20132
 Alpha virt. eigenvalues --    1.20261   1.20420   1.20536   1.20723   1.21198
 Alpha virt. eigenvalues --    1.21214   1.21378   1.21426   1.21727   1.21811
 Alpha virt. eigenvalues --    1.21853   1.21871   1.21915   1.21942   1.22096
 Alpha virt. eigenvalues --    1.22360   1.22369   1.22490   1.23211   1.23389
 Alpha virt. eigenvalues --    1.23394   1.23824   1.23958   1.24041   1.24092
 Alpha virt. eigenvalues --    1.24190   1.24285   1.24554   1.26201   1.26271
 Alpha virt. eigenvalues --    1.26272   1.26375   1.27523   1.27599   1.27624
 Alpha virt. eigenvalues --    1.27680   1.27797   1.27867   1.28160   1.28536
 Alpha virt. eigenvalues --    1.29188   1.29201   1.29225   1.29310   1.29382
 Alpha virt. eigenvalues --    1.29413   1.29478   1.29548   1.30573   1.30629
 Alpha virt. eigenvalues --    1.31138   1.31219   1.31335   1.31368   1.32054
 Alpha virt. eigenvalues --    1.32354   1.33259   1.33341   1.33675   1.33800
 Alpha virt. eigenvalues --    1.33818   1.33838   1.33845   1.33914   1.33935
 Alpha virt. eigenvalues --    1.33988   1.34152   1.34163   1.34259   1.34345
 Alpha virt. eigenvalues --    1.34414   1.35011   1.35442   1.35629   1.35699
 Alpha virt. eigenvalues --    1.35738   1.35935   1.35981   1.36066   1.36215
 Alpha virt. eigenvalues --    1.36638   1.36734   1.37731   1.37851   1.37876
 Alpha virt. eigenvalues --    1.37882   1.37889   1.37931   1.38749   1.38762
 Alpha virt. eigenvalues --    1.38813   1.38951   1.39397   1.39622   1.40485
 Alpha virt. eigenvalues --    1.40528   1.40745   1.40869   1.41493   1.41645
 Alpha virt. eigenvalues --    1.41722   1.41801   1.41824   1.41827   1.42679
 Alpha virt. eigenvalues --    1.42868   1.43794   1.43913   1.43950   1.44068
 Alpha virt. eigenvalues --    1.44111   1.44300   1.44492   1.44523   1.44799
 Alpha virt. eigenvalues --    1.44817   1.44947   1.44959   1.45185   1.45407
 Alpha virt. eigenvalues --    1.45418   1.45429   1.45518   1.45522   1.45706
 Alpha virt. eigenvalues --    1.45746   1.47141   1.47202   1.47283   1.47436
 Alpha virt. eigenvalues --    1.47592   1.47629   1.47748   1.47927   1.48083
 Alpha virt. eigenvalues --    1.48085   1.48088   1.48180   1.48215   1.48220
 Alpha virt. eigenvalues --    1.48404   1.48533   1.48847   1.48995   1.49070
 Alpha virt. eigenvalues --    1.49185   1.51108   1.51190   1.51488   1.51864
 Alpha virt. eigenvalues --    1.51918   1.51932   1.52007   1.52026   1.52168
 Alpha virt. eigenvalues --    1.52319   1.52512   1.52541   1.53378   1.53622
 Alpha virt. eigenvalues --    1.53692   1.54242   1.54431   1.54528   1.55279
 Alpha virt. eigenvalues --    1.55306   1.55307   1.55362   1.55367   1.55427
 Alpha virt. eigenvalues --    1.55430   1.55612   1.55642   1.55678   1.55699
 Alpha virt. eigenvalues --    1.55781   1.55849   1.57283   1.57342   1.57480
 Alpha virt. eigenvalues --    1.57537   1.57538   1.57666   1.57669   1.57901
 Alpha virt. eigenvalues --    1.57936   1.58034   1.58075   1.58724   1.58741
 Alpha virt. eigenvalues --    1.59102   1.59678   1.59765   1.60191   1.60216
 Alpha virt. eigenvalues --    1.60338   1.60338   1.60392   1.60541   1.61500
 Alpha virt. eigenvalues --    1.63038   1.63075   1.63134   1.63481   1.64607
 Alpha virt. eigenvalues --    1.64682   1.64839   1.65149   1.65381   1.65429
 Alpha virt. eigenvalues --    1.65503   1.65521   1.65558   1.65595   1.65678
 Alpha virt. eigenvalues --    1.65749   1.66520   1.67222   1.67236   1.67280
 Alpha virt. eigenvalues --    1.67417   1.67839   1.68788   1.68832   1.69082
 Alpha virt. eigenvalues --    1.69130   1.69491   1.69703   1.69721   1.69736
 Alpha virt. eigenvalues --    1.69917   1.69948   1.70122   1.70540   1.70810
 Alpha virt. eigenvalues --    1.70868   1.71468   1.71738   1.71765   1.71811
 Alpha virt. eigenvalues --    1.71842   1.71844   1.71871   1.71971   1.72033
 Alpha virt. eigenvalues --    1.72125   1.72127   1.72329   1.72463   1.72592
 Alpha virt. eigenvalues --    1.72823   1.72932   1.72969   1.73650   1.73677
 Alpha virt. eigenvalues --    1.73943   1.74265   1.74602   1.74698   1.74801
 Alpha virt. eigenvalues --    1.74849   1.74922   1.75207   1.75245   1.75277
 Alpha virt. eigenvalues --    1.75437   1.76206   1.76278   1.76311   1.76350
 Alpha virt. eigenvalues --    1.78465   1.78478   1.78516   1.78536   1.78575
 Alpha virt. eigenvalues --    1.78614   1.78742   1.78798   1.79047   1.79077
 Alpha virt. eigenvalues --    1.79139   1.79186   1.79360   1.79371   1.79401
 Alpha virt. eigenvalues --    1.79408   1.80308   1.80345   1.80360   1.80386
 Alpha virt. eigenvalues --    1.80899   1.80990   1.81041   1.81336   1.81361
 Alpha virt. eigenvalues --    1.81418   1.83553   1.83563   1.83567   1.83633
 Alpha virt. eigenvalues --    1.83713   1.83764   1.83850   1.83888   1.84120
 Alpha virt. eigenvalues --    1.84125   1.84133   1.84266   1.84285   1.84546
 Alpha virt. eigenvalues --    1.85913   1.86020   1.87778   1.87829   1.87891
 Alpha virt. eigenvalues --    1.87914   1.87940   1.88116   1.88130   1.88138
 Alpha virt. eigenvalues --    1.88150   1.88173   1.89103   1.89121   1.89231
 Alpha virt. eigenvalues --    1.89481   1.89980   1.90020   1.91287   1.91326
 Alpha virt. eigenvalues --    1.91418   1.91450   1.92782   1.92797   1.92813
 Alpha virt. eigenvalues --    1.92814   1.94030   1.94063   1.94306   1.94398
 Alpha virt. eigenvalues --    1.94527   1.94563   1.94564   1.94903   1.95000
 Alpha virt. eigenvalues --    1.95018   1.95030   1.95078   1.96016   1.96066
 Alpha virt. eigenvalues --    1.96070   1.96115   1.96168   1.96172   1.99187
 Alpha virt. eigenvalues --    1.99216   1.99224   1.99226   2.00066   2.00081
 Alpha virt. eigenvalues --    2.00095   2.00099   2.00907   2.00939   2.00989
 Alpha virt. eigenvalues --    2.01011   2.02135   2.02192   2.03999   2.04014
 Alpha virt. eigenvalues --    2.05043   2.05053   2.05535   2.05543   2.05569
 Alpha virt. eigenvalues --    2.05633   2.06069   2.06073   2.06106   2.06107
 Alpha virt. eigenvalues --    2.06140   2.06224   2.07362   2.07382   2.08668
 Alpha virt. eigenvalues --    2.08679   2.10114   2.10151   2.10792   2.10838
 Alpha virt. eigenvalues --    2.11934   2.11994   2.13320   2.13337   2.13373
 Alpha virt. eigenvalues --    2.13391   2.14023   2.14051   2.14600   2.14605
 Alpha virt. eigenvalues --    2.14608   2.14642   2.16010   2.16019   2.16612
 Alpha virt. eigenvalues --    2.16620   2.16643   2.16649   2.16671   2.16728
 Alpha virt. eigenvalues --    2.16735   2.16831   2.18214   2.18225   2.18253
 Alpha virt. eigenvalues --    2.18271   2.19212   2.19228   2.19747   2.19933
 Alpha virt. eigenvalues --    2.24528   2.24561   2.24974   2.25007   2.25013
 Alpha virt. eigenvalues --    2.25016   2.26328   2.26351   2.26355   2.26415
 Alpha virt. eigenvalues --    2.26786   2.26830   2.28684   2.28699   2.28718
 Alpha virt. eigenvalues --    2.28814   2.28931   2.29010   2.29603   2.29677
 Alpha virt. eigenvalues --    2.30783   2.30845   2.30868   2.30915   2.30944
 Alpha virt. eigenvalues --    2.31082   2.32135   2.32175   2.34443   2.34653
 Alpha virt. eigenvalues --    2.34824   2.34866   2.34887   2.34983   2.35220
 Alpha virt. eigenvalues --    2.35487   2.36040   2.36216   2.36244   2.36672
 Alpha virt. eigenvalues --    2.36716   2.36827   2.37862   2.37885   2.38344
 Alpha virt. eigenvalues --    2.38387   2.38407   2.38423   2.38662   2.38680
 Alpha virt. eigenvalues --    2.38691   2.38701   2.39062   2.39177   2.39348
 Alpha virt. eigenvalues --    2.39493   2.42230   2.42311   2.42761   2.42761
 Alpha virt. eigenvalues --    2.42766   2.42789   2.42928   2.42939   2.43087
 Alpha virt. eigenvalues --    2.43099   2.43100   2.43126   2.43189   2.43236
 Alpha virt. eigenvalues --    2.43323   2.43345   2.43857   2.43968   2.46443
 Alpha virt. eigenvalues --    2.46479   2.46537   2.46551   2.47526   2.47527
 Alpha virt. eigenvalues --    2.47632   2.47831   2.48231   2.48234   2.48299
 Alpha virt. eigenvalues --    2.48307   2.48477   2.48571   2.48582   2.48619
 Alpha virt. eigenvalues --    2.48629   2.48811   2.49452   2.49459   2.50479
 Alpha virt. eigenvalues --    2.50607   2.50646   2.50676   2.50687   2.50865
 Alpha virt. eigenvalues --    2.50875   2.50879   2.50884   2.50919   2.51207
 Alpha virt. eigenvalues --    2.51214   2.51556   2.51563   2.53278   2.53552
 Alpha virt. eigenvalues --    2.54016   2.54124   2.54448   2.54617   2.54667
 Alpha virt. eigenvalues --    2.54693   2.54762   2.55055   2.55135   2.55212
 Alpha virt. eigenvalues --    2.55240   2.55278   2.55722   2.55858   2.56903
 Alpha virt. eigenvalues --    2.56923   2.59217   2.59367   2.63340   2.63345
 Alpha virt. eigenvalues --    2.64479   2.64494   2.64506   2.64568   2.64842
 Alpha virt. eigenvalues --    2.64902   2.67445   2.67461   2.69845   2.69888
 Alpha virt. eigenvalues --    2.69895   2.69903   2.69993   2.70008   2.72626
 Alpha virt. eigenvalues --    2.72671   2.74007   2.74028   2.74044   2.74131
 Alpha virt. eigenvalues --    2.74346   2.74369   2.74966   2.75026   2.75343
 Alpha virt. eigenvalues --    2.75348   2.75383   2.75407   2.75655   2.75677
 Alpha virt. eigenvalues --    2.75731   2.75862   2.76534   2.76580   2.76585
 Alpha virt. eigenvalues --    2.76663   2.76705   2.76706   2.77516   2.77555
 Alpha virt. eigenvalues --    2.77598   2.77600   2.77727   2.77729   2.77933
 Alpha virt. eigenvalues --    2.78281   2.79497   2.79502   2.79544   2.79579
 Alpha virt. eigenvalues --    2.79701   2.79755   2.80849   2.80928   2.81863
 Alpha virt. eigenvalues --    2.81890   2.86083   2.86094   2.86115   2.86117
 Alpha virt. eigenvalues --    2.86316   2.86386   2.87502   2.87513   2.89292
 Alpha virt. eigenvalues --    2.89302   2.89352   2.89352   2.89391   2.89408
 Alpha virt. eigenvalues --    2.89424   2.89429   2.89453   2.89486   2.89796
 Alpha virt. eigenvalues --    2.89803   2.89999   2.90097   2.91340   2.91349
 Alpha virt. eigenvalues --    2.91439   2.91440   2.91486   2.91517   2.92067
 Alpha virt. eigenvalues --    2.92087   2.92628   2.92632   2.93163   2.93189
 Alpha virt. eigenvalues --    2.93190   2.93268   2.94655   2.94664   2.94827
 Alpha virt. eigenvalues --    2.94865   2.95367   2.95395   2.95465   2.95520
 Alpha virt. eigenvalues --    2.96701   2.96707   2.97262   2.97265   2.97321
 Alpha virt. eigenvalues --    2.97329   2.99394   2.99461   2.99469   2.99496
 Alpha virt. eigenvalues --    2.99774   2.99976   3.00785   3.00824   3.00827
 Alpha virt. eigenvalues --    3.00915   3.01000   3.01142   3.01891   3.01959
 Alpha virt. eigenvalues --    3.03141   3.03227   3.03708   3.03789   3.04352
 Alpha virt. eigenvalues --    3.04356   3.04422   3.04510   3.04535   3.04546
 Alpha virt. eigenvalues --    3.05369   3.05396   3.05400   3.05422   3.05851
 Alpha virt. eigenvalues --    3.05854   3.05876   3.05893   3.06330   3.06344
 Alpha virt. eigenvalues --    3.06484   3.06511   3.06593   3.06617   3.07404
 Alpha virt. eigenvalues --    3.07480   3.07481   3.07492   3.07635   3.07679
 Alpha virt. eigenvalues --    3.07685   3.07696   3.07698   3.08162   3.08171
 Alpha virt. eigenvalues --    3.08307   3.09334   3.09342   3.09693   3.09791
 Alpha virt. eigenvalues --    3.11592   3.11662   3.11747   3.11922   3.12541
 Alpha virt. eigenvalues --    3.12560   3.13448   3.13460   3.13466   3.13471
 Alpha virt. eigenvalues --    3.13601   3.13624   3.14690   3.15008   3.15652
 Alpha virt. eigenvalues --    3.15658   3.15826   3.15964   3.16262   3.16320
 Alpha virt. eigenvalues --    3.16500   3.16523   3.16536   3.16580   3.16838
 Alpha virt. eigenvalues --    3.16850   3.16890   3.17039   3.17963   3.18137
 Alpha virt. eigenvalues --    3.18269   3.18534   3.18598   3.18606   3.18660
 Alpha virt. eigenvalues --    3.18667   3.18809   3.18942   3.18954   3.19052
 Alpha virt. eigenvalues --    3.19303   3.19352   3.19357   3.19430   3.19433
 Alpha virt. eigenvalues --    3.19455   3.19618   3.19737   3.20531   3.20736
 Alpha virt. eigenvalues --    3.20845   3.20845   3.20914   3.20967   3.21173
 Alpha virt. eigenvalues --    3.21252   3.22002   3.22033   3.24198   3.24215
 Alpha virt. eigenvalues --    3.24217   3.24257   3.24271   3.24369   3.24509
 Alpha virt. eigenvalues --    3.24582   3.24882   3.25046   3.25440   3.25932
 Alpha virt. eigenvalues --    3.25945   3.26121   3.28336   3.28342   3.28440
 Alpha virt. eigenvalues --    3.28450   3.28583   3.29012   3.31567   3.31621
 Alpha virt. eigenvalues --    3.31637   3.31744   3.31932   3.31942   3.32068
 Alpha virt. eigenvalues --    3.32140   3.32158   3.32162   3.32398   3.32413
 Alpha virt. eigenvalues --    3.33977   3.34196   3.34243   3.34334   3.34520
 Alpha virt. eigenvalues --    3.34636   3.35516   3.35533   3.35690   3.35820
 Alpha virt. eigenvalues --    3.35990   3.36056   3.36084   3.36149   3.37452
 Alpha virt. eigenvalues --    3.37553   3.38947   3.39008   3.39063   3.39101
 Alpha virt. eigenvalues --    3.39150   3.39252   3.39396   3.39742   3.39822
 Alpha virt. eigenvalues --    3.39901   3.39907   3.39984   3.40107   3.40108
 Alpha virt. eigenvalues --    3.40144   3.40212   3.40270   3.40300   3.40513
 Alpha virt. eigenvalues --    3.40760   3.40900   3.41126   3.41390   3.41531
 Alpha virt. eigenvalues --    3.41913   3.42006   3.42029   3.43232   3.44369
 Alpha virt. eigenvalues --    3.44484   3.44866   3.44927   3.46242   3.46255
 Alpha virt. eigenvalues --    3.46259   3.46289   3.47026   3.47280   3.48769
 Alpha virt. eigenvalues --    3.48793   3.48796   3.48813   3.48929   3.48940
 Alpha virt. eigenvalues --    3.49793   3.49794   3.50082   3.50082   3.50144
 Alpha virt. eigenvalues --    3.50197   3.50472   3.50487   3.53566   3.53573
 Alpha virt. eigenvalues --    3.53766   3.53802   3.54060   3.54065   3.54123
 Alpha virt. eigenvalues --    3.54134   3.54148   3.54153   3.54158   3.54239
 Alpha virt. eigenvalues --    3.54615   3.54676   3.54717   3.54745   3.54977
 Alpha virt. eigenvalues --    3.54989   3.56306   3.56342   3.56350   3.56369
 Alpha virt. eigenvalues --    3.56515   3.56571   3.57780   3.57911   3.58521
 Alpha virt. eigenvalues --    3.58558   3.59922   3.59938   3.59946   3.60015
 Alpha virt. eigenvalues --    3.60233   3.60346   3.61972   3.61978   3.62060
 Alpha virt. eigenvalues --    3.62093   3.62130   3.62184   3.63113   3.63209
 Alpha virt. eigenvalues --    3.64317   3.64322   3.64329   3.64374   3.65156
 Alpha virt. eigenvalues --    3.65157   3.67732   3.67740   3.68023   3.68027
 Alpha virt. eigenvalues --    3.68038   3.68059   3.68354   3.68500   3.70459
 Alpha virt. eigenvalues --    3.70459   3.70501   3.70502   3.70595   3.70595
 Alpha virt. eigenvalues --    3.71381   3.71391   3.72269   3.72348   3.73353
 Alpha virt. eigenvalues --    3.73382   3.73402   3.73415   3.74216   3.74245
 Alpha virt. eigenvalues --    3.74362   3.74374   3.74415   3.74497   3.76040
 Alpha virt. eigenvalues --    3.76052   3.76972   3.77007   3.77611   3.77862
 Alpha virt. eigenvalues --    3.79752   3.79762   3.79931   3.79972   3.81421
 Alpha virt. eigenvalues --    3.81477   3.81699   3.81848   3.82778   3.83264
 Alpha virt. eigenvalues --    3.84512   3.84882   3.85867   3.85952   3.86085
 Alpha virt. eigenvalues --    3.86343   3.90265   3.90341   3.93058   3.93075
 Alpha virt. eigenvalues --    3.93091   3.93211   3.95995   3.96003   3.96034
 Alpha virt. eigenvalues --    3.96180   3.96345   3.96679   3.98871   3.98879
 Alpha virt. eigenvalues --    4.00064   4.00072   4.00078   4.00109   4.00112
 Alpha virt. eigenvalues --    4.00122   4.00174   4.00219   4.03439   4.03605
 Alpha virt. eigenvalues --    4.05298   4.05394   4.06367   4.06399   4.06453
 Alpha virt. eigenvalues --    4.06606   4.07188   4.07189   4.07216   4.07255
 Alpha virt. eigenvalues --    4.08056   4.08225   4.09914   4.09935   4.09942
 Alpha virt. eigenvalues --    4.09947   4.11117   4.11138   4.12916   4.12919
 Alpha virt. eigenvalues --    4.13729   4.13738   4.15526   4.15544   4.19664
 Alpha virt. eigenvalues --    4.19668   4.19680   4.19695   4.21964   4.21968
 Alpha virt. eigenvalues --    4.24028   4.24126   4.25141   4.25158   4.25174
 Alpha virt. eigenvalues --    4.25201   4.26831   4.26832   4.32265   4.32292
 Alpha virt. eigenvalues --    4.32293   4.32315   4.32403   4.32528   4.34489
 Alpha virt. eigenvalues --    4.34541   4.34783   4.34805   4.34978   4.34979
 Alpha virt. eigenvalues --    4.34993   4.35053   4.37106   4.37111   4.39952
 Alpha virt. eigenvalues --    4.39960   4.41516   4.41535   4.41571   4.41593
 Alpha virt. eigenvalues --    4.42274   4.42302   4.47947   4.47964   4.48545
 Alpha virt. eigenvalues --    4.48547   4.48568   4.48577   4.50459   4.50478
 Alpha virt. eigenvalues --    4.57943   4.57955   4.61668   4.61684   4.61885
 Alpha virt. eigenvalues --    4.61890   4.61915   4.61933   4.66063   4.66077
 Alpha virt. eigenvalues --    4.70426   4.70426   4.74079   4.74079   4.75268
 Alpha virt. eigenvalues --    4.75272   4.75272   4.75273   4.78385   4.78386
 Alpha virt. eigenvalues --    4.78388   4.78393   4.79957   4.79965   4.82678
 Alpha virt. eigenvalues --    4.82679   4.84859   4.84861   4.91229   4.91229
 Alpha virt. eigenvalues --    4.91231   4.91233   4.96429   4.96430   4.96431
 Alpha virt. eigenvalues --    4.96432   4.97458   4.97461   4.99306   4.99307
 Alpha virt. eigenvalues --    5.01222   5.01233   5.01567   5.01568   5.01803
 Alpha virt. eigenvalues --    5.01837   5.03099   5.03100   5.03103   5.03104
 Alpha virt. eigenvalues --    5.03418   5.03421   5.11967   5.11975   5.12763
 Alpha virt. eigenvalues --    5.12765   5.12766   5.12773   5.18325   5.18325
 Alpha virt. eigenvalues --    5.18327   5.18328   5.23572   5.23590   5.30278
 Alpha virt. eigenvalues --    5.30296   5.30653   5.30655   5.30669   5.30674
 Alpha virt. eigenvalues --    5.36679   5.36700   5.40040   5.40044   5.40057
 Alpha virt. eigenvalues --    5.40059   5.40629   5.40640   5.43296   5.43320
 Alpha virt. eigenvalues --    5.43337   5.43346   5.47458   5.47479   5.54993
 Alpha virt. eigenvalues --    5.55005   5.63856   5.63868   5.66086   5.66090
 Alpha virt. eigenvalues --    5.66115   5.66121   5.67474   5.67517   5.89432
 Alpha virt. eigenvalues --    5.89434   5.95299   5.95315   6.09731   6.09747
 Alpha virt. eigenvalues --    6.58650   6.58651   6.59389   6.59389   6.60427
 Alpha virt. eigenvalues --    6.60427   6.61767   6.61767   6.61767   6.61767
 Alpha virt. eigenvalues --    6.74979   6.74980   6.74981   6.74982  21.59495
 Alpha virt. eigenvalues --   21.59966  21.72963  21.73044  21.73049  21.73437
 Alpha virt. eigenvalues --   21.76400  21.76632  21.92618  21.92707  22.01721
 Alpha virt. eigenvalues --   22.01761  22.01794  22.01988  22.08223  22.08502
 Alpha virt. eigenvalues --   22.14812  22.15196  22.17142  22.17282  22.17512
 Alpha virt. eigenvalues --   22.17549  22.18278  22.18593  22.18688  22.18689
 Alpha virt. eigenvalues --   22.18825  22.18833  22.19263  22.19753  22.23857
 Alpha virt. eigenvalues --   22.24093  22.45008  22.45043  22.45050  22.45270
 Alpha virt. eigenvalues --   22.45427  22.45669  22.45934  22.47198  22.54568
 Alpha virt. eigenvalues --   22.54626  22.56063  22.56081  22.56097  22.56119
 Alpha virt. eigenvalues --   22.58011  22.58048  22.64406  22.64501  22.70682
 Alpha virt. eigenvalues --   22.70727  22.70738  22.70812  22.77260  22.77275
 Alpha virt. eigenvalues --   23.29505  23.29545  23.32886  23.32894  23.32924
 Alpha virt. eigenvalues --   23.33010  23.38965  23.39044  32.10557  32.10558
 Alpha virt. eigenvalues --   32.10560  32.10574  32.14250  32.14265  32.45813
 Alpha virt. eigenvalues --   32.45821  32.52772  32.52792  32.52793  32.52805
 Alpha virt. eigenvalues --   32.53907  32.53945  32.59966  32.60026
          Condensed to atoms (all electrons):
 Mulliken charges:
               1
     1  C   -0.088139
     2  C   -0.088129
     3  C   -0.202029
     4  C    0.091373
     5  C    0.091739
     6  C   -0.201510
     7  C    0.330883
     8  C    0.330894
     9  N   -0.269084
    10  N   -0.534114
    11  N   -0.533844
    12  H    0.122206
    13  H    0.122264
    14  H    0.139929
    15  H    0.139850
    16  C   -0.086087
    17  C   -0.086087
    18  C   -0.204577
    19  C    0.093295
    20  C    0.093295
    21  C   -0.204577
    22  C    0.330733
    23  C    0.330733
    24  N   -0.269316
    25  N   -0.533844
    26  H    0.124211
    27  H    0.124211
    28  H    0.139227
    29  H    0.139227
    30  C   -0.088143
    31  C   -0.088143
    32  C   -0.201561
    33  C    0.091623
    34  C    0.091623
    35  C   -0.201561
    36  C    0.330895
    37  C    0.330895
    38  N   -0.269091
    39  N   -0.534114
    40  H    0.122207
    41  H    0.122207
    42  H    0.139733
    43  H    0.139733
    44  C   -0.088129
    45  C   -0.088139
    46  C   -0.201510
    47  C    0.091739
    48  C    0.091373
    49  C   -0.202029
    50  C    0.330894
    51  C    0.330883
    52  N   -0.269084
    53  H    0.122264
    54  H    0.122206
    55  H    0.139850
    56  H    0.139929
    57  Zn   0.050718
    58  C   -0.088129
    59  C   -0.088139
    60  C   -0.201510
    61  C    0.091739
    62  C    0.091373
    63  C   -0.202029
    64  C    0.330894
    65  C    0.330883
    66  N   -0.269084
    67  N   -0.533844
    68  N   -0.534114
    69  H    0.122264
    70  H    0.122206
    71  H    0.139850
    72  H    0.139929
    73  C   -0.088143
    74  C   -0.088143
    75  C   -0.201561
    76  C    0.091623
    77  C    0.091623
    78  C   -0.201561
    79  C    0.330895
    80  C    0.330895
    81  N   -0.269091
    82  N   -0.534114
    83  H    0.122207
    84  H    0.122207
    85  H    0.139733
    86  H    0.139733
    87  C   -0.086087
    88  C   -0.086087
    89  C   -0.204577
    90  C    0.093295
    91  C    0.093295
    92  C   -0.204577
    93  C    0.330733
    94  C    0.330733
    95  N   -0.269316
    96  N   -0.533844
    97  H    0.124211
    98  H    0.124211
    99  H    0.139227
   100  H    0.139227
   101  C   -0.088139
   102  C   -0.088129
   103  C   -0.202029
   104  C    0.091373
   105  C    0.091739
   106  C   -0.201510
   107  C    0.330883
   108  C    0.330894
   109  N   -0.269084
   110  H    0.122206
   111  H    0.122264
   112  H    0.139929
   113  H    0.139850
   114  Zn   0.050718
 Sum of Mulliken charges =  -0.00000
 Mulliken charges with hydrogens summed into heavy atoms:
               1
     1  C    0.034066
     2  C    0.034135
     3  C   -0.062100
     4  C    0.091373
     5  C    0.091739
     6  C   -0.061660
     7  C    0.330883
     8  C    0.330894
     9  N   -0.269084
    10  N   -0.534114
    11  N   -0.533844
    16  C    0.038125
    17  C    0.038125
    18  C   -0.065349
    19  C    0.093295
    20  C    0.093295
    21  C   -0.065349
    22  C    0.330733
    23  C    0.330733
    24  N   -0.269316
    25  N   -0.533844
    30  C    0.034064
    31  C    0.034064
    32  C   -0.061829
    33  C    0.091623
    34  C    0.091623
    35  C   -0.061829
    36  C    0.330895
    37  C    0.330895
    38  N   -0.269091
    39  N   -0.534114
    44  C    0.034135
    45  C    0.034066
    46  C   -0.061660
    47  C    0.091739
    48  C    0.091373
    49  C   -0.062100
    50  C    0.330894
    51  C    0.330883
    52  N   -0.269084
    57  Zn   0.050718
    58  C    0.034135
    59  C    0.034066
    60  C   -0.061660
    61  C    0.091739
    62  C    0.091373
    63  C   -0.062100
    64  C    0.330894
    65  C    0.330883
    66  N   -0.269084
    67  N   -0.533844
    68  N   -0.534114
    73  C    0.034064
    74  C    0.034064
    75  C   -0.061829
    76  C    0.091623
    77  C    0.091623
    78  C   -0.061829
    79  C    0.330895
    80  C    0.330895
    81  N   -0.269091
    82  N   -0.534114
    87  C    0.038125
    88  C    0.038125
    89  C   -0.065349
    90  C    0.093295
    91  C    0.093295
    92  C   -0.065349
    93  C    0.330733
    94  C    0.330733
    95  N   -0.269316
    96  N   -0.533844
   101  C    0.034066
   102  C    0.034135
   103  C   -0.062100
   104  C    0.091373
   105  C    0.091739
   106  C   -0.061660
   107  C    0.330883
   108  C    0.330894
   109  N   -0.269084
   114  Zn   0.050718
 Electronic spatial extent (au):  <R**2>=         160069.2523
 Charge=             -0.0000 electrons
 Dipole moment (field-independent basis, Debye):
    X=             -0.0000    Y=              0.0000    Z=             -0.0000  Tot=              0.0000
 Quadrupole moment (field-independent basis, Debye-Ang):
   XX=           -497.6527   YY=           -422.6442   ZZ=           -420.5647
   XY=             -0.4644   XZ=             -0.0000   YZ=             -0.0000
 Traceless Quadrupole moment (field-independent basis, Debye-Ang):
   XX=            -50.6988   YY=             24.3097   ZZ=             26.3892
   XY=             -0.4644   XZ=             -0.0000   YZ=             -0.0000
 Octapole moment (field-independent basis, Debye-Ang**2):
  XXX=             -0.0000  YYY=              0.0000  ZZZ=             -0.0000  XYY=              0.0000
  XXY=              0.0000  XXZ=              0.0000  XZZ=              0.0000  YZZ=              0.0000
  YYZ=             -0.0000  XYZ=             -0.0000
 Hexadecapole moment (field-independent basis, Debye-Ang**3):
 XXXX=         -19227.4347 YYYY=        -150394.4229 ZZZZ=         -26670.0708 XXXY=         -26142.3956
 XXXZ=             -0.0000 YYYX=         -22086.8788 YYYZ=              0.0000 ZZZX=              0.0000
 ZZZY=              0.0000 XXYY=         -32823.2767 XXZZ=          -8418.9794 YYZZ=         -30254.2518
 XXYZ=             -0.0000 YYXZ=             -0.0000 ZZXY=          -7353.5973
 N-N= 1.328092850786D+04 E-N=-4.282702536200D+04  KE= 6.867866661716D+03
 Symmetry AG   KE= 2.420421470138D+03
 Symmetry BG   KE= 1.013497934621D+03
 Symmetry AU   KE= 1.013477033217D+03
 Symmetry BU   KE= 2.420470223740D+03

 Test job not archived.
 1\1\ WCSS.PL-BEM-KETKOV-PC2\SP\RLC-BLYP TD-FC\Gen\C64H32N16Zn2\SERGEY\
 12-Apr-2026\0\\# td(nstates=4) lc-blyp/gen iop(3/107=0350000000,3/108=
 0350000000) geom=check guess=read\\def2tzvp-f, monomer geom r2scan-3c\
 \0,1\C,0,0.701663,6.554204,0.\C,0,-0.701663,6.554204,0.\C,0,1.422571,5
 .364926,0.\C,0,0.703967,4.174565,0.\C,0,-0.703967,4.174565,0.\C,0,-1.4
 22571,5.364926,0.\C,0,1.120422,2.78002,0.\C,0,-1.120422,2.78002,0.\N,0
 ,0.,1.989101,0.\N,0,-2.390568,2.390568,0.\N,0,2.390568,2.390568,0.\H,0
 ,1.231071,7.50255,0.\H,0,-1.231071,7.50255,0.\H,0,2.508027,5.356475,0.
 \H,0,-2.508027,5.356475,0.\C,0,6.554204,-0.701663,0.\C,0,6.554204,0.70
 1663,0.\C,0,5.364926,-1.422571,0.\C,0,4.174565,-0.703967,0.\C,0,4.1745
 65,0.703967,0.\C,0,5.364926,1.422571,0.\C,0,2.78002,-1.120422,0.\C,0,2
 .78002,1.120422,0.\N,0,1.989101,0.,0.\N,0,2.390568,-2.390568,0.\H,0,7.
 50255,-1.231071,0.\H,0,7.50255,1.231071,0.\H,0,5.356475,-2.508027,0.\H
 ,0,5.356475,2.508027,0.\C,0,-6.554204,0.701663,0.\C,0,-6.554204,-0.701
 663,0.\C,0,-5.364926,1.422571,0.\C,0,-4.174565,0.703967,0.\C,0,-4.1745
 65,-0.703967,0.\C,0,-5.364926,-1.422571,0.\C,0,-2.78002,1.120422,0.\C,
 0,-2.78002,-1.120422,0.\N,0,-1.989101,0.,0.\N,0,-2.390568,-2.390568,0.
 \H,0,-7.50255,1.231071,0.\H,0,-7.50255,-1.231071,0.\H,0,-5.356475,2.50
 8027,0.\H,0,-5.356475,-2.508027,0.\C,0,-0.701663,-6.554204,0.\C,0,0.70
 1663,-6.554204,0.\C,0,-1.422571,-5.364926,0.\C,0,-0.703967,-4.174565,0
 .\C,0,0.703967,-4.174565,0.\C,0,1.422571,-5.364926,0.\C,0,-1.120422,-2
 .78002,0.\C,0,1.120422,-2.78002,0.\N,0,0.,-1.989101,0.\H,0,-1.231071,-
 7.50255,0.\H,0,1.231071,-7.50255,0.\H,0,-2.508027,-5.356475,0.\H,0,2.5
 08027,-5.356475,0.\Zn,0,0.,0.,0.\C,0,14.701663,6.554204,5.\C,0,13.2983
 37,6.554204,5.\C,0,15.422571,5.364926,5.\C,0,14.703967,4.174565,5.\C,0
 ,13.296033,4.174565,5.\C,0,12.577429,5.364926,5.\C,0,15.120422,2.78002
 ,5.\C,0,12.879578,2.78002,5.\N,0,14.,1.989101,5.\N,0,11.609432,2.39056
 8,5.\N,0,16.390568,2.390568,5.\H,0,15.231071,7.50255,5.\H,0,12.768929,
 7.50255,5.\H,0,16.508027,5.356475,5.\H,0,11.491973,5.356475,5.\C,0,20.
 554204,-0.701663,5.\C,0,20.554204,0.701663,5.\C,0,19.364926,-1.422571,
 5.\C,0,18.174565,-0.703967,5.\C,0,18.174565,0.703967,5.\C,0,19.364926,
 1.422571,5.\C,0,16.78002,-1.120422,5.\C,0,16.78002,1.120422,5.\N,0,15.
 989101,0.,5.\N,0,16.390568,-2.390568,5.\H,0,21.50255,-1.231071,5.\H,0,
 21.50255,1.231071,5.\H,0,19.356475,-2.508027,5.\H,0,19.356475,2.508027
 ,5.\C,0,7.445796,0.701663,5.\C,0,7.445796,-0.701663,5.\C,0,8.635074,1.
 422571,5.\C,0,9.825435,0.703967,5.\C,0,9.825435,-0.703967,5.\C,0,8.635
 074,-1.422571,5.\C,0,11.21998,1.120422,5.\C,0,11.21998,-1.120422,5.\N,
 0,12.010899,0.,5.\N,0,11.609432,-2.390568,5.\H,0,6.49745,1.231071,5.\H
 ,0,6.49745,-1.231071,5.\H,0,8.643525,2.508027,5.\H,0,8.643525,-2.50802
 7,5.\C,0,13.298337,-6.554204,5.\C,0,14.701663,-6.554204,5.\C,0,12.5774
 29,-5.364926,5.\C,0,13.296033,-4.174565,5.\C,0,14.703967,-4.174565,5.\
 C,0,15.422571,-5.364926,5.\C,0,12.879578,-2.78002,5.\C,0,15.120422,-2.
 78002,5.\N,0,14.,-1.989101,5.\H,0,12.768929,-7.50255,5.\H,0,15.231071,
 -7.50255,5.\H,0,11.491973,-5.356475,5.\H,0,16.508027,-5.356475,5.\Zn,0
 ,14.,0.,5.\\Version=ES64L-G09RevE.01\State=1-AG\HF=-6885.1679845\RMSD=
 9.152e-09\PG=C02H [SGH(N4Zn2),X(C64H32N12)]\\@


 THERE IS NOTHING NOBLE IN BEING SUPERIOR TO SOME OTHER MAN.
 TRUE NOBILITY IS BEING SUPERIOR TO YOUR FORMER SELF.

                                                   -- HINDU PROVERB
 Job cpu time:       0 days  9 hours 17 minutes 32.7 seconds.
 File lengths (MBytes):  RWF=   6949 Int=      0 D2E=      0 Chk=    886 Scr=      1
 Normal termination of Gaussian 09 at Sun Apr 12 03:30:25 2026.
