 Entering Gaussian System, Link 0=g09
 Input=ZnPc2_50_180.gjf
 Output=ZnPc2_50_180.log
 Initial command:
 /home/sergey/g09/l1.exe "/home/sergey/scratch/Gau-19413.inp" -scrdir="/home/sergey/scratch/"
 Entering Link 1 = /home/sergey/g09/l1.exe PID=     19415.
  
 Copyright (c) 1988,1990,1992,1993,1995,1998,2003,2009,2015,
            Gaussian, Inc.  All Rights Reserved.
  
 This is part of the Gaussian(R) 09 program.  It is based on
 the Gaussian(R) 03 system (copyright 2003, Gaussian, Inc.),
 the Gaussian(R) 98 system (copyright 1998, Gaussian, Inc.),
 the Gaussian(R) 94 system (copyright 1995, Gaussian, Inc.),
 the Gaussian 92(TM) system (copyright 1992, Gaussian, Inc.),
 the Gaussian 90(TM) system (copyright 1990, Gaussian, Inc.),
 the Gaussian 88(TM) system (copyright 1988, Gaussian, Inc.),
 the Gaussian 86(TM) system (copyright 1986, Carnegie Mellon
 University), and the Gaussian 82(TM) system (copyright 1983,
 Carnegie Mellon University). Gaussian is a federally registered
 trademark of Gaussian, Inc.
  
 This software contains proprietary and confidential information,
 including trade secrets, belonging to Gaussian, Inc.
  
 This software is provided under written license and may be
 used, copied, transmitted, or stored only in accord with that
 written license.
  
 The following legend is applicable only to US Government
 contracts under FAR:
  
                    RESTRICTED RIGHTS LEGEND
  
 Use, reproduction and disclosure by the US Government is
 subject to restrictions as set forth in subparagraphs (a)
 and (c) of the Commercial Computer Software - Restricted
 Rights clause in FAR 52.227-19.
  
 Gaussian, Inc.
 340 Quinnipiac St., Bldg. 40, Wallingford CT 06492
  
  
 ---------------------------------------------------------------
 Warning -- This program may not be used in any manner that
 competes with the business of Gaussian, Inc. or will provide
 assistance to any competitor of Gaussian, Inc.  The licensee
 of this program is prohibited from giving any competitor of
 Gaussian, Inc. access to this program.  By using this program,
 the user acknowledges that Gaussian, Inc. is engaged in the
 business of creating and licensing software in the field of
 computational chemistry and represents and warrants to the
 licensee that it is not a competitor of Gaussian, Inc. and that
 it will not use this program in any manner prohibited above.
 ---------------------------------------------------------------
  

 Cite this work as:
 Gaussian 09, Revision E.01,
 M. J. Frisch, G. W. Trucks, H. B. Schlegel, G. E. Scuseria, 
 M. A. Robb, J. R. Cheeseman, G. Scalmani, V. Barone, B. Mennucci, 
 G. A. Petersson, H. Nakatsuji, M. Caricato, X. Li, H. P. Hratchian, 
 A. F. Izmaylov, J. Bloino, G. Zheng, J. L. Sonnenberg, M. Hada, 
 M. Ehara, K. Toyota, R. Fukuda, J. Hasegawa, M. Ishida, T. Nakajima, 
 Y. Honda, O. Kitao, H. Nakai, T. Vreven, J. A. Montgomery, Jr., 
 J. E. Peralta, F. Ogliaro, M. Bearpark, J. J. Heyd, E. Brothers, 
 K. N. Kudin, V. N. Staroverov, T. Keith, R. Kobayashi, J. Normand, 
 K. Raghavachari, A. Rendell, J. C. Burant, S. S. Iyengar, J. Tomasi, 
 M. Cossi, N. Rega, J. M. Millam, M. Klene, J. E. Knox, J. B. Cross, 
 V. Bakken, C. Adamo, J. Jaramillo, R. Gomperts, R. E. Stratmann, 
 O. Yazyev, A. J. Austin, R. Cammi, C. Pomelli, J. W. Ochterski, 
 R. L. Martin, K. Morokuma, V. G. Zakrzewski, G. A. Voth, 
 P. Salvador, J. J. Dannenberg, S. Dapprich, A. D. Daniels, 
 O. Farkas, J. B. Foresman, J. V. Ortiz, J. Cioslowski, 
 and D. J. Fox, Gaussian, Inc., Wallingford CT, 2013.
 
 ******************************************
 Gaussian 09:  ES64L-G09RevE.01 30-Nov-2015
                18-Apr-2026 
 ******************************************
 %chk=ZnPc2_50_180.chk
 %mem=16GB
 %nproc=6
 Will use up to    6 processors via shared memory.
 Default route:  MaxDisk=200GW
 --------------------------------------------------------
 # lc-blyp/def2svp iop(3/107=0350000000,3/108=0350000000)
 --------------------------------------------------------
 1/38=1/1;
 2/12=2,17=6,18=5,40=1/2;
 3/5=43,7=101,11=2,16=1,25=1,30=1,74=1000402,107=350000000,108=350000000/1,2,3;
 4//1;
 5/5=2,38=5/2;
 6/7=2,8=2,9=2,10=2,28=1/1;
 99/5=1,9=1/99;
 ----------------------
 monomer geom r2scan-3c
 ----------------------
 Symbolic Z-matrix:
 Charge =  0 Multiplicity = 1
 C                     0.70166   6.5542    0. 
 C                    -0.70166   6.5542    0. 
 C                     1.42257   5.36493   0. 
 C                     0.70397   4.17457   0. 
 C                    -0.70397   4.17457   0. 
 C                    -1.42257   5.36493   0. 
 C                     1.12042   2.78002   0. 
 C                    -1.12042   2.78002   0. 
 N                     0.        1.9891    0. 
 N                    -2.39057   2.39057   0. 
 N                     2.39057   2.39057   0. 
 H                     1.23107   7.50255   0. 
 H                    -1.23107   7.50255   0. 
 H                     2.50803   5.35648   0. 
 H                    -2.50803   5.35648   0. 
 C                     6.5542   -0.70166   0. 
 C                     6.5542    0.70166   0. 
 C                     5.36493  -1.42257   0. 
 C                     4.17457  -0.70397   0. 
 C                     4.17457   0.70397   0. 
 C                     5.36493   1.42257   0. 
 C                     2.78002  -1.12042   0. 
 C                     2.78002   1.12042   0. 
 N                     1.9891    0.        0. 
 N                     2.39057  -2.39057   0. 
 H                     7.50255  -1.23107   0. 
 H                     7.50255   1.23107   0. 
 H                     5.35648  -2.50803   0. 
 H                     5.35648   2.50803   0. 
 C                    -6.5542    0.70166   0. 
 C                    -6.5542   -0.70166   0. 
 C                    -5.36493   1.42257   0. 
 C                    -4.17457   0.70397   0. 
 C                    -4.17457  -0.70397   0. 
 C                    -5.36493  -1.42257   0. 
 C                    -2.78002   1.12042   0. 
 C                    -2.78002  -1.12042   0. 
 N                    -1.9891    0.        0. 
 N                    -2.39057  -2.39057   0. 
 H                    -7.50255   1.23107   0. 
 H                    -7.50255  -1.23107   0. 
 H                    -5.35648   2.50803   0. 
 H                    -5.35648  -2.50803   0. 
 C                    -0.70166  -6.5542    0. 
 C                     0.70166  -6.5542    0. 
 C                    -1.42257  -5.36493   0. 
 C                    -0.70397  -4.17457   0. 
 C                     0.70397  -4.17457   0. 
 C                     1.42257  -5.36493   0. 
 C                    -1.12042  -2.78002   0. 
 C                     1.12042  -2.78002   0. 
 N                     0.       -1.9891    0. 
 H                    -1.23107  -7.50255   0. 
 H                     1.23107  -7.50255   0. 
 H                    -2.50803  -5.35648   0. 
 H                     2.50803  -5.35648   0. 
 Zn                    0.        0.        0. 
 C                     18.70166   6.5542    5. 
 C                     17.29834   6.5542    5. 
 C                     19.42257   5.36493   5. 
 C                     18.70397   4.17457   5. 
 C                     17.29603   4.17457   5. 
 C                     16.57743   5.36493   5. 
 C                     19.12042   2.78002   5. 
 C                     16.87958   2.78002   5. 
 N                     18.       1.9891    5. 
 N                     15.60943   2.39057   5. 
 N                     20.39057   2.39057   5. 
 H                     19.23107   7.50255   5. 
 H                     16.76893   7.50255   5. 
 H                     20.50803   5.35648   5. 
 H                     15.49197   5.35648   5. 
 C                     24.5542  -0.70166   5. 
 C                     24.5542   0.70166   5. 
 C                     23.36493  -1.42257   5. 
 C                     22.17457  -0.70397   5. 
 C                     22.17457   0.70397   5. 
 C                     23.36493   1.42257   5. 
 C                     20.78002  -1.12042   5. 
 C                     20.78002   1.12042   5. 
 N                     19.9891   0.        5. 
 N                     20.39057  -2.39057   5. 
 H                     25.50255  -1.23107   5. 
 H                     25.50255   1.23107   5. 
 H                     23.35647  -2.50803   5. 
 H                     23.35647   2.50803   5. 
 C                     11.4458   0.70166   5. 
 C                     11.4458  -0.70166   5. 
 C                     12.63507   1.42257   5. 
 C                     13.82544   0.70397   5. 
 C                     13.82544  -0.70397   5. 
 C                     12.63507  -1.42257   5. 
 C                     15.21998   1.12042   5. 
 C                     15.21998  -1.12042   5. 
 N                     16.0109   0.        5. 
 N                     15.60943  -2.39057   5. 
 H                     10.49745   1.23107   5. 
 H                     10.49745  -1.23107   5. 
 H                     12.64353   2.50803   5. 
 H                     12.64353  -2.50803   5. 
 C                     17.29834  -6.5542    5. 
 C                     18.70166  -6.5542    5. 
 C                     16.57743  -5.36493   5. 
 C                     17.29603  -4.17457   5. 
 C                     18.70397  -4.17457   5. 
 C                     19.42257  -5.36493   5. 
 C                     16.87958  -2.78002   5. 
 C                     19.12042  -2.78002   5. 
 N                     18.      -1.9891    5. 
 H                     16.76893  -7.50255   5. 
 H                     19.23107  -7.50255   5. 
 H                     15.49197  -5.35648   5. 
 H                     20.50803  -5.35648   5. 
 Zn                    18.       0.        5. 
 
 Stoichiometry    C64H32N16Zn2
 Framework group  C2H[SGH(N4Zn2),X(C64H32N12)]
 Deg. of freedom    86
 Full point group                 C2H     NOp   4
 Largest Abelian subgroup         C2H     NOp   4
 Largest concise Abelian subgroup C2H     NOp   4
                         Standard orientation:                         
 ---------------------------------------------------------------------
 Center     Atomic      Atomic             Coordinates (Angstroms)
 Number     Number       Type             X           Y           Z
 ---------------------------------------------------------------------
      1          6           0        2.500000    8.298337    6.554204
      2          6           0        2.500000    9.701663    6.554204
      3          6           0        2.500000    7.577429    5.364926
      4          6           0        2.500000    8.296033    4.174565
      5          6           0        2.500000    9.703967    4.174565
      6          6           0        2.500000   10.422571    5.364926
      7          6           0        2.500000    7.879578    2.780020
      8          6           0        2.500000   10.120422    2.780020
      9          7           0        2.500000    9.000000    1.989101
     10          7           0        2.500000   11.390568    2.390568
     11          7           0        2.500000    6.609432    2.390568
     12          1           0        2.500000    7.768929    7.502550
     13          1           0        2.500000   10.231071    7.502550
     14          1           0        2.500000    6.491973    5.356475
     15          1           0        2.500000   11.508027    5.356475
     16          6           0        2.500000    2.445796   -0.701663
     17          6           0        2.500000    2.445796    0.701663
     18          6           0        2.500000    3.635074   -1.422571
     19          6           0        2.500000    4.825435   -0.703967
     20          6           0        2.500000    4.825435    0.703967
     21          6           0        2.500000    3.635074    1.422571
     22          6           0        2.500000    6.219980   -1.120422
     23          6           0        2.500000    6.219980    1.120422
     24          7           0        2.500000    7.010899    0.000000
     25          7           0        2.500000    6.609432   -2.390568
     26          1           0        2.500000    1.497450   -1.231071
     27          1           0        2.500000    1.497450    1.231071
     28          1           0        2.500000    3.643525   -2.508027
     29          1           0        2.500000    3.643525    2.508027
     30          6           0        2.500000   15.554204    0.701663
     31          6           0        2.500000   15.554204   -0.701663
     32          6           0        2.500000   14.364926    1.422571
     33          6           0        2.500000   13.174565    0.703967
     34          6           0        2.500000   13.174565   -0.703967
     35          6           0        2.500000   14.364926   -1.422571
     36          6           0        2.500000   11.780020    1.120422
     37          6           0        2.500000   11.780020   -1.120422
     38          7           0        2.500000   10.989101    0.000000
     39          7           0        2.500000   11.390568   -2.390568
     40          1           0        2.500000   16.502550    1.231071
     41          1           0        2.500000   16.502550   -1.231071
     42          1           0        2.500000   14.356475    2.508027
     43          1           0        2.500000   14.356475   -2.508027
     44          6           0        2.500000    9.701663   -6.554204
     45          6           0        2.500000    8.298337   -6.554204
     46          6           0        2.500000   10.422571   -5.364926
     47          6           0        2.500000    9.703967   -4.174565
     48          6           0        2.500000    8.296033   -4.174565
     49          6           0        2.500000    7.577429   -5.364926
     50          6           0        2.500000   10.120422   -2.780020
     51          6           0        2.500000    7.879578   -2.780020
     52          7           0        2.500000    9.000000   -1.989101
     53          1           0        2.500000   10.231071   -7.502550
     54          1           0        2.500000    7.768929   -7.502550
     55          1           0        2.500000   11.508027   -5.356475
     56          1           0        2.500000    6.491973   -5.356475
     57         30           0        2.500000    9.000000    0.000000
     58          6           0       -2.500000   -9.701663    6.554204
     59          6           0       -2.500000   -8.298337    6.554204
     60          6           0       -2.500000  -10.422571    5.364926
     61          6           0       -2.500000   -9.703967    4.174565
     62          6           0       -2.500000   -8.296033    4.174565
     63          6           0       -2.500000   -7.577429    5.364926
     64          6           0       -2.500000  -10.120422    2.780020
     65          6           0       -2.500000   -7.879578    2.780020
     66          7           0       -2.500000   -9.000000    1.989101
     67          7           0       -2.500000   -6.609432    2.390568
     68          7           0       -2.500000  -11.390568    2.390568
     69          1           0       -2.500000  -10.231071    7.502550
     70          1           0       -2.500000   -7.768929    7.502550
     71          1           0       -2.500000  -11.508027    5.356475
     72          1           0       -2.500000   -6.491973    5.356475
     73          6           0       -2.500000  -15.554204   -0.701663
     74          6           0       -2.500000  -15.554204    0.701663
     75          6           0       -2.500000  -14.364926   -1.422571
     76          6           0       -2.500000  -13.174565   -0.703967
     77          6           0       -2.500000  -13.174565    0.703967
     78          6           0       -2.500000  -14.364926    1.422571
     79          6           0       -2.500000  -11.780020   -1.120422
     80          6           0       -2.500000  -11.780020    1.120422
     81          7           0       -2.500000  -10.989101    0.000000
     82          7           0       -2.500000  -11.390568   -2.390568
     83          1           0       -2.500000  -16.502550   -1.231071
     84          1           0       -2.500000  -16.502550    1.231071
     85          1           0       -2.500000  -14.356475   -2.508027
     86          1           0       -2.500000  -14.356475    2.508027
     87          6           0       -2.500000   -2.445796    0.701663
     88          6           0       -2.500000   -2.445796   -0.701663
     89          6           0       -2.500000   -3.635074    1.422571
     90          6           0       -2.500000   -4.825435    0.703967
     91          6           0       -2.500000   -4.825435   -0.703967
     92          6           0       -2.500000   -3.635074   -1.422571
     93          6           0       -2.500000   -6.219980    1.120422
     94          6           0       -2.500000   -6.219980   -1.120422
     95          7           0       -2.500000   -7.010899    0.000000
     96          7           0       -2.500000   -6.609432   -2.390568
     97          1           0       -2.500000   -1.497450    1.231071
     98          1           0       -2.500000   -1.497450   -1.231071
     99          1           0       -2.500000   -3.643525    2.508027
    100          1           0       -2.500000   -3.643525   -2.508027
    101          6           0       -2.500000   -8.298337   -6.554204
    102          6           0       -2.500000   -9.701663   -6.554204
    103          6           0       -2.500000   -7.577429   -5.364926
    104          6           0       -2.500000   -8.296033   -4.174565
    105          6           0       -2.500000   -9.703967   -4.174565
    106          6           0       -2.500000  -10.422571   -5.364926
    107          6           0       -2.500000   -7.879578   -2.780020
    108          6           0       -2.500000  -10.120422   -2.780020
    109          7           0       -2.500000   -9.000000   -1.989101
    110          1           0       -2.500000   -7.768929   -7.502550
    111          1           0       -2.500000  -10.231071   -7.502550
    112          1           0       -2.500000   -6.491973   -5.356475
    113          1           0       -2.500000  -11.508027   -5.356475
    114         30           0       -2.500000   -9.000000    0.000000
 ---------------------------------------------------------------------
 Rotational constants (GHZ):      0.0419220      0.0045185      0.0041277
 Standard basis: def2SVP (5D, 7F)
 There are   372 symmetry adapted cartesian basis functions of AG  symmetry.
 There are   344 symmetry adapted cartesian basis functions of BG  symmetry.
 There are   344 symmetry adapted cartesian basis functions of AU  symmetry.
 There are   372 symmetry adapted cartesian basis functions of BU  symmetry.
 There are   347 symmetry adapted basis functions of AG  symmetry.
 There are   324 symmetry adapted basis functions of BG  symmetry.
 There are   324 symmetry adapted basis functions of AU  symmetry.
 There are   347 symmetry adapted basis functions of BU  symmetry.
  1342 basis functions,  2386 primitive gaussians,  1432 cartesian basis functions
   294 alpha electrons      294 beta electrons
       nuclear repulsion energy     12616.7654857008 Hartrees.
 NAtoms=  114 NActive=  114 NUniq=   30 SFac= 4.00D+00 NAtFMM=   60 NAOKFM=T Big=F
 Integral buffers will be    131072 words long.
 Raffenetti 2 integral format.
 Two-electron integral symmetry is turned on.
 One-electron integrals computed using PRISM.
   4 Symmetry operations used in ECPInt.
 ECPInt:  NShTT=  179101 NPrTT=  695647 LenC2=   74828 LenP2D=  177751.
 LDataN:  DoStor=T MaxTD1= 6 Len=  172
 NBasis=  1342 RedAO= T EigKep=  1.34D-04  NBF=   347   324   324   347
 NBsUse=  1342 1.00D-06 EigRej= -1.00D+00 NBFU=   347   324   324   347
 ExpMin= 4.23D-02 ExpMax= 8.20D+04 ExpMxC= 1.23D+04 IAcc=2 IRadAn=         4 AccDes= 0.00D+00
 Harris functional with IExCor=10402 and IRadAn=       4 diagonalized for initial guess.
 HarFok:  IExCor=10402 AccDes= 0.00D+00 IRadAn=         4 IDoV= 1 UseB2=F ITyADJ=14
 ICtDFT=  3500011 ScaDFX=  1.000000  1.000000  1.000000  1.000000
 FoFCou: FMM=F IPFlag=           0 FMFlag=      100000 FMFlg1=        2000
         NFxFlg=           0 DoJE=T BraDBF=F KetDBF=T FulRan=T
         wScrn=  0.000000 ICntrl=     500 IOpCl=  0 I1Cent=   200000004 NGrid=           0
         NMat0=    1 NMatS0=      1 NMatT0=    0 NMatD0=    1 NMtDS0=    0 NMtDT0=    0
 Petite list used in FoFCou.
 Initial guess orbital symmetries:
       Occupied  (BU) (AG) (BU) (AG) (BU) (BG) (AU) (AG) (BU) (AG)
                 (BU) (AU) (BG) (AG) (AG) (BU) (BU) (AG) (AG) (BU)
                 (AG) (BG) (AU) (BU) (BG) (AU) (AU) (BG) (AU) (BU)
                 (AG) (BG) (AU) (BG) (BU) (AG) (BU) (BG) (AU) (AG)
                 (BU) (AG) (AG) (BU) (AG) (BG) (AU) (BU) (AG) (BU)
                 (BG) (AU) (BG) (BU) (AG) (AU) (BG) (AU) (BG) (AU)
                 (BU) (AG) (BU) (BG) (AU) (AG) (BU) (AU) (BG) (AG)
                 (AU) (BG) (AG) (BU) (BG) (AU) (BG) (BU) (AG) (AU)
                 (AG) (BU) (BG) (AU) (AG) (BG) (AU) (BU) (AG) (BU)
                 (BU) (AG) (BU) (AU) (BG) (AG) (BU) (AG) (AG) (BU)
                 (AG) (BG) (AU) (BU) (AG) (BU) (BG) (AU) (AG) (AU)
                 (BG) (BU) (AG) (BU) (AG) (BU) (AG) (AU) (BG) (BU)
                 (AG) (BU) (AU) (BG) (AU) (AG) (BU) (BG) (AU) (BG)
                 (AG) (BU) (AG) (BG) (AU) (BU) (AG) (BU) (AU) (BG)
                 (AU) (AG) (BU) (BG) (AG) (BU) (AG) (AU) (BG) (BU)
                 (AG) (BU) (AU) (BG) (AG) (BU) (AU) (BU) (AG) (BG)
                 (AU) (BG) (AU) (BG) (AG) (BU) (AG) (AU) (BG) (BU)
                 (AG) (BU) (AU) (AG) (BU) (BG) (AG) (BU) (AG) (AU)
                 (BG) (BU) (AU) (BG) (AU) (BG) (AG) (BU) (AG) (AU)
                 (BG) (BU) (AG) (BU) (AU) (BG) (AG) (AU) (BG) (BU)
                 (BG) (AU) (AG) (BU) (AG) (AU) (BG) (BU) (AU) (BG)
                 (AG) (BU) (AG) (AU) (BG) (BU) (AG) (BU) (AG) (BU)
                 (AU) (BG) (AU) (AG) (BU) (BG) (AG) (BU) (AU) (BG)
                 (AG) (BU) (AG) (BU) (AG) (AU) (BG) (BU) (AG) (BG)
                 (AU) (BU) (AU) (BG) (AG) (BU) (AG) (BU) (AU) (BU)
                 (AG) (BG) (AG) (AU) (BG) (BU) (BU) (AG) (AU) (BG)
                 (AG) (AU) (BG) (BU) (AU) (BG) (AU) (BG) (AG) (AU)
                 (BG) (BU) (AG) (BU) (AG) (AU) (BG) (BU) (AG) (BU)
                 (AG) (BU) (AG) (BU) (BG) (AU) (AG) (AU) (BG) (BU)
                 (AU) (BG) (AG) (BU)
       Virtual   (AU) (AG) (BU) (BG) (AU) (BG) (AG) (BU) (AG) (BU)
                 (AG) (AU) (BG) (BU) (AU) (BG) (AU) (AG) (BU) (BG)
                 (AG) (BU) (AG) (BU) (AU) (BG) (AG) (BU) (AG) (AU)
                 (BG) (BU) (AG) (BU) (AG) (BU) (AU) (BG) (AG) (AU)
                 (BG) (BU) (AU) (AG) (BU) (BG) (AG) (BU) (AU) (BG)
                 (AU) (AG) (BU) (BG) (AU) (BG) (AG) (BU) (AU) (BG)
                 (AU) (BG) (AU) (AG) (BU) (BG) (AG) (BU) (AG) (BU)
                 (AU) (AG) (BU) (BG) (AU) (BG) (AU) (AG) (BU) (BG)
                 (AU) (BG) (AG) (BU) (BU) (AG) (AU) (BU) (AG) (BG)
                 (AU) (BG) (AG) (AU) (BG) (BU) (AU) (BG) (AU) (AG)
                 (BU) (BG) (AU) (BG) (AG) (BU) (AG) (AU) (BG) (BU)
                 (AU) (BG) (BU) (AG) (AG) (BU) (BU) (AU) (BG) (AG)
                 (AG) (BU) (AG) (BU) (BU) (AG) (BU) (AU) (BG) (AG)
                 (AG) (BG) (AU) (BU) (AG) (BU) (AU) (BG) (BG) (AU)
                 (BU) (AG) (AU) (BU) (AG) (BG) (AU) (BU) (AG) (BG)
                 (AU) (BG) (AG) (BU) (AU) (BG) (AG) (BG) (AU) (BU)
                 (BU) (AG) (AU) (BG) (BU) (AU) (BG) (AG) (AG) (BU)
                 (AU) (BG) (AG) (BU) (AU) (BU) (AG) (BG) (AG) (BU)
                 (AG) (AU) (BG) (BU) (AU) (AG) (BU) (BG) (BG) (AU)
                 (AG) (BU) (AU) (BG) (AG) (BU) (AG) (AU) (BG) (BU)
                 (AU) (AG) (BU) (BG) (AG) (BU) (AG) (BU) (AG) (AU)
                 (BG) (BU) (AU) (BG) (AG) (BU) (AU) (BG) (AU) (AG)
                 (BU) (BG) (BU) (AG) (BG) (AU) (AU) (BG) (AU) (AG)
                 (BU) (BG) (AG) (BU) (AG) (AU) (BG) (BU) (AU) (BG)
                 (AU) (BG) (AU) (BG) (AG) (BU) (AG) (AU) (BG) (BU)
                 (AG) (AU) (BG) (BU) (AU) (BG) (AG) (BU) (AU) (AG)
                 (BU) (BG) (AG) (BU) (AU) (BG) (AG) (AU) (BG) (BU)
                 (AU) (BG) (AU) (AG) (BU) (BG) (AG) (BU) (AU) (BG)
                 (AU) (AG) (BG) (BU) (AU) (AG) (BU) (BG) (AG) (BU)
                 (AG) (BU) (AG) (AU) (BG) (BU) (AG) (BU) (AU) (AG)
                 (BG) (BU) (AU) (BG) (AU) (AG) (BU) (BG) (AU) (BG)
                 (AU) (BG) (AG) (BU) (AG) (BU) (AG) (BU) (AU) (BU)
                 (AG) (BG) (AU) (AG) (BU) (BG) (AU) (BG) (AU) (BG)
                 (AU) (AG) (BU) (BG) (AG) (BU) (AU) (BG) (AU) (BG)
                 (AG) (AU) (BG) (BU) (AU) (BG) (AU) (BG) (AG) (AU)
                 (BG) (BU) (AG) (BU) (AG) (BU) (AU) (AG) (BU) (BG)
                 (AU) (BG) (AG) (BG) (AU) (BU) (BG) (AU) (BU) (AG)
                 (AG) (BG) (AU) (BU) (AG) (AU) (BG) (BU) (BU) (BG)
                 (AU) (AG) (AG) (BU) (BU) (AG) (AG) (BU) (AU) (BG)
                 (BG) (AU) (BG) (AG) (BU) (AU) (BG) (AU) (AG) (BU)
                 (AU) (BG) (AU) (BG) (AU) (AG) (BU) (BG) (AU) (BG)
                 (AU) (BG) (AU) (AG) (BU) (BG) (BU) (AG) (AG) (AU)
                 (BG) (BU) (BU) (BG) (AU) (AG) (AG) (BU) (AG) (BU)
                 (AG) (BU) (AG) (BG) (AU) (BU) (AU) (BG) (BU) (AG)
                 (AG) (AU) (BG) (BU) (BG) (AU) (AG) (BU) (AU) (BG)
                 (AG) (AU) (BG) (BU) (AU) (BG) (AG) (BU) (AG) (BU)
                 (AG) (AU) (BG) (BU) (AU) (BG) (AG) (BU) (AG) (AU)
                 (BG) (BU) (AG) (BU) (AG) (BU) (AG) (BU) (AG) (AU)
                 (BU) (BG) (AG) (AU) (BG) (BU) (AG) (BU) (AU) (BG)
                 (AU) (AG) (BU) (BG) (AU) (BG) (AG) (BU) (AG) (BU)
                 (AG) (AU) (BG) (BU) (AG) (BU) (AU) (BG) (AG) (AU)
                 (BG) (BU) (AU) (BG) (AG) (BU) (AG) (BU) (AG) (BU)
                 (AG) (AU) (BG) (BU) (AU) (BG) (AU) (AG) (BU) (BG)
                 (AU) (BG) (AG) (AU) (BG) (BU) (AG) (BU) (AU) (BG)
                 (AU) (BU) (AG) (BG) (AG) (AU) (BG) (BU) (AG) (BU)
                 (AU) (BG) (AG) (BU) (AU) (BG) (AU) (BG) (AU) (AG)
                 (BU) (BG) (BU) (AG) (AU) (BG) (AU) (AG) (BU) (BG)
                 (AG) (BU) (AU) (AG) (BU) (BG) (AU) (BG) (AU) (AG)
                 (BU) (BG) (AU) (AG) (BU) (BG) (BU) (AG) (AU) (BG)
                 (AG) (BU) (AG) (BU) (AG) (AU) (BG) (BU) (AG) (BU)
                 (AG) (BU) (BU) (AG) (AU) (BG) (AU) (AG) (BU) (BG)
                 (AU) (BG) (AG) (AU) (BG) (BU) (BG) (AU) (AU) (BG)
                 (AU) (AG) (BU) (BG) (AU) (AG) (BU) (BG) (AG) (BU)
                 (AG) (BU) (AG) (BU) (AG) (BU) (AG) (AU) (BG) (BU)
                 (AG) (BU) (AG) (AU) (BG) (BU) (AU) (BG) (AU) (BG)
                 (AU) (AG) (BU) (BG) (AU) (BG) (AG) (AU) (BG) (BU)
                 (AG) (BU) (AU) (BG) (AG) (AU) (BG) (BU) (BU) (AG)
                 (AU) (BG) (BU) (AU) (BG) (AG) (BU) (AG) (BU) (AG)
                 (AU) (BG) (AU) (BU) (AG) (BG) (AU) (BG) (AU) (BG)
                 (AU) (BU) (AG) (BG) (BU) (AG) (BU) (AG) (AG) (BU)
                 (AU) (BG) (AG) (AU) (BG) (BU) (AG) (BU) (AU) (BU)
                 (AG) (BG) (AU) (BG) (AG) (AU) (BG) (BU) (AG) (BU)
                 (AG) (BU) (AG) (AU) (BG) (BU) (AU) (BG) (AG) (BU)
                 (AG) (AU) (BG) (BU) (AU) (BG) (AG) (BU) (BU) (AG)
                 (AU) (BU) (AG) (BG) (AU) (AG) (BU) (BG) (AU) (BG)
                 (AG) (BU) (AG) (BU) (AG) (AU) (BG) (BU) (AU) (BG)
                 (AU) (BG) (AU) (BU) (AG) (BG) (BU) (AG) (AU) (BG)
                 (AG) (AU) (BG) (BU) (BU) (AG) (AU) (BG) (AU) (AG)
                 (BU) (BG) (AU) (BG) (AU) (BU) (AG) (BG) (AU) (BG)
                 (AU) (BG) (BU) (AG) (AU) (AG) (BU) (BG) (AU) (BG)
                 (AU) (BU) (AG) (BG) (AU) (BG) (AG) (BU) (AG) (AU)
                 (BG) (BU) (AG) (BU) (AG) (BU) (AU) (BG) (AG) (AU)
                 (BG) (BU) (AU) (BG) (AG) (BU) (AG) (BU) (AG) (AU)
                 (BG) (BU) (AU) (BG) (AU) (BU) (AG) (BG) (AU) (BG)
                 (AG) (BU) (AG) (BU) (AG) (AU) (BG) (BU) (AG) (BU)
                 (AG) (AU) (BG) (BU) (AG) (BU) (AU) (BG) (AU) (BG)
                 (AU) (AG) (BU) (BG) (BG) (AU) (AU) (BG) (AG) (BG)
                 (AU) (BU) (BG) (AU) (AU) (AG) (BU) (BG) (AG) (BU)
                 (BU) (AU) (BG) (AG) (BU) (AG) (AU) (BG) (AG) (BU)
                 (AU) (AG) (BU) (BG) (BG) (AU) (AU) (BG) (AG) (BG)
                 (AU) (BU) (AG) (BU) (BG) (AU) (AU) (BG) (AU) (BG)
                 (AG) (BG) (AU) (BU) (AG) (BU) (AU) (AG) (BU) (BG)
                 (AG) (BU) (AG) (BG) (AU) (BU) (AG) (BU) (AU) (BG)
                 (AG) (BU) (AG) (AU) (BG) (BU) (AG) (BU) (AU) (AG)
                 (BU) (BG) (AU) (BG) (AU) (BG) (AU) (BU) (AG) (BG)
                 (BU) (AG) (AG) (BU) (AU) (BG) (AU) (BU) (AG) (BG)
                 (BG) (AU) (AU) (AG) (BU) (BG) (AG) (BU) (AU) (BG)
                 (AU) (BU) (AG) (BG) (AU) (BG) (AG) (BU) (AU) (BG)
                 (AU) (AG) (BU) (BG) (BG) (AU) (AG) (BU) (AG) (BG)
                 (AU) (BU) (AG) (AU) (BG) (BU) (AU) (AG) (BU) (BG)
                 (AG) (BU) (AU) (BG) (AG) (AU) (BG) (BU) (AU) (BG)
                 (AU) (AG) (BU) (BG) (AG) (BU) (AU) (BG) (BU) (AG)
                 (BG) (AU) (AU) (BU) (AG) (BG) (AU) (BG) (AU) (BU)
                 (AG) (BG) (AU) (BG) (AU) (BG) (AG) (BU) (AG) (BU)
                 (AU) (BU) (AG) (BG) (AG) (AU) (BG) (BU)
 The electronic state of the initial guess is 1-AG.
 Requested convergence on RMS density matrix=1.00D-08 within 128 cycles.
 Requested convergence on MAX density matrix=1.00D-06.
 Requested convergence on             energy=1.00D-06.
 No special actions if energy rises.
 SCF Done:  E(RLC-B+HF-LYP) =  -6881.15609237     A.U. after   14 cycles
            NFock= 14  Conv=0.82D-08     -V/T= 2.0056
 Hyperfine terms turned off by default for NAtoms > 100.

 **********************************************************************

            Population analysis using the SCF density.

 **********************************************************************

 Orbital symmetries:
       Occupied  (BU) (AG) (BU) (AG) (AG) (BU) (BU) (AG) (BG) (AU)
                 (BU) (AG) (AU) (BG) (AG) (BU) (BU) (AG) (AG) (BU)
                 (BG) (AU) (AG) (BU) (BG) (AU) (BG) (AU) (BU) (AG)
                 (BG) (AU) (BG) (AU) (AG) (BU) (AG) (BU) (BG) (AU)
                 (AG) (BU) (AU) (BG) (AU) (BG) (BU) (AG) (AU) (BG)
                 (BU) (AG) (BU) (AG) (BG) (AU) (BU) (AG) (BG) (AU)
                 (BU) (AG) (AG) (BU) (AG) (BU) (BG) (AU) (BU) (AG)
                 (BG) (AU) (AU) (BG) (BU) (AG) (BG) (AU) (AG) (BU)
                 (AG) (BU) (AU) (BG) (AU) (BG) (AG) (BU) (BG) (AU)
                 (BU) (AG) (BU) (AG) (BU) (AG) (BG) (AU) (AG) (BU)
                 (AG) (BU) (BG) (AU) (AG) (BU) (BG) (AU) (AG) (BU)
                 (AU) (BG) (AG) (BU) (AG) (BU) (AU) (BG) (AG) (BU)
                 (AG) (BU) (AU) (BG) (AG) (BU) (AU) (BG) (AG) (BU)
                 (AU) (BG) (AG) (BU) (AG) (BU) (AU) (BG) (AU) (BG)
                 (AU) (BG) (AG) (BU) (AG) (BU) (AG) (BU) (AU) (BG)
                 (AG) (BU) (AU) (BG) (AG) (BU) (AU) (BG) (AG) (BU)
                 (AU) (BG) (AU) (BG) (AG) (BU) (AG) (BU) (AU) (BG)
                 (AG) (BU) (AG) (BU) (AU) (BG) (AU) (BG) (AU) (BG)
                 (AG) (BU) (AG) (BU) (AG) (BU) (AG) (BU) (AU) (BG)
                 (AG) (BU) (AU) (BG) (BG) (AU) (AG) (BU) (AG) (BU)
                 (AU) (BG) (AG) (BU) (AG) (BU) (BG) (AU) (AU) (BG)
                 (AG) (BU) (BG) (AU) (AG) (BU) (BG) (AU) (AG) (BU)
                 (AU) (BG) (AU) (BG) (AG) (BU) (AG) (BU) (AG) (BU)
                 (AU) (BG) (AG) (BU) (AG) (BU) (AU) (BG) (AU) (BG)
                 (AG) (BU) (AU) (BG) (AG) (BU) (AU) (BG) (AU) (BG)
                 (AG) (BU) (AG) (BU) (AG) (BU) (AU) (BG) (AG) (BU)
                 (AU) (BG) (AG) (BU) (BU) (AG) (AG) (BU) (AU) (BG)
                 (AU) (BG) (AU) (BG) (AG) (BU) (AU) (BG) (AU) (BG)
                 (AG) (BU) (AG) (BU) (AU) (BG) (AG) (BU) (AG) (BU)
                 (AG) (BU) (AU) (BG)
       Virtual   (AU) (BG) (AG) (BU) (AU) (BG) (AG) (BU) (AG) (BU)
                 (AG) (BU) (AU) (BG) (AG) (BU) (AU) (BG) (AU) (AG)
                 (BU) (BG) (AG) (BU) (AG) (BU) (AG) (AU) (BG) (BU)
                 (AU) (BG) (AG) (BU) (AG) (BU) (AU) (BG) (AG) (AU)
                 (BG) (BU) (AG) (BU) (AU) (BG) (AG) (BU) (AU) (BG)
                 (AU) (AG) (BU) (BG) (AU) (BG) (AG) (BU) (AG) (BU)
                 (AU) (AG) (BU) (BG) (AU) (BG) (AU) (BU) (AG) (BG)
                 (AG) (BU) (AU) (BG) (AU) (BG) (AU) (BG) (AG) (BU)
                 (BU) (AG) (AU) (BG) (AG) (BU) (AU) (BU) (AG) (BG)
                 (AU) (BG) (AU) (BG) (AG) (AU) (BG) (BU) (AG) (BU)
                 (AU) (AG) (BU) (BG) (AU) (BG) (AG) (BU) (AU) (AG)
                 (BU) (BG) (AU) (BG) (AG) (AU) (BG) (BU) (AG) (BU)
                 (AG) (BU) (BU) (AG) (AU) (BG) (AU) (BG) (BU) (AG)
                 (AG) (BU) (AU) (BG) (AG) (BU) (AG) (BU) (AU) (BG)
                 (BU) (AG) (BU) (AG) (AU) (BG) (AU) (AG) (BU) (BG)
                 (AG) (AU) (BG) (BU) (AG) (AU) (BU) (BG) (AU) (BG)
                 (BU) (AG) (AU) (BG) (AG) (AU) (BG) (BU) (AG) (BU)
                 (BU) (AG) (AU) (BG) (AG) (BU) (AU) (AG) (BU) (BG)
                 (AG) (BU) (AU) (BG) (AU) (AG) (BU) (BG) (AU) (BG)
                 (AG) (BU) (AG) (BU) (AG) (BU) (AG) (AU) (BG) (BU)
                 (AU) (BG) (AG) (BU) (AU) (BG) (AG) (BU) (AU) (BG)
                 (AU) (AG) (BU) (BG) (BU) (AG) (AU) (BG) (AU) (BU)
                 (AG) (BG) (BU) (AG) (AU) (BG) (AG) (BU) (AU) (BG)
                 (AU) (BG) (AG) (BU) (AU) (AG) (BU) (BG) (AU) (BG)
                 (AG) (BU) (AU) (BG) (AU) (BG) (AG) (AU) (BG) (BU)
                 (AG) (AU) (BG) (BU) (AG) (BU) (AU) (BG) (AG) (AU)
                 (BU) (BG) (AU) (BG) (AG) (BU) (AG) (AU) (BG) (BU)
                 (AU) (BG) (AG) (BU) (AU) (BG) (AG) (BU) (AG) (BU)
                 (AU) (AG) (BU) (BG) (AU) (BG) (AG) (BU) (AU) (BG)
                 (BU) (AG) (AG) (AU) (BG) (BU) (AU) (BG) (AG) (BU)
                 (AG) (BU) (AU) (AG) (BU) (BG) (AG) (AU) (BU) (BG)
                 (AU) (BU) (AG) (BG) (AG) (BU) (AU) (BG) (AU) (BG)
                 (AU) (BG) (AU) (AG) (BG) (BU) (AG) (AU) (BG) (BU)
                 (AU) (BG) (AU) (AG) (BU) (BG) (AG) (BU) (BG) (AU)
                 (AU) (BG) (AG) (BU) (AG) (BG) (BU) (AU) (AU) (BG)
                 (AG) (BU) (AG) (AU) (BG) (BU) (BG) (AU) (AU) (AG)
                 (BU) (BG) (AG) (BU) (AU) (BG) (AG) (BU) (AU) (BG)
                 (AG) (BU) (AU) (BG) (AG) (AU) (BU) (BG) (AU) (BG)
                 (AU) (AG) (BU) (BG) (AG) (BU) (AG) (BU) (BU) (AG)
                 (BG) (AU) (BG) (AU) (BG) (AG) (AU) (BU) (AG) (BU)
                 (AU) (BG) (AU) (BG) (AU) (AG) (BU) (BG) (AU) (BG)
                 (BG) (AU) (AG) (BU) (AU) (BG) (AG) (AU) (BG) (BU)
                 (BU) (AG) (AG) (BU) (BU) (BG) (AU) (AG) (AG) (BU)
                 (AG) (BU) (AU) (AG) (BG) (BU) (AU) (BG) (AG) (BU)
                 (AG) (AU) (BG) (BU) (BG) (AU) (AG) (BU) (AU) (BG)
                 (AG) (AU) (BG) (BU) (AU) (BG) (AG) (BU) (AG) (BU)
                 (AU) (BG) (AG) (AU) (BG) (BU) (AG) (BU) (AG) (BU)
                 (AU) (BG) (AG) (BU) (AG) (AU) (BU) (BG) (AG) (BU)
                 (AG) (BU) (AG) (BU) (AG) (BU) (AU) (BG) (AG) (AU)
                 (BG) (BU) (AG) (BU) (BG) (AU) (AG) (BU) (AU) (BG)
                 (AG) (BU) (AU) (BG) (AU) (BG) (AG) (BU) (AU) (BG)
                 (AG) (BU) (AU) (BG) (AG) (BU) (AG) (BU) (AG) (AU)
                 (BG) (BU) (AG) (BU) (AG) (BU) (AU) (BG) (AU) (BG)
                 (AG) (BU) (AU) (BG) (AU) (BG) (AU) (BG) (AG) (BU)
                 (AU) (BU) (AG) (BG) (AG) (BU) (AU) (BG) (AU) (BG)
                 (AG) (BU) (AG) (BU) (AU) (BG) (AU) (BG) (AU) (AG)
                 (BU) (BG) (BU) (AG) (AU) (BG) (AU) (AG) (BU) (BG)
                 (AG) (BU) (AU) (AG) (BU) (BG) (AU) (BG) (AU) (BG)
                 (AG) (BU) (AU) (AG) (BU) (BG) (AU) (BG) (BU) (AG)
                 (AG) (BU) (AG) (BU) (AU) (AG) (BU) (BG) (AU) (BG)
                 (AG) (BU) (BU) (AG) (AU) (BG) (AU) (BG) (AG) (BU)
                 (AG) (BU) (AU) (BG) (AG) (BU) (AU) (BG) (AU) (BG)
                 (AU) (AG) (BU) (BG) (AU) (AG) (BG) (BU) (AG) (BU)
                 (AG) (BU) (AG) (BU) (AG) (BU) (AG) (AU) (BU) (BG)
                 (AG) (AU) (BU) (BG) (AG) (BU) (AU) (BG) (AU) (BG)
                 (AU) (BG) (AU) (AG) (BU) (BG) (AU) (BG) (AG) (BU)
                 (BG) (AU) (AG) (BU) (AG) (AU) (BG) (BU) (BU) (AG)
                 (AU) (BG) (BU) (AU) (BG) (AG) (AU) (BG) (BU) (AG)
                 (BU) (AG) (AU) (BU) (AG) (BG) (AU) (BG) (AU) (BG)
                 (AU) (BU) (AG) (BG) (BU) (AG) (AG) (BU) (AU) (BG)
                 (AG) (BU) (AU) (BG) (AG) (BU) (BU) (AG) (BU) (AU)
                 (AG) (BG) (AU) (BG) (AU) (BG) (AG) (BU) (AG) (BU)
                 (AG) (BU) (AU) (BG) (AU) (BG) (AG) (BU) (AG) (BU)
                 (AU) (BG) (AG) (BU) (AU) (BG) (AG) (BU) (BU) (AG)
                 (AU) (BU) (AG) (BG) (AG) (BU) (AU) (BG) (AU) (BG)
                 (AG) (BU) (AU) (BG) (AG) (AU) (BU) (BG) (AU) (BG)
                 (AG) (BU) (AG) (BU) (AG) (AU) (BU) (BG) (AU) (BG)
                 (AG) (AU) (BG) (BU) (AG) (BU) (AU) (AG) (BU) (BG)
                 (AU) (BG) (AU) (BG) (AU) (BG) (BU) (AG) (AU) (BG)
                 (AG) (BU) (AU) (BG) (AU) (BG) (AG) (BU) (AU) (BG)
                 (AU) (BG) (AU) (BU) (AG) (BG) (AG) (BU) (AG) (BU)
                 (AG) (BU) (AU) (BG) (AU) (BG) (AG) (BU) (AG) (BU)
                 (AU) (BG) (AG) (BU) (AU) (BG) (AG) (BU) (AU) (BG)
                 (AG) (BU) (AU) (BG) (AU) (BU) (AG) (BG) (AU) (BG)
                 (AG) (BU) (BU) (AG) (AG) (BU) (AU) (BG) (AG) (BU)
                 (AG) (BU) (AG) (AU) (BG) (BU) (AU) (BG) (AU) (BG)
                 (AG) (BU) (AU) (BG) (AU) (BG) (AU) (BG) (AG) (BG)
                 (AU) (BU) (AG) (BU) (AU) (BG) (BG) (AU) (AG) (BU)
                 (BU) (AU) (BG) (AG) (BU) (AG) (AU) (BG) (BU) (AG)
                 (AU) (BG) (AG) (BU) (AG) (BU) (AU) (BG) (BU) (AG)
                 (BG) (AU) (AU) (BG) (AU) (BG) (AU) (BG) (BG) (AU)
                 (AG) (BG) (AU) (BU) (BU) (AG) (AU) (BG) (AG) (BU)
                 (AU) (BG) (AG) (BU) (AG) (AU) (BG) (BU) (AG) (BU)
                 (AG) (BU) (AG) (BG) (AU) (BU) (AG) (BU) (AU) (AG)
                 (BU) (BG) (AU) (BG) (AU) (BG) (BU) (AG) (AU) (BU)
                 (AG) (BG) (BU) (AG) (AU) (BG) (AU) (BG) (AG) (BU)
                 (AG) (BU) (BU) (AU) (AG) (BG) (BG) (AU) (AU) (BG)
                 (AG) (BU) (AU) (BG) (AU) (BU) (AG) (BG) (AU) (BG)
                 (AU) (AG) (BU) (BG) (BG) (AU) (AG) (BU) (AG) (BG)
                 (AU) (BU) (AU) (BG) (AG) (BU) (AU) (AG) (BU) (BG)
                 (AG) (BU) (AU) (BG) (AG) (BU) (AU) (BG) (AU) (BG)
                 (AU) (AG) (BU) (BG) (AG) (BU) (BU) (AG) (AU) (BG)
                 (BG) (AU) (AU) (BU) (AG) (BG) (AU) (BG) (AU) (BU)
                 (AG) (BG) (AU) (BG) (AG) (BU) (AU) (BG) (AG) (BU)
                 (BU) (AG) (AU) (BG) (AG) (AU) (BG) (BU)
 The electronic state is 1-AG.
 Alpha  occ. eigenvalues -- -345.98449-345.98449 -41.86378 -41.86378 -36.96085
 Alpha  occ. eigenvalues --  -36.96085 -36.95303 -36.95303 -36.95303 -36.95303
 Alpha  occ. eigenvalues --  -14.21346 -14.21346 -14.21345 -14.21345 -14.21343
 Alpha  occ. eigenvalues --  -14.21343 -14.21340 -14.21340 -14.20501 -14.20501
 Alpha  occ. eigenvalues --  -14.20500 -14.20500 -14.20498 -14.20498 -14.20497
 Alpha  occ. eigenvalues --  -14.20497 -10.17905 -10.17905 -10.17902 -10.17902
 Alpha  occ. eigenvalues --  -10.17902 -10.17902 -10.17896 -10.17896 -10.17893
 Alpha  occ. eigenvalues --  -10.17893 -10.17887 -10.17887 -10.17887 -10.17887
 Alpha  occ. eigenvalues --  -10.17884 -10.17884 -10.11049 -10.11049 -10.11045
 Alpha  occ. eigenvalues --  -10.11045 -10.11045 -10.11045 -10.11042 -10.11042
 Alpha  occ. eigenvalues --  -10.11034 -10.11034 -10.11030 -10.11030 -10.11030
 Alpha  occ. eigenvalues --  -10.11030 -10.11027 -10.11027 -10.10874 -10.10874
 Alpha  occ. eigenvalues --  -10.10874 -10.10874 -10.10873 -10.10873 -10.10872
 Alpha  occ. eigenvalues --  -10.10872 -10.10862 -10.10862 -10.10862 -10.10862
 Alpha  occ. eigenvalues --  -10.10860 -10.10860 -10.10859 -10.10859 -10.10817
 Alpha  occ. eigenvalues --  -10.10817 -10.10814 -10.10814 -10.10813 -10.10813
 Alpha  occ. eigenvalues --  -10.10810 -10.10810 -10.10807 -10.10807 -10.10804
 Alpha  occ. eigenvalues --  -10.10804 -10.10803 -10.10803 -10.10801 -10.10801
 Alpha  occ. eigenvalues --   -4.78175  -4.78175  -3.22865  -3.22865  -3.21564
 Alpha  occ. eigenvalues --   -3.21564  -3.21564  -3.21564  -1.12023  -1.12023
 Alpha  occ. eigenvalues --   -1.10575  -1.10575  -1.10574  -1.10574  -1.07847
 Alpha  occ. eigenvalues --   -1.07847  -1.05455  -1.05455  -1.01399  -1.01399
 Alpha  occ. eigenvalues --   -1.01399  -1.01399  -0.98363  -0.98363  -0.97093
 Alpha  occ. eigenvalues --   -0.97093  -0.97092  -0.97092  -0.97058  -0.97058
 Alpha  occ. eigenvalues --   -0.96933  -0.96933  -0.89005  -0.89005  -0.87691
 Alpha  occ. eigenvalues --   -0.87691  -0.87416  -0.87416  -0.87415  -0.87415
 Alpha  occ. eigenvalues --   -0.87068  -0.87068  -0.87067  -0.87067  -0.86849
 Alpha  occ. eigenvalues --   -0.86849  -0.86731  -0.86731  -0.83292  -0.83292
 Alpha  occ. eigenvalues --   -0.80710  -0.80710  -0.80710  -0.80710  -0.75374
 Alpha  occ. eigenvalues --   -0.75374  -0.75175  -0.75174  -0.74345  -0.74345
 Alpha  occ. eigenvalues --   -0.74345  -0.74345  -0.73646  -0.73646  -0.73515
 Alpha  occ. eigenvalues --   -0.73515  -0.70977  -0.70977  -0.70961  -0.70961
 Alpha  occ. eigenvalues --   -0.70960  -0.70960  -0.69768  -0.69768  -0.67424
 Alpha  occ. eigenvalues --   -0.67424  -0.66506  -0.66506  -0.66506  -0.66506
 Alpha  occ. eigenvalues --   -0.65101  -0.65101  -0.64951  -0.64951  -0.64951
 Alpha  occ. eigenvalues --   -0.64951  -0.61513  -0.61513  -0.61109  -0.61109
 Alpha  occ. eigenvalues --   -0.60905  -0.60905  -0.60547  -0.60547  -0.59549
 Alpha  occ. eigenvalues --   -0.59549  -0.59091  -0.59091  -0.59090  -0.59090
 Alpha  occ. eigenvalues --   -0.59082  -0.59082  -0.59082  -0.59082  -0.57882
 Alpha  occ. eigenvalues --   -0.57882  -0.57880  -0.57880  -0.56988  -0.56988
 Alpha  occ. eigenvalues --   -0.56815  -0.56815  -0.56527  -0.56527  -0.56076
 Alpha  occ. eigenvalues --   -0.56076  -0.56076  -0.56076  -0.55989  -0.55989
 Alpha  occ. eigenvalues --   -0.55502  -0.55502  -0.54949  -0.54949  -0.54948
 Alpha  occ. eigenvalues --   -0.54948  -0.54876  -0.54876  -0.54528  -0.54528
 Alpha  occ. eigenvalues --   -0.53960  -0.53960  -0.53707  -0.53706  -0.53706
 Alpha  occ. eigenvalues --   -0.53706  -0.52421  -0.52421  -0.51334  -0.51334
 Alpha  occ. eigenvalues --   -0.50639  -0.50639  -0.48611  -0.48611  -0.48602
 Alpha  occ. eigenvalues --   -0.48602  -0.48602  -0.48602  -0.47513  -0.47512
 Alpha  occ. eigenvalues --   -0.47257  -0.47257  -0.47255  -0.47254  -0.46652
 Alpha  occ. eigenvalues --   -0.46652  -0.46519  -0.46518  -0.46363  -0.46363
 Alpha  occ. eigenvalues --   -0.46363  -0.46363  -0.45791  -0.45791  -0.44600
 Alpha  occ. eigenvalues --   -0.44600  -0.44600  -0.44600  -0.44478  -0.44478
 Alpha  occ. eigenvalues --   -0.42911  -0.42911  -0.42911  -0.42911  -0.41118
 Alpha  occ. eigenvalues --   -0.41118  -0.38379  -0.38379  -0.38379  -0.38379
 Alpha  occ. eigenvalues --   -0.38033  -0.38033  -0.36618  -0.36618  -0.35994
 Alpha  occ. eigenvalues --   -0.35993  -0.35760  -0.35760  -0.35501  -0.35501
 Alpha  occ. eigenvalues --   -0.35500  -0.35499  -0.34726  -0.34725  -0.34725
 Alpha  occ. eigenvalues --   -0.34725  -0.34688  -0.34688  -0.34586  -0.34585
 Alpha  occ. eigenvalues --   -0.33612  -0.33612  -0.23941  -0.23941
 Alpha virt. eigenvalues --   -0.05817  -0.05817  -0.05816  -0.05816   0.02843
 Alpha virt. eigenvalues --    0.02843   0.03979   0.03979   0.04917   0.04918
 Alpha virt. eigenvalues --    0.05307   0.05307   0.05308   0.05308   0.08620
 Alpha virt. eigenvalues --    0.08620   0.10313   0.10314   0.10729   0.10730
 Alpha virt. eigenvalues --    0.10730   0.10730   0.13614   0.13614   0.14088
 Alpha virt. eigenvalues --    0.14125   0.14460   0.14493   0.14494   0.14546
 Alpha virt. eigenvalues --    0.14752   0.14752   0.15117   0.15117   0.15138
 Alpha virt. eigenvalues --    0.15207   0.16335   0.16341   0.17470   0.17483
 Alpha virt. eigenvalues --    0.17498   0.17520   0.18662   0.18709   0.19443
 Alpha virt. eigenvalues --    0.19490   0.20688   0.20688   0.20688   0.20689
 Alpha virt. eigenvalues --    0.20728   0.20757   0.20784   0.20825   0.21640
 Alpha virt. eigenvalues --    0.21718   0.21735   0.21743   0.23770   0.23795
 Alpha virt. eigenvalues --    0.24279   0.24290   0.24310   0.24323   0.24899
 Alpha virt. eigenvalues --    0.24936   0.25519   0.25523   0.25523   0.25531
 Alpha virt. eigenvalues --    0.26439   0.26439   0.27256   0.27256   0.27775
 Alpha virt. eigenvalues --    0.27775   0.27851   0.27852   0.27852   0.27852
 Alpha virt. eigenvalues --    0.28701   0.28701   0.29231   0.29237   0.31255
 Alpha virt. eigenvalues --    0.31256   0.31447   0.31449   0.31449   0.31452
 Alpha virt. eigenvalues --    0.32056   0.32056   0.33445   0.33451   0.33789
 Alpha virt. eigenvalues --    0.33791   0.33791   0.33791   0.34691   0.34691
 Alpha virt. eigenvalues --    0.35006   0.35013   0.35014   0.35022   0.35391
 Alpha virt. eigenvalues --    0.35399   0.35689   0.35690   0.35752   0.35755
 Alpha virt. eigenvalues --    0.35755   0.35758   0.36036   0.36047   0.37219
 Alpha virt. eigenvalues --    0.37219   0.37220   0.37222   0.38322   0.38322
 Alpha virt. eigenvalues --    0.39277   0.39279   0.39763   0.39763   0.40184
 Alpha virt. eigenvalues --    0.40185   0.40248   0.40248   0.40249   0.40250
 Alpha virt. eigenvalues --    0.40552   0.40553   0.41155   0.41155   0.41156
 Alpha virt. eigenvalues --    0.41156   0.41393   0.41395   0.41432   0.41432
 Alpha virt. eigenvalues --    0.41693   0.41694   0.43220   0.43220   0.43221
 Alpha virt. eigenvalues --    0.43221   0.44857   0.44861   0.44861   0.44863
 Alpha virt. eigenvalues --    0.45743   0.45744   0.45744   0.45746   0.46314
 Alpha virt. eigenvalues --    0.46318   0.46318   0.46321   0.46760   0.46764
 Alpha virt. eigenvalues --    0.46784   0.46784   0.46869   0.46870   0.47719
 Alpha virt. eigenvalues --    0.47720   0.47720   0.47721   0.49450   0.49451
 Alpha virt. eigenvalues --    0.49868   0.49869   0.52136   0.52150   0.52758
 Alpha virt. eigenvalues --    0.52758   0.52881   0.52886   0.52888   0.52893
 Alpha virt. eigenvalues --    0.53066   0.53066   0.53068   0.53068   0.53864
 Alpha virt. eigenvalues --    0.53869   0.53875   0.53878   0.54044   0.54045
 Alpha virt. eigenvalues --    0.54244   0.54250   0.54607   0.54608   0.55566
 Alpha virt. eigenvalues --    0.55570   0.55788   0.55789   0.55789   0.55789
 Alpha virt. eigenvalues --    0.55823   0.55846   0.56537   0.56539   0.56540
 Alpha virt. eigenvalues --    0.56540   0.56911   0.56912   0.56938   0.56938
 Alpha virt. eigenvalues --    0.57076   0.57086   0.57087   0.57097   0.57757
 Alpha virt. eigenvalues --    0.57757   0.57916   0.57919   0.58293   0.58297
 Alpha virt. eigenvalues --    0.58297   0.58302   0.58534   0.58534   0.59002
 Alpha virt. eigenvalues --    0.59021   0.59751   0.59752   0.59957   0.59960
 Alpha virt. eigenvalues --    0.60758   0.60758   0.60759   0.60760   0.61025
 Alpha virt. eigenvalues --    0.61026   0.61027   0.61030   0.61144   0.61144
 Alpha virt. eigenvalues --    0.63845   0.63848   0.63960   0.63960   0.64272
 Alpha virt. eigenvalues --    0.64272   0.65021   0.65024   0.65027   0.65032
 Alpha virt. eigenvalues --    0.65105   0.65106   0.65107   0.65108   0.66439
 Alpha virt. eigenvalues --    0.66441   0.67847   0.67850   0.68245   0.68245
 Alpha virt. eigenvalues --    0.68247   0.68247   0.68538   0.68540   0.68580
 Alpha virt. eigenvalues --    0.68582   0.70801   0.70820   0.70820   0.70841
 Alpha virt. eigenvalues --    0.70978   0.70980   0.71238   0.71239   0.71239
 Alpha virt. eigenvalues --    0.71240   0.71431   0.71479   0.71650   0.71650
 Alpha virt. eigenvalues --    0.72144   0.72158   0.72168   0.72181   0.72193
 Alpha virt. eigenvalues --    0.72205   0.72229   0.72277   0.73254   0.73290
 Alpha virt. eigenvalues --    0.74130   0.74130   0.74862   0.74881   0.74882
 Alpha virt. eigenvalues --    0.74906   0.75910   0.75943   0.76105   0.76105
 Alpha virt. eigenvalues --    0.76619   0.76629   0.76694   0.76710   0.76718
 Alpha virt. eigenvalues --    0.76733   0.76841   0.76842   0.76874   0.76876
 Alpha virt. eigenvalues --    0.77109   0.77111   0.77111   0.77113   0.77332
 Alpha virt. eigenvalues --    0.77356   0.77704   0.77706   0.78430   0.78456
 Alpha virt. eigenvalues --    0.79313   0.79316   0.79459   0.79476   0.79490
 Alpha virt. eigenvalues --    0.79498   0.79507   0.79507   0.79515   0.79517
 Alpha virt. eigenvalues --    0.79868   0.79870   0.81811   0.81819   0.81829
 Alpha virt. eigenvalues --    0.81839   0.82197   0.82209   0.84120   0.84124
 Alpha virt. eigenvalues --    0.84188   0.84189   0.84189   0.84189   0.84718
 Alpha virt. eigenvalues --    0.84718   0.84722   0.84722   0.84974   0.84976
 Alpha virt. eigenvalues --    0.84994   0.84997   0.85399   0.85405   0.85406
 Alpha virt. eigenvalues --    0.85412   0.85752   0.85752   0.86645   0.86646
 Alpha virt. eigenvalues --    0.86651   0.86653   0.86799   0.86808   0.87128
 Alpha virt. eigenvalues --    0.87140   0.88669   0.88670   0.89038   0.89043
 Alpha virt. eigenvalues --    0.90322   0.90322   0.90322   0.90322   0.91616
 Alpha virt. eigenvalues --    0.91617   0.91618   0.91618   0.91911   0.91912
 Alpha virt. eigenvalues --    0.92002   0.92003   0.92003   0.92003   0.92146
 Alpha virt. eigenvalues --    0.92152   0.93018   0.93018   0.93516   0.93518
 Alpha virt. eigenvalues --    0.95416   0.95418   0.99041   0.99043   0.99418
 Alpha virt. eigenvalues --    0.99421   0.99421   0.99422   1.00738   1.00738
 Alpha virt. eigenvalues --    1.01351   1.01352   1.02143   1.02143   1.02556
 Alpha virt. eigenvalues --    1.02556   1.02556   1.02559   1.02846   1.02848
 Alpha virt. eigenvalues --    1.03587   1.03587   1.03730   1.03730   1.03730
 Alpha virt. eigenvalues --    1.03730   1.05641   1.05642   1.05642   1.05642
 Alpha virt. eigenvalues --    1.06445   1.06446   1.07546   1.07548   1.07989
 Alpha virt. eigenvalues --    1.07989   1.07989   1.07990   1.08013   1.08013
 Alpha virt. eigenvalues --    1.10726   1.10726   1.11699   1.11699   1.11699
 Alpha virt. eigenvalues --    1.11699   1.12901   1.12902   1.13527   1.13527
 Alpha virt. eigenvalues --    1.14976   1.14977   1.14978   1.14979   1.15493
 Alpha virt. eigenvalues --    1.15493   1.17536   1.17540   1.17711   1.17712
 Alpha virt. eigenvalues --    1.20553   1.20554   1.20555   1.20556   1.21118
 Alpha virt. eigenvalues --    1.21118   1.24135   1.24140   1.25674   1.25675
 Alpha virt. eigenvalues --    1.27312   1.27315   1.27769   1.27772   1.27772
 Alpha virt. eigenvalues --    1.27775   1.28984   1.28986   1.30099   1.30099
 Alpha virt. eigenvalues --    1.30514   1.30514   1.30516   1.30516   1.30948
 Alpha virt. eigenvalues --    1.30949   1.30949   1.30949   1.31686   1.31686
 Alpha virt. eigenvalues --    1.33532   1.33532   1.33790   1.33798   1.33931
 Alpha virt. eigenvalues --    1.33931   1.33931   1.33931   1.33990   1.33994
 Alpha virt. eigenvalues --    1.33995   1.33999   1.34348   1.34349   1.34873
 Alpha virt. eigenvalues --    1.34873   1.35165   1.35165   1.35346   1.35346
 Alpha virt. eigenvalues --    1.35525   1.35525   1.35525   1.35525   1.35821
 Alpha virt. eigenvalues --    1.35821   1.37549   1.37553   1.37718   1.37722
 Alpha virt. eigenvalues --    1.38112   1.38112   1.38523   1.38523   1.38523
 Alpha virt. eigenvalues --    1.38524   1.38577   1.38591   1.38657   1.38664
 Alpha virt. eigenvalues --    1.38665   1.38672   1.40065   1.40066   1.41863
 Alpha virt. eigenvalues --    1.41863   1.41863   1.41863   1.42935   1.42936
 Alpha virt. eigenvalues --    1.43333   1.43333   1.43333   1.43334   1.43491
 Alpha virt. eigenvalues --    1.43491   1.46374   1.46374   1.46551   1.46552
 Alpha virt. eigenvalues --    1.47048   1.47067   1.47067   1.47086   1.47111
 Alpha virt. eigenvalues --    1.47111   1.47112   1.47112   1.48788   1.48788
 Alpha virt. eigenvalues --    1.49304   1.49304   1.50998   1.50998   1.51561
 Alpha virt. eigenvalues --    1.51582   1.52794   1.52867   1.53253   1.53277
 Alpha virt. eigenvalues --    1.53277   1.53307   1.53633   1.53633   1.57410
 Alpha virt. eigenvalues --    1.57486   1.58463   1.58497   1.58497   1.58535
 Alpha virt. eigenvalues --    1.60787   1.60787   1.62197   1.62210   1.62210
 Alpha virt. eigenvalues --    1.62224   1.63547   1.63570   1.65104   1.65104
 Alpha virt. eigenvalues --    1.65104   1.65104   1.69679   1.69685   1.69685
 Alpha virt. eigenvalues --    1.69693   1.70446   1.70446   1.71799   1.71799
 Alpha virt. eigenvalues --    1.75188   1.75188   1.75217   1.75217   1.77641
 Alpha virt. eigenvalues --    1.77641   1.77641   1.77644   1.77750   1.77752
 Alpha virt. eigenvalues --    1.77757   1.77757   1.77834   1.77834   1.77870
 Alpha virt. eigenvalues --    1.77872   1.78068   1.78068   1.78070   1.78071
 Alpha virt. eigenvalues --    1.78543   1.78543   1.78543   1.78544   1.79109
 Alpha virt. eigenvalues --    1.79110   1.82724   1.82724   1.83507   1.83510
 Alpha virt. eigenvalues --    1.84182   1.84183   1.84184   1.84184   1.85035
 Alpha virt. eigenvalues --    1.85036   1.85036   1.85039   1.85107   1.85108
 Alpha virt. eigenvalues --    1.85277   1.85279   1.85383   1.85385   1.86125
 Alpha virt. eigenvalues --    1.86125   1.86173   1.86174   1.86174   1.86174
 Alpha virt. eigenvalues --    1.87372   1.87373   1.87373   1.87373   1.87791
 Alpha virt. eigenvalues --    1.87792   1.88205   1.88205   1.88288   1.88288
 Alpha virt. eigenvalues --    1.88398   1.88398   1.88574   1.88574   1.88575
 Alpha virt. eigenvalues --    1.88575   1.88813   1.88814   1.89090   1.89090
 Alpha virt. eigenvalues --    1.89091   1.89091   1.90066   1.90068   1.91233
 Alpha virt. eigenvalues --    1.91234   1.91234   1.91235   1.91286   1.91286
 Alpha virt. eigenvalues --    1.92636   1.92651   1.95706   1.95707   1.95709
 Alpha virt. eigenvalues --    1.95712   1.96577   1.96578   1.98524   1.98527
 Alpha virt. eigenvalues --    2.00386   2.00386   2.00904   2.00906   2.00906
 Alpha virt. eigenvalues --    2.00909   2.01873   2.01878   2.02792   2.02794
 Alpha virt. eigenvalues --    2.03725   2.03725   2.03725   2.03726   2.04073
 Alpha virt. eigenvalues --    2.04076   2.04303   2.04303   2.05148   2.05148
 Alpha virt. eigenvalues --    2.05150   2.05150   2.05231   2.05231   2.05581
 Alpha virt. eigenvalues --    2.05581   2.05784   2.05785   2.06978   2.06978
 Alpha virt. eigenvalues --    2.06980   2.06981   2.07834   2.07834   2.07840
 Alpha virt. eigenvalues --    2.07840   2.07841   2.07841   2.08190   2.08190
 Alpha virt. eigenvalues --    2.08621   2.08622   2.08802   2.08802   2.09071
 Alpha virt. eigenvalues --    2.09072   2.09073   2.09074   2.10827   2.10827
 Alpha virt. eigenvalues --    2.11279   2.11279   2.11279   2.11279   2.12987
 Alpha virt. eigenvalues --    2.12990   2.13220   2.13220   2.13810   2.13811
 Alpha virt. eigenvalues --    2.14588   2.14588   2.14590   2.14591   2.19231
 Alpha virt. eigenvalues --    2.19232   2.19232   2.19235   2.19741   2.19745
 Alpha virt. eigenvalues --    2.23325   2.23326   2.23363   2.23364   2.23380
 Alpha virt. eigenvalues --    2.23381   2.23382   2.23384   2.23655   2.23657
 Alpha virt. eigenvalues --    2.23795   2.23796   2.24032   2.24034   2.24575
 Alpha virt. eigenvalues --    2.24575   2.24576   2.24577   2.24692   2.24697
 Alpha virt. eigenvalues --    2.25394   2.25395   2.25397   2.25397   2.26845
 Alpha virt. eigenvalues --    2.26845   2.28136   2.28136   2.28137   2.28138
 Alpha virt. eigenvalues --    2.28222   2.28222   2.29871   2.29872   2.29948
 Alpha virt. eigenvalues --    2.29948   2.29948   2.29948   2.30983   2.30984
 Alpha virt. eigenvalues --    2.33053   2.33053   2.34056   2.34056   2.34744
 Alpha virt. eigenvalues --    2.34744   2.34744   2.34744   2.35138   2.35138
 Alpha virt. eigenvalues --    2.35197   2.35198   2.35201   2.35202   2.35202
 Alpha virt. eigenvalues --    2.35202   2.35961   2.35961   2.38210   2.38210
 Alpha virt. eigenvalues --    2.38546   2.38547   2.38547   2.38547   2.39254
 Alpha virt. eigenvalues --    2.39254   2.39409   2.39409   2.40761   2.40762
 Alpha virt. eigenvalues --    2.40762   2.40762   2.40977   2.40977   2.41170
 Alpha virt. eigenvalues --    2.41170   2.43341   2.43341   2.43341   2.43341
 Alpha virt. eigenvalues --    2.43774   2.43774   2.44322   2.44331   2.45218
 Alpha virt. eigenvalues --    2.45225   2.45225   2.45235   2.47372   2.47380
 Alpha virt. eigenvalues --    2.47960   2.47962   2.48638   2.48638   2.49357
 Alpha virt. eigenvalues --    2.49357   2.49357   2.49357   2.50365   2.50370
 Alpha virt. eigenvalues --    2.55347   2.55347   2.56405   2.56409   2.56409
 Alpha virt. eigenvalues --    2.56413   2.57081   2.57081   2.57520   2.57520
 Alpha virt. eigenvalues --    2.59696   2.59696   2.59697   2.59697   2.61263
 Alpha virt. eigenvalues --    2.61263   2.63814   2.63814   2.65786   2.65788
 Alpha virt. eigenvalues --    2.65789   2.65791   2.66421   2.66421   2.66421
 Alpha virt. eigenvalues --    2.66421   2.66913   2.66913   2.68262   2.68269
 Alpha virt. eigenvalues --    2.69324   2.69325   2.69325   2.69326   2.69575
 Alpha virt. eigenvalues --    2.69576   2.69614   2.69614   2.70279   2.70279
 Alpha virt. eigenvalues --    2.74654   2.74654   2.74654   2.74654   2.74909
 Alpha virt. eigenvalues --    2.74909   2.75435   2.75435   2.75899   2.75899
 Alpha virt. eigenvalues --    2.75899   2.75900   2.76774   2.76774   2.77123
 Alpha virt. eigenvalues --    2.77123   2.77749   2.77749   2.78033   2.78033
 Alpha virt. eigenvalues --    2.79596   2.79599   2.79600   2.79602   2.80226
 Alpha virt. eigenvalues --    2.80226   2.80576   2.80576   2.80576   2.80576
 Alpha virt. eigenvalues --    2.82725   2.82725   2.83569   2.83587   2.83923
 Alpha virt. eigenvalues --    2.83932   2.83932   2.83951   2.84111   2.84125
 Alpha virt. eigenvalues --    2.87874   2.87875   2.88992   2.88993   2.88993
 Alpha virt. eigenvalues --    2.88994   2.92131   2.92131   2.94034   2.94036
 Alpha virt. eigenvalues --    2.94036   2.94038   2.94301   2.94303   2.94869
 Alpha virt. eigenvalues --    2.94871   2.95136   2.95136   2.95201   2.95202
 Alpha virt. eigenvalues --    2.95202   2.95202   2.97813   2.97813   2.97998
 Alpha virt. eigenvalues --    2.97998   2.99770   2.99770   2.99770   2.99770
 Alpha virt. eigenvalues --    3.00729   3.00729   3.01299   3.01300   3.01300
 Alpha virt. eigenvalues --    3.01300   3.02559   3.02560   3.05688   3.05688
 Alpha virt. eigenvalues --    3.07940   3.07940   3.08819   3.08824   3.09138
 Alpha virt. eigenvalues --    3.09139   3.09139   3.09145   3.10396   3.10401
 Alpha virt. eigenvalues --    3.12423   3.12423   3.12423   3.12425   3.13473
 Alpha virt. eigenvalues --    3.13473   3.16652   3.16653   3.20595   3.20597
 Alpha virt. eigenvalues --    3.20597   3.20598   3.23127   3.23128   3.23347
 Alpha virt. eigenvalues --    3.23349   3.24684   3.24684   3.24685   3.24685
 Alpha virt. eigenvalues --    3.27675   3.27676   3.33227   3.33228   3.34110
 Alpha virt. eigenvalues --    3.34111   3.34111   3.34111   3.35415   3.35415
 Alpha virt. eigenvalues --    3.47320   3.47321   3.47321   3.47322   3.54318
 Alpha virt. eigenvalues --    3.54319   3.56576   3.56576   3.58574   3.58578
 Alpha virt. eigenvalues --    3.62472   3.62472   3.64515   3.64517   3.64517
 Alpha virt. eigenvalues --    3.64520   3.72039   3.72046   3.76237   3.76241
 Alpha virt. eigenvalues --    3.76241   3.76245   3.78645   3.78649   6.59883
 Alpha virt. eigenvalues --    6.59883   6.60116   6.60116   6.60559   6.60559
 Alpha virt. eigenvalues --    6.60790   6.60790   6.60790   6.60790   6.64721
 Alpha virt. eigenvalues --    6.64721   6.64721   6.64721
          Condensed to atoms (all electrons):
 Mulliken charges:
               1
     1  C    0.024061
     2  C    0.024049
     3  C   -0.068052
     4  C    0.100291
     5  C    0.100257
     6  C   -0.067981
     7  C   -0.068666
     8  C   -0.068583
     9  N   -0.209028
    10  N    0.104273
    11  N    0.104258
    12  H   -0.006914
    13  H   -0.006880
    14  H   -0.012581
    15  H   -0.012481
    16  C    0.023458
    17  C    0.023458
    18  C   -0.068288
    19  C    0.100297
    20  C    0.100297
    21  C   -0.068288
    22  C   -0.068728
    23  C   -0.068728
    24  N   -0.208983
    25  N    0.104258
    26  H   -0.006199
    27  H   -0.006199
    28  H   -0.012568
    29  H   -0.012568
    30  C    0.024064
    31  C    0.024064
    32  C   -0.067985
    33  C    0.100266
    34  C    0.100266
    35  C   -0.067985
    36  C   -0.068555
    37  C   -0.068555
    38  N   -0.209053
    39  N    0.104273
    40  H   -0.006871
    41  H   -0.006871
    42  H   -0.012493
    43  H   -0.012493
    44  C    0.024049
    45  C    0.024061
    46  C   -0.067981
    47  C    0.100257
    48  C    0.100291
    49  C   -0.068052
    50  C   -0.068583
    51  C   -0.068666
    52  N   -0.209028
    53  H   -0.006880
    54  H   -0.006914
    55  H   -0.012481
    56  H   -0.012581
    57  Zn   0.673192
    58  C    0.024049
    59  C    0.024061
    60  C   -0.067981
    61  C    0.100257
    62  C    0.100291
    63  C   -0.068052
    64  C   -0.068583
    65  C   -0.068666
    66  N   -0.209028
    67  N    0.104258
    68  N    0.104273
    69  H   -0.006880
    70  H   -0.006914
    71  H   -0.012481
    72  H   -0.012581
    73  C    0.024064
    74  C    0.024064
    75  C   -0.067985
    76  C    0.100266
    77  C    0.100266
    78  C   -0.067985
    79  C   -0.068555
    80  C   -0.068555
    81  N   -0.209053
    82  N    0.104273
    83  H   -0.006871
    84  H   -0.006871
    85  H   -0.012493
    86  H   -0.012493
    87  C    0.023458
    88  C    0.023458
    89  C   -0.068288
    90  C    0.100297
    91  C    0.100297
    92  C   -0.068288
    93  C   -0.068728
    94  C   -0.068728
    95  N   -0.208983
    96  N    0.104258
    97  H   -0.006199
    98  H   -0.006199
    99  H   -0.012568
   100  H   -0.012568
   101  C    0.024061
   102  C    0.024049
   103  C   -0.068052
   104  C    0.100291
   105  C    0.100257
   106  C   -0.067981
   107  C   -0.068666
   108  C   -0.068583
   109  N   -0.209028
   110  H   -0.006914
   111  H   -0.006880
   112  H   -0.012581
   113  H   -0.012481
   114  Zn   0.673192
 Sum of Mulliken charges =  -0.00000
 Mulliken charges with hydrogens summed into heavy atoms:
               1
     1  C    0.017147
     2  C    0.017169
     3  C   -0.080633
     4  C    0.100291
     5  C    0.100257
     6  C   -0.080462
     7  C   -0.068666
     8  C   -0.068583
     9  N   -0.209028
    10  N    0.104273
    11  N    0.104258
    16  C    0.017259
    17  C    0.017259
    18  C   -0.080856
    19  C    0.100297
    20  C    0.100297
    21  C   -0.080856
    22  C   -0.068728
    23  C   -0.068728
    24  N   -0.208983
    25  N    0.104258
    30  C    0.017193
    31  C    0.017193
    32  C   -0.080478
    33  C    0.100266
    34  C    0.100266
    35  C   -0.080478
    36  C   -0.068555
    37  C   -0.068555
    38  N   -0.209053
    39  N    0.104273
    44  C    0.017169
    45  C    0.017147
    46  C   -0.080462
    47  C    0.100257
    48  C    0.100291
    49  C   -0.080633
    50  C   -0.068583
    51  C   -0.068666
    52  N   -0.209028
    57  Zn   0.673192
    58  C    0.017169
    59  C    0.017147
    60  C   -0.080462
    61  C    0.100257
    62  C    0.100291
    63  C   -0.080633
    64  C   -0.068583
    65  C   -0.068666
    66  N   -0.209028
    67  N    0.104258
    68  N    0.104273
    73  C    0.017193
    74  C    0.017193
    75  C   -0.080478
    76  C    0.100266
    77  C    0.100266
    78  C   -0.080478
    79  C   -0.068555
    80  C   -0.068555
    81  N   -0.209053
    82  N    0.104273
    87  C    0.017259
    88  C    0.017259
    89  C   -0.080856
    90  C    0.100297
    91  C    0.100297
    92  C   -0.080856
    93  C   -0.068728
    94  C   -0.068728
    95  N   -0.208983
    96  N    0.104258
   101  C    0.017147
   102  C    0.017169
   103  C   -0.080633
   104  C    0.100291
   105  C    0.100257
   106  C   -0.080462
   107  C   -0.068666
   108  C   -0.068583
   109  N   -0.209028
   114  Zn   0.673192
 Electronic spatial extent (au):  <R**2>=         227256.9462
 Charge=              0.0000 electrons
 Dipole moment (field-independent basis, Debye):
    X=             -0.0000    Y=             -0.0000    Z=             -0.0000  Tot=              0.0000
 Quadrupole moment (field-independent basis, Debye-Ang):
   XX=           -488.8234   YY=           -421.9939   ZZ=           -422.6973
   XY=              0.2606   XZ=             -0.0000   YZ=             -0.0000
 Traceless Quadrupole moment (field-independent basis, Debye-Ang):
   XX=            -44.3185   YY=             22.5110   ZZ=             21.8075
   XY=              0.2606   XZ=             -0.0000   YZ=             -0.0000
 Octapole moment (field-independent basis, Debye-Ang**2):
  XXX=              0.0000  YYY=             -0.0000  ZZZ=             -0.0000  XYY=              0.0000
  XXY=             -0.0000  XXZ=             -0.0000  XZZ=              0.0000  YZZ=             -0.0000
  YYZ=              0.0000  XYZ=             -0.0000
 Hexadecapole moment (field-independent basis, Debye-Ang**3):
 XXXX=         -18841.9414 YYYY=        -232109.3666 ZZZZ=         -26832.1681 XXXY=         -33002.5176
 XXXZ=              0.0000 YYYX=         -28493.6366 YYYZ=              0.0000 ZZZX=              0.0000
 ZZZY=             -0.0000 XXYY=         -47892.7871 XXZZ=          -8294.9032 YYZZ=         -43890.4184
 XXYZ=             -0.0000 YYXZ=             -0.0000 ZZXY=          -9508.2067
 N-N= 1.261676548570D+04 E-N=-4.146728273661D+04  KE= 6.843172438556D+03
 Symmetry AG   KE= 2.414114552563D+03
 Symmetry BG   KE= 1.007471586980D+03
 Symmetry AU   KE= 1.007471007972D+03
 Symmetry BU   KE= 2.414115291040D+03

 Test job not archived.
 1\1\ WCSS.PL-BEM-KETKOV-PC2\SP\RLC-BLYP\def2SVP\C64H32N16Zn2\SERGEY\18
 -Apr-2026\0\\# lc-blyp/def2svp iop(3/107=0350000000,3/108=0350000000)\
 \monomer geom r2scan-3c\\0,1\C,0,0.701663,6.554204,0.\C,0,-0.701663,6.
 554204,0.\C,0,1.422571,5.364926,0.\C,0,0.703967,4.174565,0.\C,0,-0.703
 967,4.174565,0.\C,0,-1.422571,5.364926,0.\C,0,1.120422,2.78002,0.\C,0,
 -1.120422,2.78002,0.\N,0,0.,1.989101,0.\N,0,-2.390568,2.390568,0.\N,0,
 2.390568,2.390568,0.\H,0,1.231071,7.50255,0.\H,0,-1.231071,7.50255,0.\
 H,0,2.508027,5.356475,0.\H,0,-2.508027,5.356475,0.\C,0,6.554204,-0.701
 663,0.\C,0,6.554204,0.701663,0.\C,0,5.364926,-1.422571,0.\C,0,4.174565
 ,-0.703967,0.\C,0,4.174565,0.703967,0.\C,0,5.364926,1.422571,0.\C,0,2.
 78002,-1.120422,0.\C,0,2.78002,1.120422,0.\N,0,1.989101,0.,0.\N,0,2.39
 0568,-2.390568,0.\H,0,7.50255,-1.231071,0.\H,0,7.50255,1.231071,0.\H,0
 ,5.356475,-2.508027,0.\H,0,5.356475,2.508027,0.\C,0,-6.554204,0.701663
 ,0.\C,0,-6.554204,-0.701663,0.\C,0,-5.364926,1.422571,0.\C,0,-4.174565
 ,0.703967,0.\C,0,-4.174565,-0.703967,0.\C,0,-5.364926,-1.422571,0.\C,0
 ,-2.78002,1.120422,0.\C,0,-2.78002,-1.120422,0.\N,0,-1.989101,0.,0.\N,
 0,-2.390568,-2.390568,0.\H,0,-7.50255,1.231071,0.\H,0,-7.50255,-1.2310
 71,0.\H,0,-5.356475,2.508027,0.\H,0,-5.356475,-2.508027,0.\C,0,-0.7016
 63,-6.554204,0.\C,0,0.701663,-6.554204,0.\C,0,-1.422571,-5.364926,0.\C
 ,0,-0.703967,-4.174565,0.\C,0,0.703967,-4.174565,0.\C,0,1.422571,-5.36
 4926,0.\C,0,-1.120422,-2.78002,0.\C,0,1.120422,-2.78002,0.\N,0,0.,-1.9
 89101,0.\H,0,-1.231071,-7.50255,0.\H,0,1.231071,-7.50255,0.\H,0,-2.508
 027,-5.356475,0.\H,0,2.508027,-5.356475,0.\Zn,0,0.,0.,0.\C,0,18.701663
 ,6.554204,5.\C,0,17.298337,6.554204,5.\C,0,19.422571,5.364926,5.\C,0,1
 8.703967,4.174565,5.\C,0,17.296033,4.174565,5.\C,0,16.577429,5.364926,
 5.\C,0,19.120422,2.78002,5.\C,0,16.879578,2.78002,5.\N,0,18.,1.989101,
 5.\N,0,15.609432,2.390568,5.\N,0,20.390568,2.390568,5.\H,0,19.231071,7
 .50255,5.\H,0,16.768929,7.50255,5.\H,0,20.508027,5.356475,5.\H,0,15.49
 1973,5.356475,5.\C,0,24.554204,-0.701663,5.\C,0,24.554204,0.701663,5.\
 C,0,23.364926,-1.422571,5.\C,0,22.174565,-0.703967,5.\C,0,22.174565,0.
 703967,5.\C,0,23.364926,1.422571,5.\C,0,20.78002,-1.120422,5.\C,0,20.7
 8002,1.120422,5.\N,0,19.989101,0.,5.\N,0,20.390568,-2.390568,5.\H,0,25
 .50255,-1.231071,5.\H,0,25.50255,1.231071,5.\H,0,23.356475,-2.508027,5
 .\H,0,23.356475,2.508027,5.\C,0,11.445796,0.701663,5.\C,0,11.445796,-0
 .701663,5.\C,0,12.635074,1.422571,5.\C,0,13.825435,0.703967,5.\C,0,13.
 825435,-0.703967,5.\C,0,12.635074,-1.422571,5.\C,0,15.21998,1.120422,5
 .\C,0,15.21998,-1.120422,5.\N,0,16.010899,0.,5.\N,0,15.609432,-2.39056
 8,5.\H,0,10.49745,1.231071,5.\H,0,10.49745,-1.231071,5.\H,0,12.643525,
 2.508027,5.\H,0,12.643525,-2.508027,5.\C,0,17.298337,-6.554204,5.\C,0,
 18.701663,-6.554204,5.\C,0,16.577429,-5.364926,5.\C,0,17.296033,-4.174
 565,5.\C,0,18.703967,-4.174565,5.\C,0,19.422571,-5.364926,5.\C,0,16.87
 9578,-2.78002,5.\C,0,19.120422,-2.78002,5.\N,0,18.,-1.989101,5.\H,0,16
 .768929,-7.50255,5.\H,0,19.231071,-7.50255,5.\H,0,15.491973,-5.356475,
 5.\H,0,20.508027,-5.356475,5.\Zn,0,18.,0.,5.\\Version=ES64L-G09RevE.01
 \State=1-AG\HF=-6881.1560924\RMSD=8.169e-09\Dipole=0.,0.,0.\Quadrupole
 =16.7363627,16.2133755,-32.9497382,0.,0.1937768,0.\PG=C02H [SGH(N4Zn2)
 ,X(C64H32N12)]\\@


 ALL THINGS ARE POSSIBLE EXCEPT SKIING THROUGH A REVOLVING DOOR.
 Job cpu time:       0 days  0 hours 29 minutes 45.3 seconds.
 File lengths (MBytes):  RWF=    939 Int=      0 D2E=      0 Chk=     91 Scr=      1
 Normal termination of Gaussian 09 at Sat Apr 18 22:34:26 2026.
 Initial command:
 /home/sergey/g09/l1.exe "/home/sergey/scratch/Gau-19413.inp" -scrdir="/home/sergey/scratch/"
 Entering Link 1 = /home/sergey/g09/l1.exe PID=     19624.
  
 Copyright (c) 1988,1990,1992,1993,1995,1998,2003,2009,2015,
            Gaussian, Inc.  All Rights Reserved.
  
 This is part of the Gaussian(R) 09 program.  It is based on
 the Gaussian(R) 03 system (copyright 2003, Gaussian, Inc.),
 the Gaussian(R) 98 system (copyright 1998, Gaussian, Inc.),
 the Gaussian(R) 94 system (copyright 1995, Gaussian, Inc.),
 the Gaussian 92(TM) system (copyright 1992, Gaussian, Inc.),
 the Gaussian 90(TM) system (copyright 1990, Gaussian, Inc.),
 the Gaussian 88(TM) system (copyright 1988, Gaussian, Inc.),
 the Gaussian 86(TM) system (copyright 1986, Carnegie Mellon
 University), and the Gaussian 82(TM) system (copyright 1983,
 Carnegie Mellon University). Gaussian is a federally registered
 trademark of Gaussian, Inc.
  
 This software contains proprietary and confidential information,
 including trade secrets, belonging to Gaussian, Inc.
  
 This software is provided under written license and may be
 used, copied, transmitted, or stored only in accord with that
 written license.
  
 The following legend is applicable only to US Government
 contracts under FAR:
  
                    RESTRICTED RIGHTS LEGEND
  
 Use, reproduction and disclosure by the US Government is
 subject to restrictions as set forth in subparagraphs (a)
 and (c) of the Commercial Computer Software - Restricted
 Rights clause in FAR 52.227-19.
  
 Gaussian, Inc.
 340 Quinnipiac St., Bldg. 40, Wallingford CT 06492
  
  
 ---------------------------------------------------------------
 Warning -- This program may not be used in any manner that
 competes with the business of Gaussian, Inc. or will provide
 assistance to any competitor of Gaussian, Inc.  The licensee
 of this program is prohibited from giving any competitor of
 Gaussian, Inc. access to this program.  By using this program,
 the user acknowledges that Gaussian, Inc. is engaged in the
 business of creating and licensing software in the field of
 computational chemistry and represents and warrants to the
 licensee that it is not a competitor of Gaussian, Inc. and that
 it will not use this program in any manner prohibited above.
 ---------------------------------------------------------------
  

 Cite this work as:
 Gaussian 09, Revision E.01,
 M. J. Frisch, G. W. Trucks, H. B. Schlegel, G. E. Scuseria, 
 M. A. Robb, J. R. Cheeseman, G. Scalmani, V. Barone, B. Mennucci, 
 G. A. Petersson, H. Nakatsuji, M. Caricato, X. Li, H. P. Hratchian, 
 A. F. Izmaylov, J. Bloino, G. Zheng, J. L. Sonnenberg, M. Hada, 
 M. Ehara, K. Toyota, R. Fukuda, J. Hasegawa, M. Ishida, T. Nakajima, 
 Y. Honda, O. Kitao, H. Nakai, T. Vreven, J. A. Montgomery, Jr., 
 J. E. Peralta, F. Ogliaro, M. Bearpark, J. J. Heyd, E. Brothers, 
 K. N. Kudin, V. N. Staroverov, T. Keith, R. Kobayashi, J. Normand, 
 K. Raghavachari, A. Rendell, J. C. Burant, S. S. Iyengar, J. Tomasi, 
 M. Cossi, N. Rega, J. M. Millam, M. Klene, J. E. Knox, J. B. Cross, 
 V. Bakken, C. Adamo, J. Jaramillo, R. Gomperts, R. E. Stratmann, 
 O. Yazyev, A. J. Austin, R. Cammi, C. Pomelli, J. W. Ochterski, 
 R. L. Martin, K. Morokuma, V. G. Zakrzewski, G. A. Voth, 
 P. Salvador, J. J. Dannenberg, S. Dapprich, A. D. Daniels, 
 O. Farkas, J. B. Foresman, J. V. Ortiz, J. Cioslowski, 
 and D. J. Fox, Gaussian, Inc., Wallingford CT, 2013.
 
 ******************************************
 Gaussian 09:  ES64L-G09RevE.01 30-Nov-2015
                18-Apr-2026 
 ******************************************
 %chk=ZnPc2_50_180.chk
 %mem=60GB
 %nproc=6
 Will use up to    6 processors via shared memory.
 Default route:  MaxDisk=200GW
 ----------------------------------------------------------------------
 # td(nstates=4) lc-blyp/gen iop(3/107=0350000000,3/108=0350000000) geo
 m=check guess=read
 ----------------------------------------------------------------------
 1/29=2,38=1/1;
 2/12=2,40=1/2;
 3/5=7,11=9,14=-4,16=1,25=1,30=1,74=1000402,107=350000000,108=350000000,116=-2/1,2,8,3;
 4/5=1/1;
 5/5=2,38=6/2;
 8/6=1,10=1,108=4/1;
 9/41=4,42=1,70=2/14;
 6/7=2,8=2,9=2,10=2/1;
 99/5=1,9=1/99;
 ----------------------------------
 def2tzvp-f, monomer geom r2scan-3c
 ----------------------------------
 Structure from the checkpoint file:  "ZnPc2_50_180.chk"
 Charge =  0 Multiplicity = 1
 Z-Matrix found in file.
 C,0,0.701663,6.554204,0.
 C,0,-0.701663,6.554204,0.
 C,0,1.422571,5.364926,0.
 C,0,0.703967,4.174565,0.
 C,0,-0.703967,4.174565,0.
 C,0,-1.422571,5.364926,0.
 C,0,1.120422,2.78002,0.
 C,0,-1.120422,2.78002,0.
 N,0,0.,1.989101,0.
 N,0,-2.390568,2.390568,0.
 N,0,2.390568,2.390568,0.
 H,0,1.231071,7.50255,0.
 H,0,-1.231071,7.50255,0.
 H,0,2.508027,5.356475,0.
 H,0,-2.508027,5.356475,0.
 C,0,6.554204,-0.701663,0.
 C,0,6.554204,0.701663,0.
 C,0,5.364926,-1.422571,0.
 C,0,4.174565,-0.703967,0.
 C,0,4.174565,0.703967,0.
 C,0,5.364926,1.422571,0.
 C,0,2.78002,-1.120422,0.
 C,0,2.78002,1.120422,0.
 N,0,1.989101,0.,0.
 N,0,2.390568,-2.390568,0.
 H,0,7.50255,-1.231071,0.
 H,0,7.50255,1.231071,0.
 H,0,5.356475,-2.508027,0.
 H,0,5.356475,2.508027,0.
 C,0,-6.554204,0.701663,0.
 C,0,-6.554204,-0.701663,0.
 C,0,-5.364926,1.422571,0.
 C,0,-4.174565,0.703967,0.
 C,0,-4.174565,-0.703967,0.
 C,0,-5.364926,-1.422571,0.
 C,0,-2.78002,1.120422,0.
 C,0,-2.78002,-1.120422,0.
 N,0,-1.989101,0.,0.
 N,0,-2.390568,-2.390568,0.
 H,0,-7.50255,1.231071,0.
 H,0,-7.50255,-1.231071,0.
 H,0,-5.356475,2.508027,0.
 H,0,-5.356475,-2.508027,0.
 C,0,-0.701663,-6.554204,0.
 C,0,0.701663,-6.554204,0.
 C,0,-1.422571,-5.364926,0.
 C,0,-0.703967,-4.174565,0.
 C,0,0.703967,-4.174565,0.
 C,0,1.422571,-5.364926,0.
 C,0,-1.120422,-2.78002,0.
 C,0,1.120422,-2.78002,0.
 N,0,0.,-1.989101,0.
 H,0,-1.231071,-7.50255,0.
 H,0,1.231071,-7.50255,0.
 H,0,-2.508027,-5.356475,0.
 H,0,2.508027,-5.356475,0.
 Zn,0,0.,0.,0.
 C,0,18.701663,6.554204,5.
 C,0,17.298337,6.554204,5.
 C,0,19.422571,5.364926,5.
 C,0,18.703967,4.174565,5.
 C,0,17.296033,4.174565,5.
 C,0,16.577429,5.364926,5.
 C,0,19.120422,2.78002,5.
 C,0,16.879578,2.78002,5.
 N,0,18.,1.989101,5.
 N,0,15.609432,2.390568,5.
 N,0,20.390568,2.390568,5.
 H,0,19.231071,7.50255,5.
 H,0,16.768929,7.50255,5.
 H,0,20.508027,5.356475,5.
 H,0,15.491973,5.356475,5.
 C,0,24.554204,-0.701663,5.
 C,0,24.554204,0.701663,5.
 C,0,23.364926,-1.422571,5.
 C,0,22.174565,-0.703967,5.
 C,0,22.174565,0.703967,5.
 C,0,23.364926,1.422571,5.
 C,0,20.78002,-1.120422,5.
 C,0,20.78002,1.120422,5.
 N,0,19.989101,0.,5.
 N,0,20.390568,-2.390568,5.
 H,0,25.50255,-1.231071,5.
 H,0,25.50255,1.231071,5.
 H,0,23.356475,-2.508027,5.
 H,0,23.356475,2.508027,5.
 C,0,11.445796,0.701663,5.
 C,0,11.445796,-0.701663,5.
 C,0,12.635074,1.422571,5.
 C,0,13.825435,0.703967,5.
 C,0,13.825435,-0.703967,5.
 C,0,12.635074,-1.422571,5.
 C,0,15.21998,1.120422,5.
 C,0,15.21998,-1.120422,5.
 N,0,16.010899,0.,5.
 N,0,15.609432,-2.390568,5.
 H,0,10.49745,1.231071,5.
 H,0,10.49745,-1.231071,5.
 H,0,12.643525,2.508027,5.
 H,0,12.643525,-2.508027,5.
 C,0,17.298337,-6.554204,5.
 C,0,18.701663,-6.554204,5.
 C,0,16.577429,-5.364926,5.
 C,0,17.296033,-4.174565,5.
 C,0,18.703967,-4.174565,5.
 C,0,19.422571,-5.364926,5.
 C,0,16.879578,-2.78002,5.
 C,0,19.120422,-2.78002,5.
 N,0,18.,-1.989101,5.
 H,0,16.768929,-7.50255,5.
 H,0,19.231071,-7.50255,5.
 H,0,15.491973,-5.356475,5.
 H,0,20.508027,-5.356475,5.
 Zn,0,18.,0.,5.
 Recover connectivity data from disk.
 Stoichiometry    C64H32N16Zn2
 Framework group  C2H[SGH(N4Zn2),X(C64H32N12)]
 Deg. of freedom    86
 Full point group                 C2H     NOp   4
 Largest Abelian subgroup         C2H     NOp   4
 Largest concise Abelian subgroup C2H     NOp   4
                         Standard orientation:                         
 ---------------------------------------------------------------------
 Center     Atomic      Atomic             Coordinates (Angstroms)
 Number     Number       Type             X           Y           Z
 ---------------------------------------------------------------------
      1          6           0        2.500000    8.298337    6.554204
      2          6           0        2.500000    9.701663    6.554204
      3          6           0        2.500000    7.577429    5.364926
      4          6           0        2.500000    8.296033    4.174565
      5          6           0        2.500000    9.703967    4.174565
      6          6           0        2.500000   10.422571    5.364926
      7          6           0        2.500000    7.879578    2.780020
      8          6           0        2.500000   10.120422    2.780020
      9          7           0        2.500000    9.000000    1.989101
     10          7           0        2.500000   11.390568    2.390568
     11          7           0        2.500000    6.609432    2.390568
     12          1           0        2.500000    7.768929    7.502550
     13          1           0        2.500000   10.231071    7.502550
     14          1           0        2.500000    6.491973    5.356475
     15          1           0        2.500000   11.508027    5.356475
     16          6           0        2.500000    2.445796   -0.701663
     17          6           0        2.500000    2.445796    0.701663
     18          6           0        2.500000    3.635074   -1.422571
     19          6           0        2.500000    4.825435   -0.703967
     20          6           0        2.500000    4.825435    0.703967
     21          6           0        2.500000    3.635074    1.422571
     22          6           0        2.500000    6.219980   -1.120422
     23          6           0        2.500000    6.219980    1.120422
     24          7           0        2.500000    7.010899   -0.000000
     25          7           0        2.500000    6.609432   -2.390568
     26          1           0        2.500000    1.497450   -1.231071
     27          1           0        2.500000    1.497450    1.231071
     28          1           0        2.500000    3.643525   -2.508027
     29          1           0        2.500000    3.643525    2.508027
     30          6           0        2.500000   15.554204    0.701663
     31          6           0        2.500000   15.554204   -0.701663
     32          6           0        2.500000   14.364926    1.422571
     33          6           0        2.500000   13.174565    0.703967
     34          6           0        2.500000   13.174565   -0.703967
     35          6           0        2.500000   14.364926   -1.422571
     36          6           0        2.500000   11.780020    1.120422
     37          6           0        2.500000   11.780020   -1.120422
     38          7           0        2.500000   10.989101   -0.000000
     39          7           0        2.500000   11.390568   -2.390568
     40          1           0        2.500000   16.502550    1.231071
     41          1           0        2.500000   16.502550   -1.231071
     42          1           0        2.500000   14.356475    2.508027
     43          1           0        2.500000   14.356475   -2.508027
     44          6           0        2.500000    9.701663   -6.554204
     45          6           0        2.500000    8.298337   -6.554204
     46          6           0        2.500000   10.422571   -5.364926
     47          6           0        2.500000    9.703967   -4.174565
     48          6           0        2.500000    8.296033   -4.174565
     49          6           0        2.500000    7.577429   -5.364926
     50          6           0        2.500000   10.120422   -2.780020
     51          6           0        2.500000    7.879578   -2.780020
     52          7           0        2.500000    9.000000   -1.989101
     53          1           0        2.500000   10.231071   -7.502550
     54          1           0        2.500000    7.768929   -7.502550
     55          1           0        2.500000   11.508027   -5.356475
     56          1           0        2.500000    6.491973   -5.356475
     57         30           0        2.500000    9.000000   -0.000000
     58          6           0       -2.500000   -9.701663    6.554204
     59          6           0       -2.500000   -8.298337    6.554204
     60          6           0       -2.500000  -10.422571    5.364926
     61          6           0       -2.500000   -9.703967    4.174565
     62          6           0       -2.500000   -8.296033    4.174565
     63          6           0       -2.500000   -7.577429    5.364926
     64          6           0       -2.500000  -10.120422    2.780020
     65          6           0       -2.500000   -7.879578    2.780020
     66          7           0       -2.500000   -9.000000    1.989101
     67          7           0       -2.500000   -6.609432    2.390568
     68          7           0       -2.500000  -11.390568    2.390568
     69          1           0       -2.500000  -10.231071    7.502550
     70          1           0       -2.500000   -7.768929    7.502550
     71          1           0       -2.500000  -11.508027    5.356475
     72          1           0       -2.500000   -6.491973    5.356475
     73          6           0       -2.500000  -15.554204   -0.701663
     74          6           0       -2.500000  -15.554204    0.701663
     75          6           0       -2.500000  -14.364926   -1.422571
     76          6           0       -2.500000  -13.174565   -0.703967
     77          6           0       -2.500000  -13.174565    0.703967
     78          6           0       -2.500000  -14.364926    1.422571
     79          6           0       -2.500000  -11.780020   -1.120422
     80          6           0       -2.500000  -11.780020    1.120422
     81          7           0       -2.500000  -10.989101   -0.000000
     82          7           0       -2.500000  -11.390568   -2.390568
     83          1           0       -2.500000  -16.502550   -1.231071
     84          1           0       -2.500000  -16.502550    1.231071
     85          1           0       -2.500000  -14.356475   -2.508027
     86          1           0       -2.500000  -14.356475    2.508027
     87          6           0       -2.500000   -2.445796    0.701663
     88          6           0       -2.500000   -2.445796   -0.701663
     89          6           0       -2.500000   -3.635074    1.422571
     90          6           0       -2.500000   -4.825435    0.703967
     91          6           0       -2.500000   -4.825435   -0.703967
     92          6           0       -2.500000   -3.635074   -1.422571
     93          6           0       -2.500000   -6.219980    1.120422
     94          6           0       -2.500000   -6.219980   -1.120422
     95          7           0       -2.500000   -7.010899   -0.000000
     96          7           0       -2.500000   -6.609432   -2.390568
     97          1           0       -2.500000   -1.497450    1.231071
     98          1           0       -2.500000   -1.497450   -1.231071
     99          1           0       -2.500000   -3.643525    2.508027
    100          1           0       -2.500000   -3.643525   -2.508027
    101          6           0       -2.500000   -8.298337   -6.554204
    102          6           0       -2.500000   -9.701663   -6.554204
    103          6           0       -2.500000   -7.577429   -5.364926
    104          6           0       -2.500000   -8.296033   -4.174565
    105          6           0       -2.500000   -9.703967   -4.174565
    106          6           0       -2.500000  -10.422571   -5.364926
    107          6           0       -2.500000   -7.879578   -2.780020
    108          6           0       -2.500000  -10.120422   -2.780020
    109          7           0       -2.500000   -9.000000   -1.989101
    110          1           0       -2.500000   -7.768929   -7.502550
    111          1           0       -2.500000  -10.231071   -7.502550
    112          1           0       -2.500000   -6.491973   -5.356475
    113          1           0       -2.500000  -11.508027   -5.356475
    114         30           0       -2.500000   -9.000000   -0.000000
 ---------------------------------------------------------------------
 Rotational constants (GHZ):      0.0419220      0.0045185      0.0041277
 General basis read from cards:  (5D, 7F)
 There are   618 symmetry adapted cartesian basis functions of AG  symmetry.
 There are   573 symmetry adapted cartesian basis functions of BG  symmetry.
 There are   573 symmetry adapted cartesian basis functions of AU  symmetry.
 There are   618 symmetry adapted cartesian basis functions of BU  symmetry.
 There are   570 symmetry adapted basis functions of AG  symmetry.
 There are   534 symmetry adapted basis functions of BG  symmetry.
 There are   534 symmetry adapted basis functions of AU  symmetry.
 There are   570 symmetry adapted basis functions of BU  symmetry.
  2208 basis functions,  3746 primitive gaussians,  2382 cartesian basis functions
   294 alpha electrons      294 beta electrons
       nuclear repulsion energy     12616.7654857008 Hartrees.
 NAtoms=  114 NActive=  114 NUniq=   30 SFac= 4.00D+00 NAtFMM=   60 NAOKFM=T Big=F
 Integral buffers will be    131072 words long.
 Raffenetti 1 integral format.
 Two-electron integral symmetry is turned on.
 One-electron integrals computed using PRISM.
 NBasis=  2208 RedAO= T EigKep=  1.25D-06  NBF=   570   534   534   570
 NBsUse=  2208 1.00D-06 EigRej= -1.00D+00 NBFU=   570   534   534   570
 Initial guess from the checkpoint file:  "ZnPc2_50_180.chk"
 B after Tr=     0.000000   -0.000000   -0.000000
         Rot=    1.000000   -0.000000   -0.000000    0.000000 Ang=   0.00 deg.
 Initial guess orbital symmetries:
       Occupied  (BU) (AG) (BU) (AG) (AG) (BU) (BU) (AG) (BG) (AU)
                 (BU) (AG) (AU) (BG) (AG) (BU) (BU) (AG) (AG) (BU)
                 (BG) (AU) (AG) (BU) (BG) (AU) (BG) (AU) (BU) (AG)
                 (BG) (AU) (BG) (AU) (AG) (BU) (AG) (BU) (BG) (AU)
                 (AG) (BU) (AU) (BG) (AU) (BG) (BU) (AG) (AU) (BG)
                 (BU) (AG) (BU) (AG) (BG) (AU) (BU) (AG) (BG) (AU)
                 (BU) (AG) (AG) (BU) (AG) (BU) (BG) (AU) (BU) (AG)
                 (BG) (AU) (AU) (BG) (BU) (AG) (BG) (AU) (AG) (BU)
                 (AG) (BU) (AU) (BG) (AU) (BG) (AG) (BU) (BG) (AU)
                 (BU) (AG) (BU) (AG) (BU) (AG) (BG) (AU) (AG) (BU)
                 (AG) (BU) (BG) (AU) (AG) (BU) (BG) (AU) (AG) (BU)
                 (AU) (BG) (AG) (BU) (AG) (BU) (AU) (BG) (AG) (BU)
                 (AG) (BU) (AU) (BG) (AG) (BU) (AU) (BG) (AG) (BU)
                 (AU) (BG) (AG) (BU) (AG) (BU) (AU) (BG) (AU) (BG)
                 (AU) (BG) (AG) (BU) (AG) (BU) (AG) (BU) (AU) (BG)
                 (AG) (BU) (AU) (BG) (AG) (BU) (AU) (BG) (AG) (BU)
                 (AU) (BG) (AU) (BG) (AG) (BU) (AG) (BU) (AU) (BG)
                 (AG) (BU) (AG) (BU) (AU) (BG) (AU) (BG) (AU) (BG)
                 (AG) (BU) (AG) (BU) (AG) (BU) (AG) (BU) (AU) (BG)
                 (AG) (BU) (AU) (BG) (BG) (AU) (AG) (BU) (AG) (BU)
                 (AU) (BG) (AG) (BU) (AG) (BU) (BG) (AU) (AU) (BG)
                 (AG) (BU) (BG) (AU) (AG) (BU) (BG) (AU) (AG) (BU)
                 (AU) (BG) (AU) (BG) (AG) (BU) (AG) (BU) (AG) (BU)
                 (AU) (BG) (AG) (BU) (AG) (BU) (AU) (BG) (AU) (BG)
                 (AG) (BU) (AU) (BG) (AG) (BU) (AU) (BG) (AU) (BG)
                 (AG) (BU) (AG) (BU) (AG) (BU) (AU) (BG) (AG) (BU)
                 (AU) (BG) (AG) (BU) (BU) (AG) (AG) (BU) (AU) (BG)
                 (AU) (BG) (AU) (BG) (AG) (BU) (AU) (BG) (AU) (BG)
                 (AG) (BU) (AG) (BU) (AU) (BG) (AG) (BU) (AG) (BU)
                 (AG) (BU) (AU) (BG)
       Virtual   (AU) (BG) (AG) (BU) (AU) (BG) (AG) (BU) (AG) (BU)
                 (AG) (BU) (AU) (BG) (AG) (BU) (AU) (BG) (AU) (AG)
                 (BU) (BG) (AG) (BU) (AG) (BU) (AG) (AU) (BG) (BU)
                 (AU) (BG) (AG) (BU) (AG) (BU) (AU) (BG) (AG) (AU)
                 (BG) (BU) (AG) (BU) (AU) (BG) (AG) (BU) (AU) (BG)
                 (AU) (AG) (BU) (BG) (AU) (BG) (AG) (BU) (AG) (BU)
                 (AU) (AG) (BU) (BG) (AU) (BG) (AU) (BU) (AG) (BG)
                 (AG) (BU) (AU) (BG) (AU) (BG) (AU) (BG) (AG) (BU)
                 (BU) (AG) (AU) (BG) (AG) (BU) (AU) (BU) (AG) (BG)
                 (AU) (BG) (AU) (BG) (AG) (AU) (BG) (BU) (AG) (BU)
                 (AU) (AG) (BU) (BG) (AU) (BG) (AG) (BU) (AU) (AG)
                 (BU) (BG) (AU) (BG) (AG) (AU) (BG) (BU) (AG) (BU)
                 (AG) (BU) (BU) (AG) (AU) (BG) (AU) (BG) (BU) (AG)
                 (AG) (BU) (AU) (BG) (AG) (BU) (AG) (BU) (AU) (BG)
                 (BU) (AG) (BU) (AG) (AU) (BG) (AU) (AG) (BU) (BG)
                 (AG) (AU) (BG) (BU) (AG) (AU) (BU) (BG) (AU) (BG)
                 (BU) (AG) (AU) (BG) (AG) (AU) (BG) (BU) (AG) (BU)
                 (BU) (AG) (AU) (BG) (AG) (BU) (AU) (AG) (BU) (BG)
                 (AG) (BU) (AU) (BG) (AU) (AG) (BU) (BG) (AU) (BG)
                 (AG) (BU) (AG) (BU) (AG) (BU) (AG) (AU) (BG) (BU)
                 (AU) (BG) (AG) (BU) (AU) (BG) (AG) (BU) (AU) (BG)
                 (AU) (AG) (BU) (BG) (BU) (AG) (AU) (BG) (AU) (BU)
                 (AG) (BG) (BU) (AG) (AU) (BG) (AG) (BU) (AU) (BG)
                 (AU) (BG) (AG) (BU) (AU) (AG) (BU) (BG) (AU) (BG)
                 (AG) (BU) (AU) (BG) (AU) (BG) (AG) (AU) (BG) (BU)
                 (AG) (AU) (BG) (BU) (AG) (BU) (AU) (BG) (AG) (AU)
                 (BU) (BG) (AU) (BG) (AG) (BU) (AG) (AU) (BG) (BU)
                 (AU) (BG) (AG) (BU) (AU) (BG) (AG) (BU) (AG) (BU)
                 (AU) (AG) (BU) (BG) (AU) (BG) (AG) (BU) (AU) (BG)
                 (BU) (AG) (AG) (AU) (BG) (BU) (AU) (BG) (AG) (BU)
                 (AG) (BU) (AU) (AG) (BU) (BG) (AG) (AU) (BU) (BG)
                 (AU) (BU) (AG) (BG) (AG) (BU) (AU) (BG) (AU) (BG)
                 (AU) (BG) (AU) (AG) (BG) (BU) (AG) (AU) (BG) (BU)
                 (AU) (BG) (AU) (AG) (BU) (BG) (AG) (BU) (BG) (AU)
                 (AU) (BG) (AG) (BU) (AG) (BG) (BU) (AU) (AU) (BG)
                 (AG) (BU) (AG) (AU) (BG) (BU) (BG) (AU) (AU) (AG)
                 (BU) (BG) (AG) (BU) (AU) (BG) (AG) (BU) (AU) (BG)
                 (AG) (BU) (AU) (BG) (AG) (AU) (BU) (BG) (AU) (BG)
                 (AU) (AG) (BU) (BG) (AG) (BU) (AG) (BU) (BU) (AG)
                 (BG) (AU) (BG) (AU) (BG) (AG) (AU) (BU) (AG) (BU)
                 (AU) (BG) (AU) (BG) (AU) (AG) (BU) (BG) (AU) (BG)
                 (BG) (AU) (AG) (BU) (AU) (BG) (AG) (AU) (BG) (BU)
                 (BU) (AG) (AG) (BU) (BU) (BG) (AU) (AG) (AG) (BU)
                 (AG) (BU) (AU) (AG) (BG) (BU) (AU) (BG) (AG) (BU)
                 (AG) (AU) (BG) (BU) (BG) (AU) (AG) (BU) (AU) (BG)
                 (AG) (AU) (BG) (BU) (AU) (BG) (AG) (BU) (AG) (BU)
                 (AU) (BG) (AG) (AU) (BG) (BU) (AG) (BU) (AG) (BU)
                 (AU) (BG) (AG) (BU) (AG) (AU) (BU) (BG) (AG) (BU)
                 (AG) (BU) (AG) (BU) (AG) (BU) (AU) (BG) (AG) (AU)
                 (BG) (BU) (AG) (BU) (BG) (AU) (AG) (BU) (AU) (BG)
                 (AG) (BU) (AU) (BG) (AU) (BG) (AG) (BU) (AU) (BG)
                 (AG) (BU) (AU) (BG) (AG) (BU) (AG) (BU) (AG) (AU)
                 (BG) (BU) (AG) (BU) (AG) (BU) (AU) (BG) (AU) (BG)
                 (AG) (BU) (AU) (BG) (AU) (BG) (AU) (BG) (AG) (BU)
                 (AU) (BU) (AG) (BG) (AG) (BU) (AU) (BG) (AU) (BG)
                 (AG) (BU) (AG) (BU) (AU) (BG) (AU) (BG) (AU) (AG)
                 (BU) (BG) (BU) (AG) (AU) (BG) (AU) (AG) (BU) (BG)
                 (AG) (BU) (AU) (AG) (BU) (BG) (AU) (BG) (AU) (BG)
                 (AG) (BU) (AU) (AG) (BU) (BG) (AU) (BG) (BU) (AG)
                 (AG) (BU) (AG) (BU) (AU) (AG) (BU) (BG) (AU) (BG)
                 (AG) (BU) (BU) (AG) (AU) (BG) (AU) (BG) (AG) (BU)
                 (AG) (BU) (AU) (BG) (AG) (BU) (AU) (BG) (AU) (BG)
                 (AU) (AG) (BU) (BG) (AU) (AG) (BG) (BU) (AG) (BU)
                 (AG) (BU) (AG) (BU) (AG) (BU) (AG) (AU) (BU) (BG)
                 (AG) (AU) (BU) (BG) (AG) (BU) (AU) (BG) (AU) (BG)
                 (AU) (BG) (AU) (AG) (BU) (BG) (AU) (BG) (AG) (BU)
                 (BG) (AU) (AG) (BU) (AG) (AU) (BG) (BU) (BU) (AG)
                 (AU) (BG) (BU) (AU) (BG) (AG) (AU) (BG) (BU) (AG)
                 (BU) (AG) (AU) (BU) (AG) (BG) (AU) (BG) (AU) (BG)
                 (AU) (BU) (AG) (BG) (BU) (AG) (AG) (BU) (AU) (BG)
                 (AG) (BU) (AU) (BG) (AG) (BU) (BU) (AG) (BU) (AU)
                 (AG) (BG) (AU) (BG) (AU) (BG) (AG) (BU) (AG) (BU)
                 (AG) (BU) (AU) (BG) (AU) (BG) (AG) (BU) (AG) (BU)
                 (AU) (BG) (AG) (BU) (AU) (BG) (AG) (BU) (BU) (AG)
                 (AU) (BU) (AG) (BG) (AG) (BU) (AU) (BG) (AU) (BG)
                 (AG) (BU) (AU) (BG) (AG) (AU) (BU) (BG) (AU) (BG)
                 (AG) (BU) (AG) (BU) (AG) (AU) (BU) (BG) (AU) (BG)
                 (AG) (AU) (BG) (BU) (AG) (BU) (AU) (AG) (BU) (BG)
                 (AU) (BG) (AU) (BG) (AU) (BG) (BU) (AG) (AU) (BG)
                 (AG) (BU) (AU) (BG) (AU) (BG) (AG) (BU) (AU) (BG)
                 (AU) (BG) (AU) (BU) (AG) (BG) (AG) (BU) (AG) (BU)
                 (AG) (BU) (AU) (BG) (AU) (BG) (AG) (BU) (AG) (BU)
                 (AU) (BG) (AG) (BU) (AU) (BG) (AG) (BU) (AU) (BG)
                 (AG) (BU) (AU) (BG) (AU) (BU) (AG) (BG) (AU) (BG)
                 (AG) (BU) (BU) (AG) (AG) (BU) (AU) (BG) (AG) (BU)
                 (AG) (BU) (AG) (AU) (BG) (BU) (AU) (BG) (AU) (BG)
                 (AG) (BU) (AU) (BG) (AU) (BG) (AU) (BG) (AG) (BG)
                 (AU) (BU) (AG) (BU) (AU) (BG) (BG) (AU) (AG) (BU)
                 (BU) (AU) (BG) (AG) (BU) (AG) (AU) (BG) (BU) (AG)
                 (AU) (BG) (AG) (BU) (AG) (BU) (AU) (BG) (BU) (AG)
                 (BG) (AU) (AU) (BG) (AU) (BG) (AU) (BG) (BG) (AU)
                 (AG) (BG) (AU) (BU) (BU) (AG) (AU) (BG) (AG) (BU)
                 (AU) (BG) (AG) (BU) (AG) (AU) (BG) (BU) (AG) (BU)
                 (AG) (BU) (AG) (BG) (AU) (BU) (AG) (BU) (AU) (AG)
                 (BU) (BG) (AU) (BG) (AU) (BG) (BU) (AG) (AU) (BU)
                 (AG) (BG) (BU) (AG) (AU) (BG) (AU) (BG) (AG) (BU)
                 (AG) (BU) (BU) (AU) (AG) (BG) (BG) (AU) (AU) (BG)
                 (AG) (BU) (AU) (BG) (AU) (BU) (AG) (BG) (AU) (BG)
                 (AU) (AG) (BU) (BG) (BG) (AU) (AG) (BU) (AG) (BG)
                 (AU) (BU) (AU) (BG) (AG) (BU) (AU) (AG) (BU) (BG)
                 (AG) (BU) (AU) (BG) (AG) (BU) (AU) (BG) (AU) (BG)
                 (AU) (AG) (BU) (BG) (AG) (BU) (BU) (AG) (AU) (BG)
                 (BG) (AU) (AU) (BU) (AG) (BG) (AU) (BG) (AU) (BU)
                 (AG) (BG) (AU) (BG) (AG) (BU) (AU) (BG) (AG) (BU)
                 (BU) (AG) (AU) (BG) (AG) (AU) (BG) (BU) (AG) (AG)
                 (AG) (AG) (AG) (AG) (AG) (AG) (AG) (AG) (AG) (AG)
                 (AG) (AG) (AG) (AG) (AG) (AG) (AG) (AG) (AG) (AG)
                 (AG) (AG) (AG) (AG) (AG) (AG) (AG) (AG) (AG) (AG)
                 (AG) (AG) (AG) (AG) (AG) (AG) (AG) (AG) (AG) (AG)
                 (AG) (AG) (AG) (AG) (AG) (AG) (AG) (AG) (AG) (AG)
                 (AG) (AG) (AG) (AG) (AG) (AG) (AG) (AG) (AG) (AG)
                 (AG) (AG) (AG) (AG) (AG) (AG) (AG) (AG) (AG) (AG)
                 (AG) (AG) (AG) (AG) (AG) (AG) (AG) (AG) (AG) (AG)
                 (AG) (AG) (AG) (AG) (AG) (AG) (AG) (AG) (AG) (AG)
                 (AG) (AG) (AG) (AG) (AG) (AG) (AG) (AG) (AG) (AG)
                 (AG) (AG) (AG) (AG) (AG) (AG) (AG) (AG) (AG) (AG)
                 (AG) (AG) (AG) (AG) (AG) (AG) (AG) (AG) (AG) (AG)
                 (AG) (AG) (AG) (AG) (AG) (AG) (AG) (AG) (AG) (AG)
                 (AG) (AG) (AG) (AG) (AG) (AG) (AG) (AG) (AG) (AG)
                 (AG) (AG) (AG) (AG) (AG) (AG) (AG) (AG) (AG) (AG)
                 (AG) (AG) (AG) (AG) (AG) (AG) (AG) (AG) (AG) (AG)
                 (AG) (AG) (AG) (AG) (AG) (AG) (AG) (AG) (AG) (AG)
                 (AG) (AG) (AG) (AG) (AG) (AG) (AG) (AG) (AG) (AG)
                 (AG) (AG) (AG) (AG) (AG) (AG) (AG) (AG) (AG) (AG)
                 (AG) (AG) (AG) (AG) (AG) (AG) (AG) (AG) (AG) (AG)
                 (AG) (AG) (AG) (AG) (AG) (AG) (AG) (AG) (AG) (AG)
                 (AG) (AG) (AG) (AG) (AG) (AG) (AG) (AG) (AG) (AG)
                 (AG) (BG) (BG) (BG) (BG) (BG) (BG) (BG) (BG) (BG)
                 (BG) (BG) (BG) (BG) (BG) (BG) (BG) (BG) (BG) (BG)
                 (BG) (BG) (BG) (BG) (BG) (BG) (BG) (BG) (BG) (BG)
                 (BG) (BG) (BG) (BG) (BG) (BG) (BG) (BG) (BG) (BG)
                 (BG) (BG) (BG) (BG) (BG) (BG) (BG) (BG) (BG) (BG)
                 (BG) (BG) (BG) (BG) (BG) (BG) (BG) (BG) (BG) (BG)
                 (BG) (BG) (BG) (BG) (BG) (BG) (BG) (BG) (BG) (BG)
                 (BG) (BG) (BG) (BG) (BG) (BG) (BG) (BG) (BG) (BG)
                 (BG) (BG) (BG) (BG) (BG) (BG) (BG) (BG) (BG) (BG)
                 (BG) (BG) (BG) (BG) (BG) (BG) (BG) (BG) (BG) (BG)
                 (BG) (BG) (BG) (BG) (BG) (BG) (BG) (BG) (BG) (BG)
                 (BG) (BG) (BG) (BG) (BG) (BG) (BG) (BG) (BG) (BG)
                 (BG) (BG) (BG) (BG) (BG) (BG) (BG) (BG) (BG) (BG)
                 (BG) (BG) (BG) (BG) (BG) (BG) (BG) (BG) (BG) (BG)
                 (BG) (BG) (BG) (BG) (BG) (BG) (BG) (BG) (BG) (BG)
                 (BG) (BG) (BG) (BG) (BG) (BG) (BG) (BG) (BG) (BG)
                 (BG) (BG) (BG) (BG) (BG) (BG) (BG) (BG) (BG) (BG)
                 (BG) (BG) (BG) (BG) (BG) (BG) (BG) (BG) (BG) (BG)
                 (BG) (BG) (BG) (BG) (BG) (BG) (BG) (BG) (BG) (BG)
                 (BG) (BG) (BG) (BG) (BG) (BG) (BG) (BG) (BG) (BG)
                 (BG) (BG) (BG) (BG) (BG) (BG) (BG) (BG) (BG) (BG)
                 (BG) (AU) (AU) (AU) (AU) (AU) (AU) (AU) (AU) (AU)
                 (AU) (AU) (AU) (AU) (AU) (AU) (AU) (AU) (AU) (AU)
                 (AU) (AU) (AU) (AU) (AU) (AU) (AU) (AU) (AU) (AU)
                 (AU) (AU) (AU) (AU) (AU) (AU) (AU) (AU) (AU) (AU)
                 (AU) (AU) (AU) (AU) (AU) (AU) (AU) (AU) (AU) (AU)
                 (AU) (AU) (AU) (AU) (AU) (AU) (AU) (AU) (AU) (AU)
                 (AU) (AU) (AU) (AU) (AU) (AU) (AU) (AU) (AU) (AU)
                 (AU) (AU) (AU) (AU) (AU) (AU) (AU) (AU) (AU) (AU)
                 (AU) (AU) (AU) (AU) (AU) (AU) (AU) (AU) (AU) (AU)
                 (AU) (AU) (AU) (AU) (AU) (AU) (AU) (AU) (AU) (AU)
                 (AU) (AU) (AU) (AU) (AU) (AU) (AU) (AU) (AU) (AU)
                 (AU) (AU) (AU) (AU) (AU) (AU) (AU) (AU) (AU) (AU)
                 (AU) (AU) (AU) (AU) (AU) (AU) (AU) (AU) (AU) (AU)
                 (AU) (AU) (AU) (AU) (AU) (AU) (AU) (AU) (AU) (AU)
                 (AU) (AU) (AU) (AU) (AU) (AU) (AU) (AU) (AU) (AU)
                 (AU) (AU) (AU) (AU) (AU) (AU) (AU) (AU) (AU) (AU)
                 (AU) (AU) (AU) (AU) (AU) (AU) (AU) (AU) (AU) (AU)
                 (AU) (AU) (AU) (AU) (AU) (AU) (AU) (AU) (AU) (AU)
                 (AU) (AU) (AU) (AU) (AU) (AU) (AU) (AU) (AU) (AU)
                 (AU) (AU) (AU) (AU) (AU) (AU) (AU) (AU) (AU) (AU)
                 (AU) (AU) (AU) (AU) (AU) (AU) (AU) (AU) (AU) (AU)
                 (AU) (BU) (BU) (BU) (BU) (BU) (BU) (BU) (BU) (BU)
                 (BU) (BU) (BU) (BU) (BU) (BU) (BU) (BU) (BU) (BU)
                 (BU) (BU) (BU) (BU) (BU) (BU) (BU) (BU) (BU) (BU)
                 (BU) (BU) (BU) (BU) (BU) (BU) (BU) (BU) (BU) (BU)
                 (BU) (BU) (BU) (BU) (BU) (BU) (BU) (BU) (BU) (BU)
                 (BU) (BU) (BU) (BU) (BU) (BU) (BU) (BU) (BU) (BU)
                 (BU) (BU) (BU) (BU) (BU) (BU) (BU) (BU) (BU) (BU)
                 (BU) (BU) (BU) (BU) (BU) (BU) (BU) (BU) (BU) (BU)
                 (BU) (BU) (BU) (BU) (BU) (BU) (BU) (BU) (BU) (BU)
                 (BU) (BU) (BU) (BU) (BU) (BU) (BU) (BU) (BU) (BU)
                 (BU) (BU) (BU) (BU) (BU) (BU) (BU) (BU) (BU) (BU)
                 (BU) (BU) (BU) (BU) (BU) (BU) (BU) (BU) (BU) (BU)
                 (BU) (BU) (BU) (BU) (BU) (BU) (BU) (BU) (BU) (BU)
                 (BU) (BU) (BU) (BU) (BU) (BU) (BU) (BU) (BU) (BU)
                 (BU) (BU) (BU) (BU) (BU) (BU) (BU) (BU) (BU) (BU)
                 (BU) (BU) (BU) (BU) (BU) (BU) (BU) (BU) (BU) (BU)
                 (BU) (BU) (BU) (BU) (BU) (BU) (BU) (BU) (BU) (BU)
                 (BU) (BU) (BU) (BU) (BU) (BU) (BU) (BU) (BU) (BU)
                 (BU) (BU) (BU) (BU) (BU) (BU) (BU) (BU) (BU) (BU)
                 (BU) (BU) (BU) (BU) (BU) (BU) (BU) (BU) (BU) (BU)
                 (BU) (BU) (BU) (BU) (BU) (BU) (BU) (BU) (BU) (BU)
                 (BU) (BU) (BU) (BU) (BU) (BU) (BU) (BU) (BU) (BU)
                 (BU) (BU) (BU) (BU)
 Requested convergence on RMS density matrix=1.00D-08 within 128 cycles.
 Requested convergence on MAX density matrix=1.00D-06.
 Requested convergence on             energy=1.00D-06.
 No special actions if energy rises.
 SCF Done:  E(RLC-B+HF-LYP) =  -6885.16770986     A.U. after   14 cycles
            NFock= 14  Conv=0.80D-08     -V/T= 2.0025
 ExpMin= 4.78D-02 ExpMax= 4.06D+05 ExpMxC= 3.92D+03 IAcc=3 IRadAn=         5 AccDes= 0.00D+00
 HarFok:  IExCor=  205 AccDes= 0.00D+00 IRadAn=         5 IDoV=-2 UseB2=F ITyADJ=14
 ICtDFT= 12500011 ScaDFX=  1.000000  1.000000  1.000000  1.000000
 Range of M.O.s used for correlation:    99  2208
 NBasis=  2208 NAE=   294 NBE=   294 NFC=    98 NFV=     0
 NROrb=   2110 NOA=   196 NOB=   196 NVA=  1914 NVB=  1914

 **** Warning!!: The largest alpha MO coefficient is  0.39847227D+02

 Would need an additional       7426252400000 words for in-memory AO integral storage.
 Orbital symmetries:
       Occupied  (AG) (BU) (BU) (AG) (BU) (AG) (BU) (AG) (BG) (AU)
                 (AG) (BU) (BU) (AG) (AU) (BG) (AG) (BU) (AU) (BG)
                 (BU) (AG) (AU) (BG) (BU) (AG) (BG) (AU) (AG) (BU)
                 (BG) (AU) (BG) (AU) (AG) (BU) (AG) (BU) (BG) (AU)
                 (BU) (AG) (BU) (AG) (BG) (AU) (BU) (AG) (BU) (AG)
                 (BG) (AU) (BG) (AU) (AG) (BU) (AU) (BG) (AU) (BG)
                 (AG) (BU) (BG) (AU) (AG) (BU) (BG) (AU) (BG) (AU)
                 (BU) (AG) (BU) (AG) (BG) (AU) (AG) (BU) (AG) (BU)
                 (AG) (BU) (BG) (AU) (AG) (BU) (AU) (BG) (AU) (BG)
                 (BU) (AG) (BU) (AG) (BU) (AG) (BG) (AU) (AG) (BU)
                 (AG) (BU) (BG) (AU) (AG) (BU) (AU) (BG) (AG) (BU)
                 (BG) (AU) (AG) (BU) (AG) (BU) (BG) (AU) (AG) (BU)
                 (AG) (BU) (AU) (BG) (AG) (BU) (AU) (BG) (AG) (BU)
                 (AU) (BG) (AG) (BU) (AG) (BU) (AU) (BG) (AU) (BG)
                 (AU) (AG) (BG) (BU) (AG) (BU) (AG) (BU) (AU) (BG)
                 (AG) (BU) (AU) (BG) (AG) (BU) (AG) (BU) (AU) (BG)
                 (AU) (BG) (AU) (BG) (AG) (BU) (AG) (AU) (BG) (BU)
                 (AG) (BU) (AG) (BU) (AU) (BG) (AU) (BG) (AU) (BG)
                 (AG) (BU) (AG) (BU) (AG) (BU) (AG) (BU) (BG) (AU)
                 (AG) (BU) (AU) (BG) (AU) (BG) (AG) (BU) (AG) (BU)
                 (AU) (BG) (AG) (BU) (AU) (BG) (AG) (BU) (BG) (AU)
                 (AG) (BU) (BG) (AU) (AG) (BU) (AU) (BG) (AG) (BU)
                 (AU) (BG) (AU) (BG) (AG) (BU) (AG) (BU) (AG) (BU)
                 (AU) (BG) (AG) (BU) (AU) (BG) (AG) (BU) (AU) (BG)
                 (AG) (BU) (AU) (BG) (AG) (BU) (AU) (BG) (AU) (BG)
                 (AG) (BU) (AG) (BU) (AG) (BU) (AU) (BG) (AG) (BU)
                 (AU) (BG) (AG) (BU) (AG) (BU) (AG) (BU) (AU) (BG)
                 (AU) (BG) (AU) (BG) (AG) (BU) (AU) (BG) (AU) (BG)
                 (AG) (BU) (AG) (BU) (AG) (AU) (BG) (BU) (AG) (BU)
                 (AG) (BU) (AU) (BG)
       Virtual   (AU) (BG) (AG) (BU) (AU) (BG) (AG) (BU) (AG) (BU)
                 (AG) (AU) (BG) (BU) (AG) (BU) (AG) (BU) (AU) (BG)
                 (AU) (AG) (BU) (BG) (AG) (BG) (AU) (BU) (AG) (BU)
                 (AG) (AU) (BG) (BU) (AG) (BU) (AU) (BG) (AG) (BU)
                 (AU) (BG) (AG) (AU) (BG) (BU) (AG) (BU) (AU) (BG)
                 (AU) (AG) (BU) (BG) (AU) (BG) (AG) (BU) (BU) (AG)
                 (AG) (BU) (AU) (AG) (BU) (BG) (AU) (BG) (BU) (AU)
                 (BG) (AG) (AG) (BU) (AG) (AU) (BG) (BU) (AU) (BG)
                 (BU) (AG) (AU) (AG) (BU) (BG) (AU) (BU) (AG) (BG)
                 (AG) (BU) (BU) (AG) (AU) (BG) (AU) (BG) (AU) (BG)
                 (AG) (AU) (BG) (BU) (AG) (AU) (BG) (BU) (AG) (BU)
                 (AG) (BU) (AG) (BU) (AU) (BG) (AG) (AU) (BG) (BU)
                 (AG) (BU) (AU) (BG) (AG) (BU) (BU) (AU) (BG) (AG)
                 (BG) (AU) (AU) (BG) (AG) (AU) (BG) (BU) (BU) (AU)
                 (BG) (AG) (AG) (BU) (AU) (BG) (AG) (AU) (BG) (BU)
                 (AG) (BU) (AU) (AG) (BU) (BG) (AU) (BG) (AU) (BG)
                 (AG) (BU) (AG) (BU) (BU) (AG) (AU) (BU) (AG) (BG)
                 (BU) (AG) (BU) (AU) (BG) (AG) (AU) (BG) (BU) (AG)
                 (AG) (AU) (BG) (BU) (BU) (AG) (BU) (BG) (AU) (AG)
                 (BU) (AG) (AU) (BG) (AG) (BG) (AU) (BU) (AU) (BG)
                 (BU) (AG) (AU) (AG) (BU) (AG) (BG) (AU) (BG) (BU)
                 (AG) (BU) (BU) (BG) (AU) (AG) (AG) (BU) (AG) (AU)
                 (BG) (BU) (AU) (AG) (BU) (BG) (AU) (AG) (BU) (BG)
                 (BU) (BG) (AU) (AG) (AU) (AG) (BU) (BG) (AG) (BU)
                 (AG) (BU) (AU) (BG) (BU) (AG) (AU) (BG) (BG) (BU)
                 (AG) (AU) (AU) (AG) (BU) (BG) (AU) (BG) (BG) (AU)
                 (AG) (BU) (AU) (AG) (BU) (BG) (BG) (BU) (AG) (AU)
                 (BG) (AU) (AG) (BU) (AU) (AG) (BU) (BG) (BU) (AG)
                 (BG) (AG) (BU) (AU) (AU) (AG) (BU) (BG) (AU) (BG)
                 (AU) (BG) (BU) (AG) (AU) (BG) (BU) (AG) (AU) (BG)
                 (BG) (AU) (BU) (AG) (BG) (AU) (BG) (AG) (BU) (AU)
                 (BG) (AU) (BU) (AU) (BG) (AG) (AU) (BG) (AG) (BU)
                 (BU) (AG) (AU) (BG) (BU) (AG) (AU) (AG) (BG) (BU)
                 (AU) (BU) (AG) (BG) (AU) (AG) (BU) (BG) (AU) (BG)
                 (AU) (BG) (AU) (AG) (BU) (BG) (AG) (BU) (AU) (AG)
                 (BU) (BG) (AG) (BU) (BG) (AU) (BG) (BU) (AU) (AG)
                 (AG) (BU) (BU) (AG) (BG) (AU) (AG) (BU) (BG) (AU)
                 (AG) (BU) (AU) (AG) (BU) (BG) (AG) (BU) (BU) (AU)
                 (BG) (AG) (BU) (AG) (AG) (AU) (BG) (BU) (AU) (BG)
                 (AU) (AG) (BU) (BG) (BG) (AU) (AU) (BG) (BG) (AU)
                 (BG) (BU) (AG) (AU) (AG) (BU) (AG) (BU) (AG) (BG)
                 (AU) (BU) (AU) (BG) (AG) (BG) (AU) (BU) (AG) (BU)
                 (BU) (AG) (BG) (AU) (AG) (BG) (AU) (BU) (BU) (AG)
                 (AG) (BU) (AU) (BG) (BG) (AU) (BU) (AG) (AU) (BG)
                 (AU) (AG) (BU) (AG) (BU) (BG) (AG) (BU) (AG) (BU)
                 (BG) (BU) (AG) (AU) (AU) (BG) (AU) (BG) (AU) (BU)
                 (AG) (BG) (AU) (BG) (AG) (BU) (BU) (AG) (AU) (BG)
                 (AU) (AG) (BG) (BU) (AG) (BU) (AG) (BU) (AU) (BG)
                 (AG) (AU) (BU) (BG) (BG) (AU) (AU) (BG) (AG) (AU)
                 (BG) (BU) (AG) (BU) (AU) (AG) (BU) (BG) (AU) (AG)
                 (BU) (BG) (AG) (BU) (AG) (BG) (AU) (BU) (BU) (AG)
                 (BU) (AG) (BG) (BU) (AG) (AU) (BG) (AU) (AU) (BG)
                 (BU) (BG) (AU) (AG) (BU) (AG) (AU) (BG) (AU) (AG)
                 (BU) (BG) (AG) (BU) (AG) (BU) (AG) (AU) (BG) (BU)
                 (AG) (BU) (AU) (BG) (AG) (BG) (AU) (BU) (AG) (BU)
                 (AU) (BG) (AG) (BG) (AU) (BU) (BG) (AU) (AG) (AU)
                 (BG) (BU) (AG) (BU) (AU) (AG) (BG) (BU) (AU) (AU)
                 (BG) (AG) (BU) (BG) (AU) (BG) (AU) (AG) (BU) (BG)
                 (BG) (AU) (AG) (BU) (AG) (BU) (AG) (BU) (AG) (BU)
                 (AG) (BU) (AG) (AU) (BG) (BU) (AU) (BG) (AG) (AU)
                 (BG) (BU) (AG) (AU) (BG) (BU) (AU) (BG) (AU) (BG)
                 (BU) (AG) (AG) (BU) (AU) (AG) (BU) (BG) (BU) (AG)
                 (AU) (AG) (BG) (BU) (BG) (AU) (AG) (BU) (AG) (BU)
                 (AU) (BG) (AU) (BG) (AG) (BG) (AU) (BU) (AG) (BU)
                 (AU) (BG) (BG) (AU) (AG) (BU) (AG) (BU) (AG) (BG)
                 (AU) (BU) (AU) (BG) (AU) (AG) (BU) (BG) (AU) (BG)
                 (AG) (AU) (BG) (BU) (AU) (BG) (AG) (BU) (BG) (AU)
                 (AU) (BU) (AG) (BG) (AU) (BG) (AG) (BU) (AU) (AG)
                 (BU) (BG) (AG) (AU) (BG) (BU) (BU) (AG) (AG) (AU)
                 (BU) (BG) (AG) (BG) (AU) (BU) (BU) (AG) (AU) (BG)
                 (AG) (BU) (AU) (BG) (AU) (AG) (BU) (BG) (AG) (BU)
                 (AG) (AU) (BG) (BU) (AG) (BU) (AU) (BG) (AG) (BU)
                 (AU) (BG) (AU) (AG) (BU) (BG) (AU) (BG) (AU) (AG)
                 (BU) (BG) (AU) (AG) (BU) (BG) (AU) (AG) (BU) (BG)
                 (AG) (BU) (AG) (BU) (AG) (AU) (BG) (BU) (AU) (AG)
                 (BU) (BG) (AG) (BU) (AU) (BG) (AU) (BG) (BG) (AU)
                 (BU) (AG) (AU) (BG) (AG) (BU) (AU) (BG) (AG) (AU)
                 (BG) (BU) (AG) (BU) (BG) (BU) (AG) (AU) (AG) (BU)
                 (AG) (AU) (BG) (BU) (AG) (BU) (BU) (AG) (AU) (BG)
                 (BG) (AU) (BU) (AU) (BG) (AG) (BG) (AU) (AG) (BU)
                 (BG) (AU) (AU) (BG) (BU) (AG) (BU) (AG) (AG) (BU)
                 (AU) (BG) (AU) (AG) (BU) (BG) (AU) (BG) (AG) (BU)
                 (AG) (BU) (AG) (BU) (AU) (BG) (AU) (AG) (BU) (BG)
                 (BU) (AU) (AG) (BG) (AU) (BG) (AG) (BU) (AU) (AG)
                 (BU) (BG) (AU) (BG) (BU) (AG) (BU) (AG) (AU) (BG)
                 (AU) (BG) (AG) (BU) (BG) (BU) (AU) (AU) (BG) (AG)
                 (AG) (AU) (BG) (BU) (AG) (BU) (BU) (AG) (AU) (BU)
                 (AG) (BG) (AG) (AU) (BG) (BU) (BG) (AG) (BU) (AU)
                 (BG) (AU) (AU) (BG) (BU) (AG) (BG) (BU) (AG) (AU)
                 (BG) (AU) (AU) (BG) (BU) (AG) (BU) (BG) (AU) (AG)
                 (BG) (AU) (AG) (BU) (AU) (BG) (AU) (BG) (AG) (BU)
                 (BU) (AG) (AG) (BU) (AU) (BG) (AU) (BG) (AG) (BU)
                 (BU) (AG) (AG) (AU) (BG) (BU) (BG) (BU) (AG) (AU)
                 (BG) (BU) (AU) (AG) (AG) (BU) (AG) (BU) (AU) (BG)
                 (AG) (BU) (AG) (AU) (BG) (BU) (AU) (AG) (BU) (BG)
                 (BG) (AU) (AU) (BG) (AU) (BG) (AG) (AU) (BG) (BU)
                 (BU) (AG) (AU) (BG) (BG) (AG) (BU) (AU) (BG) (AU)
                 (AG) (BU) (AU) (BG) (AG) (AU) (BG) (BU) (AU) (BG)
                 (AG) (BU) (BG) (AU) (AG) (BU) (AU) (BG) (AG) (BG)
                 (AU) (BU) (AG) (BU) (AU) (BG) (AG) (BU) (AU) (BG)
                 (AU) (AG) (BU) (BG) (AU) (BU) (BG) (AG) (AU) (BG)
                 (AG) (BU) (AG) (BU) (AU) (BG) (AG) (BU) (AU) (AG)
                 (BG) (BU) (AG) (AU) (BG) (BU) (AG) (BU) (AU) (BG)
                 (AG) (BU) (AU) (AG) (BU) (BG) (AG) (AU) (BG) (BU)
                 (AU) (BG) (AU) (BG) (AU) (BG) (BU) (AG) (AU) (BG)
                 (BG) (AU) (BG) (BU) (AU) (AG) (BU) (AG) (AG) (AU)
                 (BU) (BG) (AG) (BU) (AG) (BU) (BG) (BU) (AG) (AU)
                 (AG) (BU) (AG) (AU) (BG) (BU) (AU) (BG) (BG) (AU)
                 (AG) (BU) (AU) (AG) (BU) (BG) (BG) (AG) (BU) (AU)
                 (BG) (AU) (AU) (AG) (BU) (BG) (BG) (AU) (BG) (AU)
                 (AG) (BU) (BU) (BG) (AG) (AU) (AU) (BG) (BU) (AG)
                 (AG) (BG) (AU) (BU) (AG) (BU) (BU) (BG) (AU) (AG)
                 (AG) (BU) (AG) (BU) (AU) (BG) (AU) (BG) (AG) (BG)
                 (AU) (BU) (BU) (AG) (BU) (AG) (BU) (AG) (AG) (AU)
                 (BG) (BU) (AG) (BU) (AU) (AG) (BU) (BG) (AU) (BG)
                 (AG) (BU) (AG) (BU) (AG) (AU) (BG) (BU) (BG) (AU)
                 (AU) (BG) (AG) (BU) (BG) (AU) (AG) (BU) (AG) (AU)
                 (BG) (BU) (AU) (BG) (AU) (BG) (AU) (AG) (BU) (BG)
                 (AU) (AG) (BU) (BG) (AG) (BU) (AG) (BU) (AG) (BU)
                 (AU) (BG) (AG) (AU) (AU) (BG) (BG) (BU) (AG) (BU)
                 (AU) (AG) (BG) (BU) (AU) (BG) (AU) (BG) (AG) (BU)
                 (AU) (AG) (BG) (BU) (AG) (BU) (AG) (BU) (AG) (BG)
                 (AU) (BU) (BG) (AU) (BG) (AU) (BU) (AU) (AG) (BG)
                 (AU) (BG) (AG) (BU) (AG) (AU) (BG) (BU) (BU) (AU)
                 (BG) (AG) (AG) (BG) (BU) (AU) (AU) (BG) (BU) (AU)
                 (AG) (BG) (AG) (BU) (AG) (BU) (BG) (AU) (BU) (AG)
                 (BU) (AG) (BU) (AG) (AU) (BG) (AU) (BU) (BG) (AG)
                 (AU) (BG) (BU) (AG) (AU) (AG) (BU) (BG) (AG) (AU)
                 (BG) (BU) (AG) (BU) (AG) (BU) (AU) (BG) (AG) (BU)
                 (AG) (AU) (BG) (BU) (AU) (BG) (AG) (BU) (AG) (BG)
                 (AU) (BU) (AG) (BU) (AG) (BU) (AU) (BG) (AG) (BU)
                 (BG) (AU) (AG) (AU) (BG) (BU) (AG) (AU) (BU) (BG)
                 (AG) (BU) (AU) (BU) (AG) (BG) (AU) (BG) (AG) (BU)
                 (BU) (AG) (AU) (BG) (AG) (BU) (AG) (AU) (BG) (BU)
                 (AU) (AG) (BU) (BG) (AU) (BG) (AG) (BU) (AU) (BG)
                 (AG) (BU) (BG) (AU) (AG) (BG) (AU) (BU) (AG) (BU)
                 (AG) (AU) (BG) (BU) (BG) (AU) (AG) (BU) (AU) (BG)
                 (AU) (BU) (AG) (BG) (AU) (BG) (AG) (BU) (AU) (BG)
                 (AG) (BU) (BU) (AG) (AU) (BU) (AG) (BG) (AU) (BG)
                 (AG) (BU) (AU) (BG) (BG) (AU) (BU) (AG) (AU) (BG)
                 (AG) (BU) (AG) (BG) (AU) (BU) (BG) (AU) (AG) (BU)
                 (AG) (AU) (BG) (BU) (AG) (BG) (AU) (BU) (BG) (AU)
                 (AG) (AU) (BG) (BU) (AG) (BU) (AG) (BU) (AG) (AU)
                 (BG) (BU) (AG) (BG) (AU) (BU) (BG) (AU) (BG) (AU)
                 (AG) (BU) (BG) (AG) (BU) (AU) (AG) (BU) (AU) (AG)
                 (BU) (BG) (AG) (BU) (AG) (BG) (AU) (BG) (AU) (BU)
                 (AG) (BU) (AG) (BU) (AU) (BG) (AU) (BG) (AU) (BU)
                 (AG) (BG) (AG) (BU) (AG) (BU) (AU) (BG) (AU) (AG)
                 (BU) (BG) (AU) (BG) (BU) (BG) (AU) (AG) (AG) (BU)
                 (AG) (AU) (BG) (BU) (BG) (AU) (AG) (BU) (AG) (BU)
                 (AG) (AU) (BG) (BU) (AU) (BG) (AG) (BU) (AU) (AG)
                 (BU) (BG) (BG) (AU) (AG) (BU) (AG) (BG) (AU) (BU)
                 (AU) (BG) (AG) (BU) (BG) (AU) (AU) (BG) (AU) (BG)
                 (AG) (BU) (AU) (BU) (AG) (BG) (AU) (BU) (AG) (BG)
                 (AU) (AG) (BU) (BG) (AU) (BG) (AG) (BU) (AU) (BG)
                 (AG) (BU) (AG) (BU) (AU) (BG) (AU) (BU) (AG) (BG)
                 (AU) (BG) (AG) (BU) (AU) (AG) (BU) (BG) (BU) (AG)
                 (AU) (AG) (BU) (BG) (AU) (BG) (AU) (BG) (AU) (AG)
                 (BU) (BG) (AU) (BG) (AU) (BG) (AG) (BU) (AU) (BG)
                 (AU) (BG) (AU) (BG) (AU) (AG) (BU) (BG) (BU) (AG)
                 (BU) (AU) (BG) (AG) (BG) (AU) (BG) (AU) (BU) (AG)
                 (BU) (AU) (AG) (BG) (AU) (BU) (AG) (BG) (AU) (BG)
                 (AG) (BU) (AG) (BU) (AU) (BG) (AU) (BG) (AU) (AG)
                 (BU) (BG) (AU) (AG) (BU) (BG) (BG) (AU) (AU) (BG)
                 (BG) (BU) (AG) (AU) (AG) (BU) (AG) (BU) (AU) (BG)
                 (AU) (BG) (BG) (AG) (BU) (AU) (AU) (AG) (BU) (BG)
                 (AU) (BG) (BG) (AG) (BU) (AU) (AU) (BG) (BU) (AG)
                 (AG) (BU) (AU) (BG) (AU) (AG) (BU) (BG) (AG) (BU)
                 (AU) (BG) (AU) (AG) (BU) (BG) (AG) (BU) (BU) (AG)
                 (AU) (BG) (AG) (BU) (AG) (BU) (AU) (BG) (AG) (AU)
                 (BU) (BG) (AU) (BG) (BG) (AU) (BU) (BG) (AG) (AU)
                 (BU) (AG) (BG) (AU) (BG) (AG) (BU) (AU) (BG) (AU)
                 (AG) (BU) (BG) (AU) (AU) (BG) (AG) (BU) (AU) (BG)
                 (AU) (BG) (AG) (BU) (AU) (BG) (AG) (BU) (AG) (BU)
                 (AU) (BG) (BU) (AG) (AG) (BU) (AU) (BG) (AU) (BG)
                 (AG) (BU) (AU) (AG) (BU) (BG) (AU) (BG) (AG) (BU)
                 (BU) (AG) (AU) (BG) (AG) (BU) (BU) (BG) (AU) (AG)
                 (BG) (AU) (AU) (BG) (AG) (BU) (BG) (AU) (AG) (AU)
                 (BU) (BG) (AG) (BU) (BG) (AU) (AG) (AU) (BG) (BU)
                 (BU) (AG) (BU) (AU) (BG) (AG) (AG) (BU) (BU) (AU)
                 (BG) (AG) (AU) (BG) (BU) (AG) (BU) (AG) (AU) (AG)
                 (BU) (BG) (AU) (BG) (AG) (BU) (AU) (BG) (AG) (BU)
                 (AU) (BG) (AG) (BU) (AG) (BU) (BG) (BU) (AU) (AG)
                 (AU) (BU) (AG) (BG) (AG) (BU) (AG) (AU) (BG) (BU)
                 (AG) (BU) (BU) (AG) (BU) (AU) (BG) (AG) (BU) (AG)
                 (BU) (AG) (BU) (BG) (AG) (AU) (BG) (AU) (BU) (AU)
                 (BG) (AG) (AU) (BG) (BU) (AG) (BG) (BU) (AG) (AU)
                 (BG) (AU) (BG) (AU) (AU) (BG) (AU) (AG) (BU) (BG)
                 (AG) (BU) (BU) (AG) (BU) (BG) (AU) (AG) (AU) (BG)
                 (AU) (BG) (AU) (AG) (BU) (BG) (AU) (BG) (BU) (BG)
                 (AG) (AU) (BU) (AG) (BU) (AG) (BU) (BG) (AU) (AG)
                 (BG) (AU) (AG) (BU)
    16 initial guesses have been made.
 Convergence on wavefunction:    0.001000000000000
 Iteration     1 Dimension    16 NMult     0 NNew     16
 CISAX will form    16 AO SS matrices at one time.
 New state      2 was old state      4
 New state      3 was old state      6
 New state      4 was old state      2
 Iteration     2 Dimension    24 NMult    16 NNew      8
 Iteration     3 Dimension    32 NMult    24 NNew      8
 Iteration     4 Dimension    40 NMult    32 NNew      8
 Iteration     5 Dimension    48 NMult    40 NNew      8
 Iteration     6 Dimension    56 NMult    48 NNew      8
 Iteration     7 Dimension    64 NMult    56 NNew      8
 ***********************************************************************
 Excited states from <AA,BB:AA,BB> singles matrix:
 ***********************************************************************
 
 Ground to excited state transition densities written to RWF  633
 Ground to excited state transition electric dipole moments (Au):
       state          X           Y           Z        Dip. S.      Osc.
         1        -0.0297     -4.7532     -0.0000     22.5934      1.0110
         2        -0.0000     -0.0000      0.0000      0.0000      0.0000
         3         0.0000      0.0000     -4.5100     20.3403      0.9204
         4        -0.0000      0.0000     -0.0000      0.0000      0.0000
 Ground to excited state transition velocity dipole moments (Au):
       state          X           Y           Z        Dip. S.      Osc.
         1         0.0020      0.3202      0.0000      0.1025      1.0185
         2         0.0000      0.0000     -0.0000      0.0000      0.0000
         3        -0.0000     -0.0000      0.3074      0.0945      0.9281
         4         0.0000      0.0000      0.0000      0.0000      0.0000
 Ground to excited state transition magnetic dipole moments (Au):
       state          X           Y           Z
         1        -0.0000      0.0000      0.0000
         2         5.3450     -1.4881      0.0000
         3         0.0000     -0.0000     -0.0000
         4        -0.0000      0.0000      1.4482
 Ground to excited state transition velocity quadrupole moments (Au):
       state          XX          YY          ZZ          XY          XZ          YZ
         1        -0.0000      0.0000     -0.0000      0.0000     -0.0000     -0.0000
         2        -0.0000      0.0000     -0.0000      0.0000      1.4846      5.3331
         3         0.0000     -0.0000      0.0000     -0.0000      0.0000      0.0000
         4        -0.0174     10.3499     -0.0417      1.4092     -0.0000     -0.0000
 <0|del|b> * <b|rxdel|0> + <0|del|b> * <b|delr+rdel|0>
 Rotatory Strengths (R) in cgs (10**-40 erg-esu-cm/Gauss)
       state          XX          YY          ZZ    R(velocity)    E-M Angle
         1         0.0000     -0.0000      0.0000      0.0000       90.00
         2        -0.0000      0.0000     -0.0000     -0.0000       90.00
         3        -0.0000     -0.0000      0.0000     -0.0000       90.00
         4         0.0000      0.0000     -0.0000      0.0000       90.00
 1/2[<0|r|b>*<b|rxdel|0> + (<0|rxdel|b>*<b|r|0>)*]
 Rotatory Strengths (R) in cgs (10**-40 erg-esu-cm/Gauss)
       state          XX          YY          ZZ     R(length)
         1        -0.0000      0.0000      0.0000      0.0000
         2         0.0000     -0.0000     -0.0000     -0.0000
         3        -0.0000      0.0000     -0.0000     -0.0000
         4        -0.0000     -0.0000      0.0000      0.0000
  1/2[<0|del|b>*<b|r|0> + (<0|r|b>*<b|del|0>)*] (Au)
       state          X           Y           Z        Dip. S.   Osc.(frdel)
         1        -0.0001     -1.5221     -0.0000      1.5221      1.0147
         2        -0.0000     -0.0000     -0.0000      0.0000      0.0000
         3        -0.0000     -0.0000     -1.3864      1.3864      0.9243
         4        -0.0000      0.0000     -0.0000      0.0000      0.0000

 Excitation energies and oscillator strengths:
 
 Excited State   1:      Singlet-BU     1.8265 eV  678.82 nm  f=1.0110  <S**2>=0.000
     291 -> 298       -0.12236
     292 -> 297       -0.12235
     293 -> 296        0.48322
     294 -> 295        0.48327
 This state for optimization and/or second-order correction.
 Total Energy, E(TD-HF/TD-KS) =  -6885.10058884    
 Copying the excited state density for this state as the 1-particle RhoCI density.
 
 Excited State   2:      Singlet-BG     1.8368 eV  675.01 nm  f=0.0000  <S**2>=0.000
     291 -> 296        0.12386
     292 -> 295        0.12384
     293 -> 298        0.48279
     294 -> 297        0.48282
 
 Excited State   3:      Singlet-AU     1.8471 eV  671.25 nm  f=0.9204  <S**2>=0.000
     291 -> 295        0.12567
     292 -> 296        0.12565
     293 -> 297        0.48228
     294 -> 298        0.48227
 
 Excited State   4:      Singlet-AG     1.8557 eV  668.12 nm  f=0.0000  <S**2>=0.000
     291 -> 297       -0.12695
     292 -> 298       -0.12695
     293 -> 295        0.48188
     294 -> 296        0.48187
 SavETr:  write IOETrn=   770 NScale= 10 NData=  16 NLR=1 NState=    4 LETran=      82.
 Hyperfine terms turned off by default for NAtoms > 100.

 **********************************************************************

            Population analysis using the SCF density.

 **********************************************************************

 Orbital symmetries:
       Occupied  (AG) (BU) (BU) (AG) (BU) (AG) (BU) (AG) (BG) (AU)
                 (AG) (BU) (BU) (AG) (AU) (BG) (AG) (BU) (AU) (BG)
                 (BU) (AG) (AU) (BG) (BU) (AG) (BG) (AU) (AG) (BU)
                 (BG) (AU) (BG) (AU) (AG) (BU) (AG) (BU) (BG) (AU)
                 (BU) (AG) (BU) (AG) (BG) (AU) (BU) (AG) (BU) (AG)
                 (BG) (AU) (BG) (AU) (AG) (BU) (AU) (BG) (AU) (BG)
                 (AG) (BU) (BG) (AU) (AG) (BU) (BG) (AU) (BG) (AU)
                 (BU) (AG) (BU) (AG) (BG) (AU) (AG) (BU) (AG) (BU)
                 (AG) (BU) (BG) (AU) (AG) (BU) (AU) (BG) (AU) (BG)
                 (BU) (AG) (BU) (AG) (BU) (AG) (BG) (AU) (AG) (BU)
                 (AG) (BU) (BG) (AU) (AG) (BU) (AU) (BG) (AG) (BU)
                 (BG) (AU) (AG) (BU) (AG) (BU) (BG) (AU) (AG) (BU)
                 (AG) (BU) (AU) (BG) (AG) (BU) (AU) (BG) (AG) (BU)
                 (AU) (BG) (AG) (BU) (AG) (BU) (AU) (BG) (AU) (BG)
                 (AU) (AG) (BG) (BU) (AG) (BU) (AG) (BU) (AU) (BG)
                 (AG) (BU) (AU) (BG) (AG) (BU) (AG) (BU) (AU) (BG)
                 (AU) (BG) (AU) (BG) (AG) (BU) (AG) (AU) (BG) (BU)
                 (AG) (BU) (AG) (BU) (AU) (BG) (AU) (BG) (AU) (BG)
                 (AG) (BU) (AG) (BU) (AG) (BU) (AG) (BU) (BG) (AU)
                 (AG) (BU) (AU) (BG) (AU) (BG) (AG) (BU) (AG) (BU)
                 (AU) (BG) (AG) (BU) (AU) (BG) (AG) (BU) (BG) (AU)
                 (AG) (BU) (BG) (AU) (AG) (BU) (AU) (BG) (AG) (BU)
                 (AU) (BG) (AU) (BG) (AG) (BU) (AG) (BU) (AG) (BU)
                 (AU) (BG) (AG) (BU) (AU) (BG) (AG) (BU) (AU) (BG)
                 (AG) (BU) (AU) (BG) (AG) (BU) (AU) (BG) (AU) (BG)
                 (AG) (BU) (AG) (BU) (AG) (BU) (AU) (BG) (AG) (BU)
                 (AU) (BG) (AG) (BU) (AG) (BU) (AG) (BU) (AU) (BG)
                 (AU) (BG) (AU) (BG) (AG) (BU) (AU) (BG) (AU) (BG)
                 (AG) (BU) (AG) (BU) (AG) (AU) (BG) (BU) (AG) (BU)
                 (AG) (BU) (AU) (BG)
       Virtual   (AU) (BG) (AG) (BU) (AU) (BG) (AG) (BU) (AG) (BU)
                 (AG) (AU) (BG) (BU) (AG) (BU) (AG) (BU) (AU) (BG)
                 (AU) (AG) (BU) (BG) (AG) (BG) (AU) (BU) (AG) (BU)
                 (AG) (AU) (BG) (BU) (AG) (BU) (AU) (BG) (AG) (BU)
                 (AU) (BG) (AG) (AU) (BG) (BU) (AG) (BU) (AU) (BG)
                 (AU) (AG) (BU) (BG) (AU) (BG) (AG) (BU) (BU) (AG)
                 (AG) (BU) (AU) (AG) (BU) (BG) (AU) (BG) (BU) (AU)
                 (BG) (AG) (AG) (BU) (AG) (AU) (BG) (BU) (AU) (BG)
                 (BU) (AG) (AU) (AG) (BU) (BG) (AU) (BU) (AG) (BG)
                 (AG) (BU) (BU) (AG) (AU) (BG) (AU) (BG) (AU) (BG)
                 (AG) (AU) (BG) (BU) (AG) (AU) (BG) (BU) (AG) (BU)
                 (AG) (BU) (AG) (BU) (AU) (BG) (AG) (AU) (BG) (BU)
                 (AG) (BU) (AU) (BG) (AG) (BU) (BU) (AU) (BG) (AG)
                 (BG) (AU) (AU) (BG) (AG) (AU) (BG) (BU) (BU) (AU)
                 (BG) (AG) (AG) (BU) (AU) (BG) (AG) (AU) (BG) (BU)
                 (AG) (BU) (AU) (AG) (BU) (BG) (AU) (BG) (AU) (BG)
                 (AG) (BU) (AG) (BU) (BU) (AG) (AU) (BU) (AG) (BG)
                 (BU) (AG) (BU) (AU) (BG) (AG) (AU) (BG) (BU) (AG)
                 (AG) (AU) (BG) (BU) (BU) (AG) (BU) (BG) (AU) (AG)
                 (BU) (AG) (AU) (BG) (AG) (BG) (AU) (BU) (AU) (BG)
                 (BU) (AG) (AU) (AG) (BU) (AG) (BG) (AU) (BG) (BU)
                 (AG) (BU) (BU) (BG) (AU) (AG) (AG) (BU) (AG) (AU)
                 (BG) (BU) (AU) (AG) (BU) (BG) (AU) (AG) (BU) (BG)
                 (BU) (BG) (AU) (AG) (AU) (AG) (BU) (BG) (AG) (BU)
                 (AG) (BU) (AU) (BG) (BU) (AG) (AU) (BG) (BG) (BU)
                 (AG) (AU) (AU) (AG) (BU) (BG) (AU) (BG) (BG) (AU)
                 (AG) (BU) (AU) (AG) (BU) (BG) (BG) (BU) (AG) (AU)
                 (BG) (AU) (AG) (BU) (AU) (AG) (BU) (BG) (BU) (AG)
                 (BG) (AG) (BU) (AU) (AU) (AG) (BU) (BG) (AU) (BG)
                 (AU) (BG) (BU) (AG) (AU) (BG) (BU) (AG) (AU) (BG)
                 (BG) (AU) (BU) (AG) (BG) (AU) (BG) (AG) (BU) (AU)
                 (BG) (AU) (BU) (AU) (BG) (AG) (AU) (BG) (AG) (BU)
                 (BU) (AG) (AU) (BG) (BU) (AG) (AU) (AG) (BG) (BU)
                 (AU) (BU) (AG) (BG) (AU) (AG) (BU) (BG) (AU) (BG)
                 (AU) (BG) (AU) (AG) (BU) (BG) (AG) (BU) (AU) (AG)
                 (BU) (BG) (AG) (BU) (BG) (AU) (BG) (BU) (AU) (AG)
                 (AG) (BU) (BU) (AG) (BG) (AU) (AG) (BU) (BG) (AU)
                 (AG) (BU) (AU) (AG) (BU) (BG) (AG) (BU) (BU) (AU)
                 (BG) (AG) (BU) (AG) (AG) (AU) (BG) (BU) (AU) (BG)
                 (AU) (AG) (BU) (BG) (BG) (AU) (AU) (BG) (BG) (AU)
                 (BG) (BU) (AG) (AU) (AG) (BU) (AG) (BU) (AG) (BG)
                 (AU) (BU) (AU) (BG) (AG) (BG) (AU) (BU) (AG) (BU)
                 (BU) (AG) (BG) (AU) (AG) (BG) (AU) (BU) (BU) (AG)
                 (AG) (BU) (AU) (BG) (BG) (AU) (BU) (AG) (AU) (BG)
                 (AU) (AG) (BU) (AG) (BU) (BG) (AG) (BU) (AG) (BU)
                 (BG) (BU) (AG) (AU) (AU) (BG) (AU) (BG) (AU) (BU)
                 (AG) (BG) (AU) (BG) (AG) (BU) (BU) (AG) (AU) (BG)
                 (AU) (AG) (BG) (BU) (AG) (BU) (AG) (BU) (AU) (BG)
                 (AG) (AU) (BU) (BG) (BG) (AU) (AU) (BG) (AG) (AU)
                 (BG) (BU) (AG) (BU) (AU) (AG) (BU) (BG) (AU) (AG)
                 (BU) (BG) (AG) (BU) (AG) (BG) (AU) (BU) (BU) (AG)
                 (BU) (AG) (BG) (BU) (AG) (AU) (BG) (AU) (AU) (BG)
                 (BU) (BG) (AU) (AG) (BU) (AG) (AU) (BG) (AU) (AG)
                 (BU) (BG) (AG) (BU) (AG) (BU) (AG) (AU) (BG) (BU)
                 (AG) (BU) (AU) (BG) (AG) (BG) (AU) (BU) (AG) (BU)
                 (AU) (BG) (AG) (BG) (AU) (BU) (BG) (AU) (AG) (AU)
                 (BG) (BU) (AG) (BU) (AU) (AG) (BG) (BU) (AU) (AU)
                 (BG) (AG) (BU) (BG) (AU) (BG) (AU) (AG) (BU) (BG)
                 (BG) (AU) (AG) (BU) (AG) (BU) (AG) (BU) (AG) (BU)
                 (AG) (BU) (AG) (AU) (BG) (BU) (AU) (BG) (AG) (AU)
                 (BG) (BU) (AG) (AU) (BG) (BU) (AU) (BG) (AU) (BG)
                 (BU) (AG) (AG) (BU) (AU) (AG) (BU) (BG) (BU) (AG)
                 (AU) (AG) (BG) (BU) (BG) (AU) (AG) (BU) (AG) (BU)
                 (AU) (BG) (AU) (BG) (AG) (BG) (AU) (BU) (AG) (BU)
                 (AU) (BG) (BG) (AU) (AG) (BU) (AG) (BU) (AG) (BG)
                 (AU) (BU) (AU) (BG) (AU) (AG) (BU) (BG) (AU) (BG)
                 (AG) (AU) (BG) (BU) (AU) (BG) (AG) (BU) (BG) (AU)
                 (AU) (BU) (AG) (BG) (AU) (BG) (AG) (BU) (AU) (AG)
                 (BU) (BG) (AG) (AU) (BG) (BU) (BU) (AG) (AG) (AU)
                 (BU) (BG) (AG) (BG) (AU) (BU) (BU) (AG) (AU) (BG)
                 (AG) (BU) (AU) (BG) (AU) (AG) (BU) (BG) (AG) (BU)
                 (AG) (AU) (BG) (BU) (AG) (BU) (AU) (BG) (AG) (BU)
                 (AU) (BG) (AU) (AG) (BU) (BG) (AU) (BG) (AU) (AG)
                 (BU) (BG) (AU) (AG) (BU) (BG) (AU) (AG) (BU) (BG)
                 (AG) (BU) (AG) (BU) (AG) (AU) (BG) (BU) (AU) (AG)
                 (BU) (BG) (AG) (BU) (AU) (BG) (AU) (BG) (BG) (AU)
                 (BU) (AG) (AU) (BG) (AG) (BU) (AU) (BG) (AG) (AU)
                 (BG) (BU) (AG) (BU) (BG) (BU) (AG) (AU) (AG) (BU)
                 (AG) (AU) (BG) (BU) (AG) (BU) (BU) (AG) (AU) (BG)
                 (BG) (AU) (BU) (AU) (BG) (AG) (BG) (AU) (AG) (BU)
                 (BG) (AU) (AU) (BG) (BU) (AG) (BU) (AG) (AG) (BU)
                 (AU) (BG) (AU) (AG) (BU) (BG) (AU) (BG) (AG) (BU)
                 (AG) (BU) (AG) (BU) (AU) (BG) (AU) (AG) (BU) (BG)
                 (BU) (AU) (AG) (BG) (AU) (BG) (AG) (BU) (AU) (AG)
                 (BU) (BG) (AU) (BG) (BU) (AG) (BU) (AG) (AU) (BG)
                 (AU) (BG) (AG) (BU) (BG) (BU) (AU) (AU) (BG) (AG)
                 (AG) (AU) (BG) (BU) (AG) (BU) (BU) (AG) (AU) (BU)
                 (AG) (BG) (AG) (AU) (BG) (BU) (BG) (AG) (BU) (AU)
                 (BG) (AU) (AU) (BG) (BU) (AG) (BG) (BU) (AG) (AU)
                 (BG) (AU) (AU) (BG) (BU) (AG) (BU) (BG) (AU) (AG)
                 (BG) (AU) (AG) (BU) (AU) (BG) (AU) (BG) (AG) (BU)
                 (BU) (AG) (AG) (BU) (AU) (BG) (AU) (BG) (AG) (BU)
                 (BU) (AG) (AG) (AU) (BG) (BU) (BG) (BU) (AG) (AU)
                 (BG) (BU) (AU) (AG) (AG) (BU) (AG) (BU) (AU) (BG)
                 (AG) (BU) (AG) (AU) (BG) (BU) (AU) (AG) (BU) (BG)
                 (BG) (AU) (AU) (BG) (AU) (BG) (AG) (AU) (BG) (BU)
                 (BU) (AG) (AU) (BG) (BG) (AG) (BU) (AU) (BG) (AU)
                 (AG) (BU) (AU) (BG) (AG) (AU) (BG) (BU) (AU) (BG)
                 (AG) (BU) (BG) (AU) (AG) (BU) (AU) (BG) (AG) (BG)
                 (AU) (BU) (AG) (BU) (AU) (BG) (AG) (BU) (AU) (BG)
                 (AU) (AG) (BU) (BG) (AU) (BU) (BG) (AG) (AU) (BG)
                 (AG) (BU) (AG) (BU) (AU) (BG) (AG) (BU) (AU) (AG)
                 (BG) (BU) (AG) (AU) (BG) (BU) (AG) (BU) (AU) (BG)
                 (AG) (BU) (AU) (AG) (BU) (BG) (AG) (AU) (BG) (BU)
                 (AU) (BG) (AU) (BG) (AU) (BG) (BU) (AG) (AU) (BG)
                 (BG) (AU) (BG) (BU) (AU) (AG) (BU) (AG) (AG) (AU)
                 (BU) (BG) (AG) (BU) (AG) (BU) (BG) (BU) (AG) (AU)
                 (AG) (BU) (AG) (AU) (BG) (BU) (AU) (BG) (BG) (AU)
                 (AG) (BU) (AU) (AG) (BU) (BG) (BG) (AG) (BU) (AU)
                 (BG) (AU) (AU) (AG) (BU) (BG) (BG) (AU) (BG) (AU)
                 (AG) (BU) (BU) (BG) (AG) (AU) (AU) (BG) (BU) (AG)
                 (AG) (BG) (AU) (BU) (AG) (BU) (BU) (BG) (AU) (AG)
                 (AG) (BU) (AG) (BU) (AU) (BG) (AU) (BG) (AG) (BG)
                 (AU) (BU) (BU) (AG) (BU) (AG) (BU) (AG) (AG) (AU)
                 (BG) (BU) (AG) (BU) (AU) (AG) (BU) (BG) (AU) (BG)
                 (AG) (BU) (AG) (BU) (AG) (AU) (BG) (BU) (BG) (AU)
                 (AU) (BG) (AG) (BU) (BG) (AU) (AG) (BU) (AG) (AU)
                 (BG) (BU) (AU) (BG) (AU) (BG) (AU) (AG) (BU) (BG)
                 (AU) (AG) (BU) (BG) (AG) (BU) (AG) (BU) (AG) (BU)
                 (AU) (BG) (AG) (AU) (AU) (BG) (BG) (BU) (AG) (BU)
                 (AU) (AG) (BG) (BU) (AU) (BG) (AU) (BG) (AG) (BU)
                 (AU) (AG) (BG) (BU) (AG) (BU) (AG) (BU) (AG) (BG)
                 (AU) (BU) (BG) (AU) (BG) (AU) (BU) (AU) (AG) (BG)
                 (AU) (BG) (AG) (BU) (AG) (AU) (BG) (BU) (BU) (AU)
                 (BG) (AG) (AG) (BG) (BU) (AU) (AU) (BG) (BU) (AU)
                 (AG) (BG) (AG) (BU) (AG) (BU) (BG) (AU) (BU) (AG)
                 (BU) (AG) (BU) (AG) (AU) (BG) (AU) (BU) (BG) (AG)
                 (AU) (BG) (BU) (AG) (AU) (AG) (BU) (BG) (AG) (AU)
                 (BG) (BU) (AG) (BU) (AG) (BU) (AU) (BG) (AG) (BU)
                 (AG) (AU) (BG) (BU) (AU) (BG) (AG) (BU) (AG) (BG)
                 (AU) (BU) (AG) (BU) (AG) (BU) (AU) (BG) (AG) (BU)
                 (BG) (AU) (AG) (AU) (BG) (BU) (AG) (AU) (BU) (BG)
                 (AG) (BU) (AU) (BU) (AG) (BG) (AU) (BG) (AG) (BU)
                 (BU) (AG) (AU) (BG) (AG) (BU) (AG) (AU) (BG) (BU)
                 (AU) (AG) (BU) (BG) (AU) (BG) (AG) (BU) (AU) (BG)
                 (AG) (BU) (BG) (AU) (AG) (BG) (AU) (BU) (AG) (BU)
                 (AG) (AU) (BG) (BU) (BG) (AU) (AG) (BU) (AU) (BG)
                 (AU) (BU) (AG) (BG) (AU) (BG) (AG) (BU) (AU) (BG)
                 (AG) (BU) (BU) (AG) (AU) (BU) (AG) (BG) (AU) (BG)
                 (AG) (BU) (AU) (BG) (BG) (AU) (BU) (AG) (AU) (BG)
                 (AG) (BU) (AG) (BG) (AU) (BU) (BG) (AU) (AG) (BU)
                 (AG) (AU) (BG) (BU) (AG) (BG) (AU) (BU) (BG) (AU)
                 (AG) (AU) (BG) (BU) (AG) (BU) (AG) (BU) (AG) (AU)
                 (BG) (BU) (AG) (BG) (AU) (BU) (BG) (AU) (BG) (AU)
                 (AG) (BU) (BG) (AG) (BU) (AU) (AG) (BU) (AU) (AG)
                 (BU) (BG) (AG) (BU) (AG) (BG) (AU) (BG) (AU) (BU)
                 (AG) (BU) (AG) (BU) (AU) (BG) (AU) (BG) (AU) (BU)
                 (AG) (BG) (AG) (BU) (AG) (BU) (AU) (BG) (AU) (AG)
                 (BU) (BG) (AU) (BG) (BU) (BG) (AU) (AG) (AG) (BU)
                 (AG) (AU) (BG) (BU) (BG) (AU) (AG) (BU) (AG) (BU)
                 (AG) (AU) (BG) (BU) (AU) (BG) (AG) (BU) (AU) (AG)
                 (BU) (BG) (BG) (AU) (AG) (BU) (AG) (BG) (AU) (BU)
                 (AU) (BG) (AG) (BU) (BG) (AU) (AU) (BG) (AU) (BG)
                 (AG) (BU) (AU) (BU) (AG) (BG) (AU) (BU) (AG) (BG)
                 (AU) (AG) (BU) (BG) (AU) (BG) (AG) (BU) (AU) (BG)
                 (AG) (BU) (AG) (BU) (AU) (BG) (AU) (BU) (AG) (BG)
                 (AU) (BG) (AG) (BU) (AU) (AG) (BU) (BG) (BU) (AG)
                 (AU) (AG) (BU) (BG) (AU) (BG) (AU) (BG) (AU) (AG)
                 (BU) (BG) (AU) (BG) (AU) (BG) (AG) (BU) (AU) (BG)
                 (AU) (BG) (AU) (BG) (AU) (AG) (BU) (BG) (BU) (AG)
                 (BU) (AU) (BG) (AG) (BG) (AU) (BG) (AU) (BU) (AG)
                 (BU) (AU) (AG) (BG) (AU) (BU) (AG) (BG) (AU) (BG)
                 (AG) (BU) (AG) (BU) (AU) (BG) (AU) (BG) (AU) (AG)
                 (BU) (BG) (AU) (AG) (BU) (BG) (BG) (AU) (AU) (BG)
                 (BG) (BU) (AG) (AU) (AG) (BU) (AG) (BU) (AU) (BG)
                 (AU) (BG) (BG) (AG) (BU) (AU) (AU) (AG) (BU) (BG)
                 (AU) (BG) (BG) (AG) (BU) (AU) (AU) (BG) (BU) (AG)
                 (AG) (BU) (AU) (BG) (AU) (AG) (BU) (BG) (AG) (BU)
                 (AU) (BG) (AU) (AG) (BU) (BG) (AG) (BU) (BU) (AG)
                 (AU) (BG) (AG) (BU) (AG) (BU) (AU) (BG) (AG) (AU)
                 (BU) (BG) (AU) (BG) (BG) (AU) (BU) (BG) (AG) (AU)
                 (BU) (AG) (BG) (AU) (BG) (AG) (BU) (AU) (BG) (AU)
                 (AG) (BU) (BG) (AU) (AU) (BG) (AG) (BU) (AU) (BG)
                 (AU) (BG) (AG) (BU) (AU) (BG) (AG) (BU) (AG) (BU)
                 (AU) (BG) (BU) (AG) (AG) (BU) (AU) (BG) (AU) (BG)
                 (AG) (BU) (AU) (AG) (BU) (BG) (AU) (BG) (AG) (BU)
                 (BU) (AG) (AU) (BG) (AG) (BU) (BU) (BG) (AU) (AG)
                 (BG) (AU) (AU) (BG) (AG) (BU) (BG) (AU) (AG) (AU)
                 (BU) (BG) (AG) (BU) (BG) (AU) (AG) (AU) (BG) (BU)
                 (BU) (AG) (BU) (AU) (BG) (AG) (AG) (BU) (BU) (AU)
                 (BG) (AG) (AU) (BG) (BU) (AG) (BU) (AG) (AU) (AG)
                 (BU) (BG) (AU) (BG) (AG) (BU) (AU) (BG) (AG) (BU)
                 (AU) (BG) (AG) (BU) (AG) (BU) (BG) (BU) (AU) (AG)
                 (AU) (BU) (AG) (BG) (AG) (BU) (AG) (AU) (BG) (BU)
                 (AG) (BU) (BU) (AG) (BU) (AU) (BG) (AG) (BU) (AG)
                 (BU) (AG) (BU) (BG) (AG) (AU) (BG) (AU) (BU) (AU)
                 (BG) (AG) (AU) (BG) (BU) (AG) (BG) (BU) (AG) (AU)
                 (BG) (AU) (BG) (AU) (AU) (BG) (AU) (AG) (BU) (BG)
                 (AG) (BU) (BU) (AG) (BU) (BG) (AU) (AG) (AU) (BG)
                 (AU) (BG) (AU) (AG) (BU) (BG) (AU) (BG) (BU) (BG)
                 (AG) (AU) (BU) (AG) (BU) (AG) (BU) (BG) (AU) (AG)
                 (BG) (AU) (AG) (BU)
 The electronic state is 1-AG.
 Alpha  occ. eigenvalues -- -345.97263-345.97263 -41.84135 -41.84135 -36.92431
 Alpha  occ. eigenvalues --  -36.92431 -36.91587 -36.91587 -36.91587 -36.91587
 Alpha  occ. eigenvalues --  -14.20525 -14.20525 -14.20523 -14.20523 -14.20522
 Alpha  occ. eigenvalues --  -14.20522 -14.20521 -14.20521 -14.19676 -14.19676
 Alpha  occ. eigenvalues --  -14.19675 -14.19675 -14.19673 -14.19673 -14.19672
 Alpha  occ. eigenvalues --  -14.19672 -10.16873 -10.16873 -10.16870 -10.16870
 Alpha  occ. eigenvalues --  -10.16870 -10.16870 -10.16868 -10.16868 -10.16866
 Alpha  occ. eigenvalues --  -10.16866 -10.16864 -10.16864 -10.16863 -10.16863
 Alpha  occ. eigenvalues --  -10.16861 -10.16861 -10.09960 -10.09960 -10.09956
 Alpha  occ. eigenvalues --  -10.09956 -10.09956 -10.09956 -10.09954 -10.09954
 Alpha  occ. eigenvalues --  -10.09929 -10.09929 -10.09925 -10.09925 -10.09925
 Alpha  occ. eigenvalues --  -10.09925 -10.09923 -10.09923 -10.09768 -10.09768
 Alpha  occ. eigenvalues --  -10.09764 -10.09764 -10.09764 -10.09764 -10.09764
 Alpha  occ. eigenvalues --  -10.09764 -10.09762 -10.09762 -10.09761 -10.09761
 Alpha  occ. eigenvalues --  -10.09761 -10.09761 -10.09758 -10.09758 -10.09600
 Alpha  occ. eigenvalues --  -10.09600 -10.09600 -10.09600 -10.09598 -10.09598
 Alpha  occ. eigenvalues --  -10.09597 -10.09597 -10.09564 -10.09564 -10.09564
 Alpha  occ. eigenvalues --  -10.09564 -10.09561 -10.09561 -10.09561 -10.09561
 Alpha  occ. eigenvalues --   -4.79005  -4.79005  -3.23633  -3.23633  -3.22205
 Alpha  occ. eigenvalues --   -3.22205  -3.22205  -3.22205  -1.13260  -1.13260
 Alpha  occ. eigenvalues --   -1.11799  -1.11799  -1.11799  -1.11799  -1.08992
 Alpha  occ. eigenvalues --   -1.08992  -1.06792  -1.06792  -1.02646  -1.02646
 Alpha  occ. eigenvalues --   -1.02646  -1.02646  -0.99537  -0.99537  -0.98230
 Alpha  occ. eigenvalues --   -0.98230  -0.98229  -0.98229  -0.98183  -0.98183
 Alpha  occ. eigenvalues --   -0.98152  -0.98152  -0.90144  -0.90144  -0.88801
 Alpha  occ. eigenvalues --   -0.88801  -0.88586  -0.88586  -0.88585  -0.88585
 Alpha  occ. eigenvalues --   -0.88197  -0.88197  -0.88196  -0.88196  -0.88016
 Alpha  occ. eigenvalues --   -0.88016  -0.87879  -0.87879  -0.84379  -0.84379
 Alpha  occ. eigenvalues --   -0.81733  -0.81733  -0.81733  -0.81733  -0.76283
 Alpha  occ. eigenvalues --   -0.76283  -0.76078  -0.76078  -0.75252  -0.75252
 Alpha  occ. eigenvalues --   -0.75251  -0.75251  -0.74633  -0.74633  -0.74305
 Alpha  occ. eigenvalues --   -0.74305  -0.71792  -0.71792  -0.71791  -0.71791
 Alpha  occ. eigenvalues --   -0.71741  -0.71741  -0.70631  -0.70631  -0.68107
 Alpha  occ. eigenvalues --   -0.68107  -0.67157  -0.67157  -0.67157  -0.67157
 Alpha  occ. eigenvalues --   -0.65677  -0.65677  -0.65492  -0.65492  -0.65492
 Alpha  occ. eigenvalues --   -0.65492  -0.61911  -0.61911  -0.61822  -0.61821
 Alpha  occ. eigenvalues --   -0.61666  -0.61666  -0.61264  -0.61264  -0.59881
 Alpha  occ. eigenvalues --   -0.59881  -0.59840  -0.59840  -0.59840  -0.59840
 Alpha  occ. eigenvalues --   -0.59723  -0.59723  -0.59722  -0.59722  -0.58406
 Alpha  occ. eigenvalues --   -0.58406  -0.58405  -0.58404  -0.57664  -0.57664
 Alpha  occ. eigenvalues --   -0.57504  -0.57503  -0.56988  -0.56988  -0.56858
 Alpha  occ. eigenvalues --   -0.56858  -0.56736  -0.56736  -0.56736  -0.56736
 Alpha  occ. eigenvalues --   -0.55963  -0.55963  -0.55423  -0.55423  -0.55422
 Alpha  occ. eigenvalues --   -0.55422  -0.55343  -0.55343  -0.54859  -0.54859
 Alpha  occ. eigenvalues --   -0.54312  -0.54311  -0.54078  -0.54078  -0.54078
 Alpha  occ. eigenvalues --   -0.54077  -0.52823  -0.52823  -0.51827  -0.51827
 Alpha  occ. eigenvalues --   -0.51011  -0.51011  -0.48941  -0.48940  -0.48936
 Alpha  occ. eigenvalues --   -0.48936  -0.48935  -0.48935  -0.47927  -0.47926
 Alpha  occ. eigenvalues --   -0.47673  -0.47673  -0.47670  -0.47669  -0.46953
 Alpha  occ. eigenvalues --   -0.46952  -0.46874  -0.46873  -0.46857  -0.46857
 Alpha  occ. eigenvalues --   -0.46856  -0.46856  -0.46177  -0.46177  -0.45008
 Alpha  occ. eigenvalues --   -0.45008  -0.45008  -0.45008  -0.44849  -0.44849
 Alpha  occ. eigenvalues --   -0.43274  -0.43274  -0.43273  -0.43273  -0.42146
 Alpha  occ. eigenvalues --   -0.42146  -0.39199  -0.39199  -0.39199  -0.39199
 Alpha  occ. eigenvalues --   -0.38300  -0.38300  -0.37378  -0.37378  -0.36387
 Alpha  occ. eigenvalues --   -0.36386  -0.36052  -0.36051  -0.35818  -0.35818
 Alpha  occ. eigenvalues --   -0.35817  -0.35817  -0.35294  -0.35294  -0.34997
 Alpha  occ. eigenvalues --   -0.34995  -0.34995  -0.34994  -0.34810  -0.34809
 Alpha  occ. eigenvalues --   -0.34165  -0.34164  -0.24126  -0.24125
 Alpha virt. eigenvalues --   -0.06317  -0.06316  -0.06316  -0.06315   0.02260
 Alpha virt. eigenvalues --    0.02262   0.03303   0.03308   0.03316   0.03320
 Alpha virt. eigenvalues --    0.04313   0.04319   0.04320   0.04323   0.07736
 Alpha virt. eigenvalues --    0.07736   0.08085   0.08087   0.09414   0.09421
 Alpha virt. eigenvalues --    0.09578   0.09584   0.09585   0.09590   0.11063
 Alpha virt. eigenvalues --    0.11086   0.11087   0.11108   0.11365   0.11412
 Alpha virt. eigenvalues --    0.12275   0.12324   0.12324   0.12330   0.12331
 Alpha virt. eigenvalues --    0.12355   0.12382   0.12382   0.12420   0.12538
 Alpha virt. eigenvalues --    0.13346   0.13354   0.13873   0.13908   0.13923
 Alpha virt. eigenvalues --    0.13975   0.14468   0.14539   0.15622   0.15718
 Alpha virt. eigenvalues --    0.16427   0.16545   0.16571   0.16583   0.16586
 Alpha virt. eigenvalues --    0.16763   0.17245   0.17273   0.17360   0.17366
 Alpha virt. eigenvalues --    0.18695   0.18696   0.19164   0.19166   0.19167
 Alpha virt. eigenvalues --    0.19170   0.19647   0.19691   0.19992   0.19998
 Alpha virt. eigenvalues --    0.20010   0.20010   0.20180   0.20236   0.20894
 Alpha virt. eigenvalues --    0.20909   0.20949   0.20964   0.21488   0.21553
 Alpha virt. eigenvalues --    0.21910   0.21918   0.23604   0.23606   0.23609
 Alpha virt. eigenvalues --    0.23611   0.23907   0.23951   0.23952   0.23999
 Alpha virt. eigenvalues --    0.24382   0.24383   0.24484   0.24499   0.25012
 Alpha virt. eigenvalues --    0.25021   0.25388   0.25398   0.25431   0.25470
 Alpha virt. eigenvalues --    0.26842   0.26848   0.26859   0.26862   0.26897
 Alpha virt. eigenvalues --    0.26906   0.26909   0.26920   0.27002   0.27017
 Alpha virt. eigenvalues --    0.27222   0.27245   0.27366   0.27394   0.27795
 Alpha virt. eigenvalues --    0.27842   0.27875   0.27878   0.27884   0.27888
 Alpha virt. eigenvalues --    0.28375   0.28396   0.28403   0.28412   0.28941
 Alpha virt. eigenvalues --    0.28963   0.29160   0.29166   0.29170   0.29177
 Alpha virt. eigenvalues --    0.29396   0.29411   0.29529   0.29540   0.29572
 Alpha virt. eigenvalues --    0.29620   0.29623   0.29662   0.30040   0.30050
 Alpha virt. eigenvalues --    0.30060   0.30067   0.30415   0.30423   0.30431
 Alpha virt. eigenvalues --    0.30438   0.30819   0.30821   0.30827   0.30834
 Alpha virt. eigenvalues --    0.31120   0.31136   0.31736   0.31750   0.31750
 Alpha virt. eigenvalues --    0.31755   0.32223   0.32225   0.32438   0.32453
 Alpha virt. eigenvalues --    0.32730   0.32808   0.32883   0.32949   0.33045
 Alpha virt. eigenvalues --    0.33070   0.33237   0.33244   0.33246   0.33250
 Alpha virt. eigenvalues --    0.34654   0.34678   0.34691   0.34692   0.34699
 Alpha virt. eigenvalues --    0.34713   0.35189   0.35202   0.35227   0.35238
 Alpha virt. eigenvalues --    0.35408   0.35477   0.35478   0.35544   0.36281
 Alpha virt. eigenvalues --    0.36352   0.36581   0.36601   0.36602   0.36633
 Alpha virt. eigenvalues --    0.37636   0.37654   0.37787   0.37805   0.37899
 Alpha virt. eigenvalues --    0.37927   0.37932   0.37961   0.38235   0.38238
 Alpha virt. eigenvalues --    0.39043   0.39048   0.39578   0.39618   0.39637
 Alpha virt. eigenvalues --    0.39643   0.39645   0.39656   0.39685   0.39687
 Alpha virt. eigenvalues --    0.40480   0.40536   0.40642   0.40660   0.40661
 Alpha virt. eigenvalues --    0.40676   0.40691   0.40765   0.41340   0.41351
 Alpha virt. eigenvalues --    0.41386   0.41409   0.41793   0.41838   0.41838
 Alpha virt. eigenvalues --    0.41873   0.42250   0.42315   0.42332   0.42338
 Alpha virt. eigenvalues --    0.42394   0.42408   0.42409   0.42430   0.42857
 Alpha virt. eigenvalues --    0.42862   0.42876   0.42885   0.43005   0.43008
 Alpha virt. eigenvalues --    0.44041   0.44041   0.44062   0.44078   0.44173
 Alpha virt. eigenvalues --    0.44176   0.44954   0.44959   0.45062   0.45072
 Alpha virt. eigenvalues --    0.45072   0.45078   0.45576   0.45627   0.45646
 Alpha virt. eigenvalues --    0.45687   0.46498   0.46564   0.46643   0.46656
 Alpha virt. eigenvalues --    0.46843   0.46847   0.46935   0.46947   0.46956
 Alpha virt. eigenvalues --    0.46973   0.47559   0.47575   0.47576   0.47581
 Alpha virt. eigenvalues --    0.47959   0.47977   0.48298   0.48329   0.48615
 Alpha virt. eigenvalues --    0.48687   0.48688   0.48754   0.48780   0.48813
 Alpha virt. eigenvalues --    0.49086   0.49100   0.49104   0.49137   0.49485
 Alpha virt. eigenvalues --    0.49519   0.49521   0.49542   0.49642   0.49695
 Alpha virt. eigenvalues --    0.50424   0.50479   0.50498   0.50511   0.50527
 Alpha virt. eigenvalues --    0.50559   0.50583   0.50631   0.51599   0.51660
 Alpha virt. eigenvalues --    0.51676   0.51677   0.51743   0.51767   0.51817
 Alpha virt. eigenvalues --    0.51853   0.52811   0.52815   0.52821   0.52833
 Alpha virt. eigenvalues --    0.53361   0.53370   0.53953   0.53959   0.54035
 Alpha virt. eigenvalues --    0.54038   0.54444   0.54581   0.54835   0.54846
 Alpha virt. eigenvalues --    0.55092   0.55098   0.55408   0.55408   0.55700
 Alpha virt. eigenvalues --    0.55721   0.56495   0.56496   0.56503   0.56505
 Alpha virt. eigenvalues --    0.57389   0.57404   0.57413   0.57432   0.57606
 Alpha virt. eigenvalues --    0.57609   0.57616   0.57617   0.58141   0.58141
 Alpha virt. eigenvalues --    0.58255   0.58391   0.58535   0.58537   0.58543
 Alpha virt. eigenvalues --    0.58553   0.59019   0.59020   0.59146   0.59178
 Alpha virt. eigenvalues --    0.59207   0.59268   0.59572   0.59606   0.60067
 Alpha virt. eigenvalues --    0.60075   0.60093   0.60094   0.60103   0.60107
 Alpha virt. eigenvalues --    0.60610   0.60610   0.61418   0.61454   0.61921
 Alpha virt. eigenvalues --    0.61921   0.62191   0.62191   0.64358   0.64358
 Alpha virt. eigenvalues --    0.64441   0.64451   0.64619   0.64634   0.64648
 Alpha virt. eigenvalues --    0.64665   0.65592   0.65594   0.66134   0.66149
 Alpha virt. eigenvalues --    0.66153   0.66171   0.66510   0.66526   0.66654
 Alpha virt. eigenvalues --    0.66656   0.66658   0.66659   0.66737   0.66757
 Alpha virt. eigenvalues --    0.66830   0.66840   0.66843   0.66861   0.67296
 Alpha virt. eigenvalues --    0.67301   0.67380   0.67384   0.68519   0.68535
 Alpha virt. eigenvalues --    0.68583   0.68589   0.68599   0.68608   0.70030
 Alpha virt. eigenvalues --    0.70043   0.70066   0.70079   0.70088   0.70092
 Alpha virt. eigenvalues --    0.70094   0.70107   0.70659   0.70730   0.71436
 Alpha virt. eigenvalues --    0.71436   0.71436   0.71436   0.71547   0.71550
 Alpha virt. eigenvalues --    0.72213   0.72229   0.72320   0.72324   0.73412
 Alpha virt. eigenvalues --    0.73414   0.73415   0.73418   0.73658   0.73665
 Alpha virt. eigenvalues --    0.74427   0.74438   0.74490   0.74515   0.74944
 Alpha virt. eigenvalues --    0.74971   0.75703   0.75705   0.76929   0.76950
 Alpha virt. eigenvalues --    0.76971   0.77022   0.77029   0.77055   0.77056
 Alpha virt. eigenvalues --    0.77102   0.77378   0.77388   0.77988   0.77988
 Alpha virt. eigenvalues --    0.78232   0.78236   0.78240   0.78241   0.78375
 Alpha virt. eigenvalues --    0.78460   0.78598   0.78606   0.78697   0.78701
 Alpha virt. eigenvalues --    0.78701   0.78705   0.79718   0.79731   0.79735
 Alpha virt. eigenvalues --    0.79735   0.79737   0.79740   0.79753   0.79766
 Alpha virt. eigenvalues --    0.80191   0.80191   0.80192   0.80192   0.81113
 Alpha virt. eigenvalues --    0.81129   0.81506   0.81511   0.81541   0.81542
 Alpha virt. eigenvalues --    0.81624   0.81625   0.81637   0.81641   0.81976
 Alpha virt. eigenvalues --    0.81976   0.82285   0.82304   0.82400   0.82404
 Alpha virt. eigenvalues --    0.82404   0.82409   0.82707   0.82708   0.82901
 Alpha virt. eigenvalues --    0.82909   0.82925   0.82938   0.83301   0.83302
 Alpha virt. eigenvalues --    0.83302   0.83305   0.83569   0.83576   0.84308
 Alpha virt. eigenvalues --    0.84314   0.84314   0.84321   0.85158   0.85169
 Alpha virt. eigenvalues --    0.85298   0.85312   0.86778   0.86785   0.86794
 Alpha virt. eigenvalues --    0.86795   0.86806   0.86831   0.86981   0.86981
 Alpha virt. eigenvalues --    0.87042   0.87051   0.87057   0.87064   0.87511
 Alpha virt. eigenvalues --    0.87511   0.88426   0.88426   0.89040   0.89056
 Alpha virt. eigenvalues --    0.89057   0.89075   0.89432   0.89446   0.89712
 Alpha virt. eigenvalues --    0.89714   0.90548   0.90551   0.90551   0.90554
 Alpha virt. eigenvalues --    0.91269   0.91302   0.91313   0.91313   0.91599
 Alpha virt. eigenvalues --    0.91616   0.91617   0.91626   0.91628   0.91642
 Alpha virt. eigenvalues --    0.92333   0.92356   0.92429   0.92432   0.92434
 Alpha virt. eigenvalues --    0.92437   0.93276   0.93291   0.95830   0.95831
 Alpha virt. eigenvalues --    0.95832   0.95832   0.96031   0.96043   0.97059
 Alpha virt. eigenvalues --    0.97063   0.97069   0.97070   0.97228   0.97256
 Alpha virt. eigenvalues --    0.97257   0.97334   0.97343   0.97343   0.97444
 Alpha virt. eigenvalues --    0.97444   0.99269   0.99365   0.99376   0.99484
 Alpha virt. eigenvalues --    1.00126   1.00126   1.00126   1.00126   1.01176
 Alpha virt. eigenvalues --    1.01202   1.02089   1.02098   1.02567   1.02656
 Alpha virt. eigenvalues --    1.02705   1.02744   1.02776   1.02782   1.02792
 Alpha virt. eigenvalues --    1.02833   1.03157   1.03300   1.03360   1.03377
 Alpha virt. eigenvalues --    1.03378   1.03397   1.04393   1.04430   1.04445
 Alpha virt. eigenvalues --    1.04499   1.05038   1.05106   1.05940   1.05940
 Alpha virt. eigenvalues --    1.06371   1.06391   1.06443   1.06446   1.07156
 Alpha virt. eigenvalues --    1.07165   1.07167   1.07178   1.08771   1.08772
 Alpha virt. eigenvalues --    1.10551   1.10551   1.10551   1.10552   1.10997
 Alpha virt. eigenvalues --    1.10997   1.12649   1.12706   1.12937   1.12938
 Alpha virt. eigenvalues --    1.13427   1.13439   1.13537   1.13540   1.13816
 Alpha virt. eigenvalues --    1.13830   1.13832   1.13843   1.14253   1.14268
 Alpha virt. eigenvalues --    1.15426   1.15452   1.16098   1.16117   1.16581
 Alpha virt. eigenvalues --    1.16619   1.16747   1.16766   1.16801   1.16814
 Alpha virt. eigenvalues --    1.16817   1.16837   1.17091   1.17093   1.18955
 Alpha virt. eigenvalues --    1.19038   1.19040   1.19101   1.19180   1.19266
 Alpha virt. eigenvalues --    1.20216   1.20241   1.20250   1.20275   1.21162
 Alpha virt. eigenvalues --    1.21163   1.21226   1.21254   1.21797   1.21801
 Alpha virt. eigenvalues --    1.21844   1.21849   1.21850   1.21855   1.21868
 Alpha virt. eigenvalues --    1.21933   1.22332   1.22345   1.23332   1.23362
 Alpha virt. eigenvalues --    1.23363   1.23401   1.24022   1.24024   1.24024
 Alpha virt. eigenvalues --    1.24024   1.24303   1.24309   1.26225   1.26226
 Alpha virt. eigenvalues --    1.26227   1.26227   1.27520   1.27537   1.27538
 Alpha virt. eigenvalues --    1.27561   1.27788   1.27790   1.28306   1.28326
 Alpha virt. eigenvalues --    1.29135   1.29169   1.29187   1.29211   1.29373
 Alpha virt. eigenvalues --    1.29377   1.29384   1.29389   1.30594   1.30595
 Alpha virt. eigenvalues --    1.31171   1.31192   1.31196   1.31220   1.32114
 Alpha virt. eigenvalues --    1.32161   1.33272   1.33293   1.33707   1.33759
 Alpha virt. eigenvalues --    1.33775   1.33825   1.33826   1.33829   1.33831
 Alpha virt. eigenvalues --    1.33848   1.34008   1.34127   1.34184   1.34207
 Alpha virt. eigenvalues --    1.34239   1.34330   1.35517   1.35532   1.35587
 Alpha virt. eigenvalues --    1.35597   1.35762   1.35797   1.35803   1.35899
 Alpha virt. eigenvalues --    1.36586   1.36609   1.37719   1.37741   1.37844
 Alpha virt. eigenvalues --    1.37845   1.37845   1.37845   1.38731   1.38744
 Alpha virt. eigenvalues --    1.38754   1.38774   1.39436   1.39441   1.40435
 Alpha virt. eigenvalues --    1.40439   1.40699   1.40712   1.41460   1.41461
 Alpha virt. eigenvalues --    1.41740   1.41741   1.41741   1.41742   1.42748
 Alpha virt. eigenvalues --    1.42759   1.43915   1.43915   1.43993   1.43997
 Alpha virt. eigenvalues --    1.43999   1.44003   1.44486   1.44486   1.44878
 Alpha virt. eigenvalues --    1.44883   1.44895   1.44900   1.45003   1.45015
 Alpha virt. eigenvalues --    1.45379   1.45384   1.45394   1.45395   1.45683
 Alpha virt. eigenvalues --    1.45684   1.47146   1.47154   1.47343   1.47353
 Alpha virt. eigenvalues --    1.47531   1.47531   1.48047   1.48063   1.48078
 Alpha virt. eigenvalues --    1.48079   1.48095   1.48095   1.48099   1.48107
 Alpha virt. eigenvalues --    1.48125   1.48139   1.48440   1.48466   1.49053
 Alpha virt. eigenvalues --    1.49064   1.51123   1.51133   1.51811   1.51847
 Alpha virt. eigenvalues --    1.51906   1.51907   1.51946   1.51947   1.51965
 Alpha virt. eigenvalues --    1.51965   1.52319   1.52356   1.53498   1.53503
 Alpha virt. eigenvalues --    1.53856   1.53887   1.54253   1.54262   1.55283
 Alpha virt. eigenvalues --    1.55297   1.55310   1.55317   1.55321   1.55338
 Alpha virt. eigenvalues --    1.55553   1.55596   1.55607   1.55614   1.55679
 Alpha virt. eigenvalues --    1.55679   1.55688   1.55729   1.57482   1.57487
 Alpha virt. eigenvalues --    1.57491   1.57496   1.57537   1.57544   1.57602
 Alpha virt. eigenvalues --    1.57648   1.57947   1.58003   1.58117   1.58124
 Alpha virt. eigenvalues --    1.58795   1.58814   1.59771   1.59797   1.60307
 Alpha virt. eigenvalues --    1.60311   1.60315   1.60318   1.60332   1.60343
 Alpha virt. eigenvalues --    1.63024   1.63035   1.63036   1.63047   1.64526
 Alpha virt. eigenvalues --    1.64554   1.64787   1.64790   1.65436   1.65437
 Alpha virt. eigenvalues --    1.65438   1.65440   1.65551   1.65553   1.65556
 Alpha virt. eigenvalues --    1.65558   1.67140   1.67141   1.67146   1.67149
 Alpha virt. eigenvalues --    1.67397   1.67410   1.68792   1.68797   1.69112
 Alpha virt. eigenvalues --    1.69129   1.69687   1.69703   1.69711   1.69715
 Alpha virt. eigenvalues --    1.69720   1.69741   1.69927   1.69934   1.70547
 Alpha virt. eigenvalues --    1.70571   1.71637   1.71638   1.71648   1.71652
 Alpha virt. eigenvalues --    1.71817   1.71829   1.71838   1.71839   1.71844
 Alpha virt. eigenvalues --    1.71848   1.72019   1.72030   1.72132   1.72134
 Alpha virt. eigenvalues --    1.72561   1.72575   1.72900   1.72923   1.73657
 Alpha virt. eigenvalues --    1.73658   1.74219   1.74224   1.74575   1.74591
 Alpha virt. eigenvalues --    1.74776   1.74786   1.75174   1.75186   1.75188
 Alpha virt. eigenvalues --    1.75200   1.76180   1.76184   1.76194   1.76196
 Alpha virt. eigenvalues --    1.78453   1.78454   1.78472   1.78472   1.78557
 Alpha virt. eigenvalues --    1.78563   1.78707   1.78715   1.79019   1.79024
 Alpha virt. eigenvalues --    1.79135   1.79137   1.79341   1.79344   1.79346
 Alpha virt. eigenvalues --    1.79348   1.80293   1.80303   1.80304   1.80316
 Alpha virt. eigenvalues --    1.80924   1.80946   1.80960   1.80965   1.81333
 Alpha virt. eigenvalues --    1.81334   1.83548   1.83549   1.83550   1.83553
 Alpha virt. eigenvalues --    1.83676   1.83695   1.83824   1.83831   1.84112
 Alpha virt. eigenvalues --    1.84117   1.84117   1.84123   1.84166   1.84177
 Alpha virt. eigenvalues --    1.85892   1.85921   1.87825   1.87838   1.87868
 Alpha virt. eigenvalues --    1.87892   1.87895   1.87926   1.88115   1.88115
 Alpha virt. eigenvalues --    1.88116   1.88116   1.89129   1.89139   1.89157
 Alpha virt. eigenvalues --    1.89203   1.89971   1.89975   1.91295   1.91300
 Alpha virt. eigenvalues --    1.91303   1.91310   1.92753   1.92755   1.92776
 Alpha virt. eigenvalues --    1.92778   1.94003   1.94004   1.94329   1.94342
 Alpha virt. eigenvalues --    1.94546   1.94559   1.94559   1.94574   1.94992
 Alpha virt. eigenvalues --    1.94993   1.94995   1.94995   1.96003   1.96014
 Alpha virt. eigenvalues --    1.96044   1.96048   1.96103   1.96108   1.99181
 Alpha virt. eigenvalues --    1.99181   1.99182   1.99183   2.00048   2.00048
 Alpha virt. eigenvalues --    2.00051   2.00052   2.00900   2.00902   2.00902
 Alpha virt. eigenvalues --    2.00909   2.02100   2.02104   2.03954   2.03957
 Alpha virt. eigenvalues --    2.05013   2.05016   2.05524   2.05525   2.05525
 Alpha virt. eigenvalues --    2.05530   2.06051   2.06055   2.06056   2.06061
 Alpha virt. eigenvalues --    2.06144   2.06146   2.07345   2.07346   2.08616
 Alpha virt. eigenvalues --    2.08624   2.10101   2.10101   2.10756   2.10759
 Alpha virt. eigenvalues --    2.11918   2.11925   2.13321   2.13321   2.13323
 Alpha virt. eigenvalues --    2.13324   2.14017   2.14018   2.14572   2.14574
 Alpha virt. eigenvalues --    2.14575   2.14576   2.15971   2.15976   2.16578
 Alpha virt. eigenvalues --    2.16584   2.16619   2.16628   2.16630   2.16638
 Alpha virt. eigenvalues --    2.16683   2.16683   2.18197   2.18201   2.18201
 Alpha virt. eigenvalues --    2.18205   2.19187   2.19188   2.19713   2.19731
 Alpha virt. eigenvalues --    2.24501   2.24503   2.24967   2.24969   2.24970
 Alpha virt. eigenvalues --    2.24972   2.26314   2.26317   2.26317   2.26324
 Alpha virt. eigenvalues --    2.26737   2.26737   2.28674   2.28675   2.28678
 Alpha virt. eigenvalues --    2.28679   2.28914   2.28921   2.29589   2.29594
 Alpha virt. eigenvalues --    2.30782   2.30787   2.30912   2.30912   2.30912
 Alpha virt. eigenvalues --    2.30915   2.31919   2.31936   2.34532   2.34539
 Alpha virt. eigenvalues --    2.34846   2.34855   2.34855   2.34863   2.35292
 Alpha virt. eigenvalues --    2.35299   2.36207   2.36216   2.36217   2.36227
 Alpha virt. eigenvalues --    2.36701   2.36711   2.37858   2.37858   2.38346
 Alpha virt. eigenvalues --    2.38346   2.38370   2.38376   2.38637   2.38645
 Alpha virt. eigenvalues --    2.38646   2.38655   2.39060   2.39060   2.39358
 Alpha virt. eigenvalues --    2.39360   2.42241   2.42242   2.42749   2.42750
 Alpha virt. eigenvalues --    2.42750   2.42750   2.42916   2.42916   2.43077
 Alpha virt. eigenvalues --    2.43080   2.43082   2.43085   2.43096   2.43097
 Alpha virt. eigenvalues --    2.43312   2.43313   2.43853   2.43863   2.46436
 Alpha virt. eigenvalues --    2.46439   2.46442   2.46445   2.47488   2.47488
 Alpha virt. eigenvalues --    2.47679   2.47684   2.48229   2.48229   2.48230
 Alpha virt. eigenvalues --    2.48230   2.48565   2.48569   2.48579   2.48582
 Alpha virt. eigenvalues --    2.48583   2.48587   2.49414   2.49414   2.50536
 Alpha virt. eigenvalues --    2.50544   2.50634   2.50635   2.50637   2.50639
 Alpha virt. eigenvalues --    2.50864   2.50865   2.50865   2.50865   2.51196
 Alpha virt. eigenvalues --    2.51196   2.51502   2.51515   2.53338   2.53372
 Alpha virt. eigenvalues --    2.54042   2.54051   2.54649   2.54651   2.54661
 Alpha virt. eigenvalues --    2.54662   2.54670   2.54670   2.55188   2.55227
 Alpha virt. eigenvalues --    2.55228   2.55228   2.55238   2.55275   2.56892
 Alpha virt. eigenvalues --    2.56892   2.59231   2.59238   2.63304   2.63306
 Alpha virt. eigenvalues --    2.64471   2.64473   2.64474   2.64475   2.64835
 Alpha virt. eigenvalues --    2.64843   2.67416   2.67417   2.69844   2.69848
 Alpha virt. eigenvalues --    2.69849   2.69854   2.69960   2.69960   2.72589
 Alpha virt. eigenvalues --    2.72591   2.73996   2.73997   2.74002   2.74005
 Alpha virt. eigenvalues --    2.74319   2.74322   2.74953   2.74964   2.75335
 Alpha virt. eigenvalues --    2.75340   2.75342   2.75347   2.75655   2.75656
 Alpha virt. eigenvalues --    2.75659   2.75667   2.76556   2.76556   2.76557
 Alpha virt. eigenvalues --    2.76558   2.76626   2.76631   2.77538   2.77547
 Alpha virt. eigenvalues --    2.77557   2.77557   2.77624   2.77632   2.77888
 Alpha virt. eigenvalues --    2.77890   2.79489   2.79490   2.79493   2.79497
 Alpha virt. eigenvalues --    2.79631   2.79653   2.80843   2.80847   2.81834
 Alpha virt. eigenvalues --    2.81836   2.86063   2.86064   2.86073   2.86074
 Alpha virt. eigenvalues --    2.86280   2.86316   2.87475   2.87475   2.89255
 Alpha virt. eigenvalues --    2.89283   2.89283   2.89319   2.89360   2.89360
 Alpha virt. eigenvalues --    2.89360   2.89361   2.89441   2.89441   2.89759
 Alpha virt. eigenvalues --    2.89760   2.89952   2.90000   2.91316   2.91317
 Alpha virt. eigenvalues --    2.91433   2.91434   2.91434   2.91434   2.92035
 Alpha virt. eigenvalues --    2.92044   2.92596   2.92596   2.93142   2.93152
 Alpha virt. eigenvalues --    2.93152   2.93167   2.94617   2.94630   2.94790
 Alpha virt. eigenvalues --    2.94798   2.95348   2.95349   2.95416   2.95429
 Alpha virt. eigenvalues --    2.96657   2.96657   2.97243   2.97246   2.97248
 Alpha virt. eigenvalues --    2.97252   2.99405   2.99406   2.99406   2.99410
 Alpha virt. eigenvalues --    2.99770   2.99774   3.00758   3.00772   3.00773
 Alpha virt. eigenvalues --    3.00791   3.00992   3.01006   3.01891   3.01893
 Alpha virt. eigenvalues --    3.03155   3.03155   3.03692   3.03717   3.04319
 Alpha virt. eigenvalues --    3.04320   3.04394   3.04424   3.04431   3.04459
 Alpha virt. eigenvalues --    3.05369   3.05372   3.05375   3.05379   3.05827
 Alpha virt. eigenvalues --    3.05827   3.05827   3.05827   3.06292   3.06292
 Alpha virt. eigenvalues --    3.06335   3.06419   3.06550   3.06550   3.07371
 Alpha virt. eigenvalues --    3.07415   3.07418   3.07450   3.07512   3.07588
 Alpha virt. eigenvalues --    3.07647   3.07647   3.07647   3.07648   3.08183
 Alpha virt. eigenvalues --    3.08189   3.09300   3.09301   3.09628   3.09659
 Alpha virt. eigenvalues --    3.11608   3.11620   3.11633   3.11651   3.12522
 Alpha virt. eigenvalues --    3.12522   3.13433   3.13433   3.13433   3.13433
 Alpha virt. eigenvalues --    3.13582   3.13583   3.14785   3.14809   3.15782
 Alpha virt. eigenvalues --    3.15789   3.15792   3.15799   3.15866   3.15898
 Alpha virt. eigenvalues --    3.16486   3.16487   3.16507   3.16507   3.16814
 Alpha virt. eigenvalues --    3.16818   3.16913   3.16917   3.17996   3.18004
 Alpha virt. eigenvalues --    3.18333   3.18349   3.18583   3.18583   3.18583
 Alpha virt. eigenvalues --    3.18584   3.18799   3.18799   3.18932   3.18945
 Alpha virt. eigenvalues --    3.19340   3.19343   3.19346   3.19349   3.19424
 Alpha virt. eigenvalues --    3.19424   3.19424   3.19426   3.20542   3.20542
 Alpha virt. eigenvalues --    3.20817   3.20818   3.20820   3.20821   3.21172
 Alpha virt. eigenvalues --    3.21175   3.21993   3.21994   3.24202   3.24204
 Alpha virt. eigenvalues --    3.24204   3.24206   3.24349   3.24353   3.24367
 Alpha virt. eigenvalues --    3.24372   3.24929   3.24938   3.25534   3.25547
 Alpha virt. eigenvalues --    3.25945   3.25952   3.28357   3.28357   3.28359
 Alpha virt. eigenvalues --    3.28360   3.28630   3.28634   3.31609   3.31609
 Alpha virt. eigenvalues --    3.31610   3.31611   3.31905   3.31909   3.32136
 Alpha virt. eigenvalues --    3.32140   3.32140   3.32151   3.32161   3.32177
 Alpha virt. eigenvalues --    3.34028   3.34046   3.34251   3.34269   3.34376
 Alpha virt. eigenvalues --    3.34381   3.35596   3.35615   3.35699   3.35703
 Alpha virt. eigenvalues --    3.35703   3.35709   3.36046   3.36051   3.37416
 Alpha virt. eigenvalues --    3.37435   3.39027   3.39037   3.39037   3.39053
 Alpha virt. eigenvalues --    3.39063   3.39089   3.39413   3.39460   3.39859
 Alpha virt. eigenvalues --    3.39859   3.39859   3.39859   3.40066   3.40085
 Alpha virt. eigenvalues --    3.40125   3.40130   3.40148   3.40157   3.40448
 Alpha virt. eigenvalues --    3.40450   3.40772   3.40772   3.41285   3.41286
 Alpha virt. eigenvalues --    3.41886   3.41887   3.41888   3.41888   3.44301
 Alpha virt. eigenvalues --    3.44333   3.44825   3.44828   3.46226   3.46232
 Alpha virt. eigenvalues --    3.46232   3.46240   3.46979   3.46980   3.48766
 Alpha virt. eigenvalues --    3.48767   3.48789   3.48790   3.48790   3.48791
 Alpha virt. eigenvalues --    3.49753   3.49753   3.50078   3.50078   3.50078
 Alpha virt. eigenvalues --    3.50078   3.50418   3.50418   3.53528   3.53532
 Alpha virt. eigenvalues --    3.53749   3.53749   3.54053   3.54056   3.54056
 Alpha virt. eigenvalues --    3.54064   3.54128   3.54129   3.54129   3.54130
 Alpha virt. eigenvalues --    3.54572   3.54582   3.54589   3.54597   3.54931
 Alpha virt. eigenvalues --    3.54940   3.56234   3.56238   3.56267   3.56297
 Alpha virt. eigenvalues --    3.56498   3.56498   3.57758   3.57761   3.58506
 Alpha virt. eigenvalues --    3.58510   3.59883   3.59894   3.59895   3.59905
 Alpha virt. eigenvalues --    3.60155   3.60218   3.61943   3.61943   3.61967
 Alpha virt. eigenvalues --    3.62006   3.62009   3.62057   3.63101   3.63104
 Alpha virt. eigenvalues --    3.64305   3.64307   3.64307   3.64308   3.65073
 Alpha virt. eigenvalues --    3.65119   3.67709   3.67709   3.67979   3.67993
 Alpha virt. eigenvalues --    3.67993   3.68009   3.68354   3.68378   3.70453
 Alpha virt. eigenvalues --    3.70454   3.70454   3.70454   3.70561   3.70561
 Alpha virt. eigenvalues --    3.71357   3.71358   3.72256   3.72259   3.73351
 Alpha virt. eigenvalues --    3.73352   3.73353   3.73354   3.74191   3.74193
 Alpha virt. eigenvalues --    3.74365   3.74366   3.74366   3.74368   3.76012
 Alpha virt. eigenvalues --    3.76013   3.76943   3.76943   3.77622   3.77628
 Alpha virt. eigenvalues --    3.79772   3.79774   3.79776   3.79776   3.81497
 Alpha virt. eigenvalues --    3.81498   3.81499   3.81500   3.82863   3.82871
 Alpha virt. eigenvalues --    3.84544   3.84545   3.85864   3.85866   3.86051
 Alpha virt. eigenvalues --    3.86066   3.90255   3.90257   3.93049   3.93050
 Alpha virt. eigenvalues --    3.93050   3.93053   3.95982   3.95992   3.95994
 Alpha virt. eigenvalues --    3.96006   3.96319   3.96320   3.98831   3.98834
 Alpha virt. eigenvalues --    4.00050   4.00051   4.00052   4.00054   4.00064
 Alpha virt. eigenvalues --    4.00067   4.00147   4.00150   4.03431   4.03434
 Alpha virt. eigenvalues --    4.05300   4.05304   4.06392   4.06393   4.06397
 Alpha virt. eigenvalues --    4.06400   4.07165   4.07168   4.07173   4.07177
 Alpha virt. eigenvalues --    4.08070   4.08078   4.09905   4.09905   4.09906
 Alpha virt. eigenvalues --    4.09906   4.11104   4.11104   4.12889   4.12890
 Alpha virt. eigenvalues --    4.13706   4.13708   4.15514   4.15514   4.19646
 Alpha virt. eigenvalues --    4.19647   4.19648   4.19649   4.21935   4.21935
 Alpha virt. eigenvalues --    4.24038   4.24042   4.25135   4.25135   4.25136
 Alpha virt. eigenvalues --    4.25136   4.26805   4.26805   4.32257   4.32258
 Alpha virt. eigenvalues --    4.32258   4.32258   4.32405   4.32408   4.34482
 Alpha virt. eigenvalues --    4.34484   4.34756   4.34757   4.34963   4.34964
 Alpha virt. eigenvalues --    4.34967   4.34967   4.37082   4.37082   4.39912
 Alpha virt. eigenvalues --    4.39913   4.41514   4.41514   4.41514   4.41516
 Alpha virt. eigenvalues --    4.42258   4.42259   4.47923   4.47924   4.48524
 Alpha virt. eigenvalues --    4.48526   4.48526   4.48526   4.50437   4.50437
 Alpha virt. eigenvalues --    4.57932   4.57933   4.61647   4.61647   4.61878
 Alpha virt. eigenvalues --    4.61878   4.61879   4.61879   4.66045   4.66046
 Alpha virt. eigenvalues --    4.70411   4.70411   4.74063   4.74063   4.75256
 Alpha virt. eigenvalues --    4.75256   4.75256   4.75256   4.78373   4.78373
 Alpha virt. eigenvalues --    4.78373   4.78373   4.79945   4.79945   4.82663
 Alpha virt. eigenvalues --    4.82663   4.84844   4.84845   4.91215   4.91215
 Alpha virt. eigenvalues --    4.91215   4.91215   4.96415   4.96415   4.96415
 Alpha virt. eigenvalues --    4.96415   4.97444   4.97444   4.99290   4.99290
 Alpha virt. eigenvalues --    5.01204   5.01207   5.01552   5.01552   5.01796
 Alpha virt. eigenvalues --    5.01797   5.03081   5.03081   5.03083   5.03083
 Alpha virt. eigenvalues --    5.03400   5.03402   5.11948   5.11948   5.12748
 Alpha virt. eigenvalues --    5.12748   5.12748   5.12748   5.18312   5.18312
 Alpha virt. eigenvalues --    5.18312   5.18312   5.23559   5.23559   5.30269
 Alpha virt. eigenvalues --    5.30270   5.30643   5.30643   5.30643   5.30643
 Alpha virt. eigenvalues --    5.36668   5.36669   5.40029   5.40030   5.40030
 Alpha virt. eigenvalues --    5.40030   5.40615   5.40615   5.43297   5.43297
 Alpha virt. eigenvalues --    5.43297   5.43297   5.47430   5.47431   5.54982
 Alpha virt. eigenvalues --    5.54983   5.63844   5.63845   5.66083   5.66083
 Alpha virt. eigenvalues --    5.66083   5.66084   5.67471   5.67473   5.89417
 Alpha virt. eigenvalues --    5.89417   5.95286   5.95287   6.09715   6.09716
 Alpha virt. eigenvalues --    6.58637   6.58637   6.59376   6.59376   6.60414
 Alpha virt. eigenvalues --    6.60414   6.61753   6.61753   6.61753   6.61753
 Alpha virt. eigenvalues --    6.74965   6.74965   6.74965   6.74966  21.59602
 Alpha virt. eigenvalues --   21.59609  21.73024  21.73024  21.73026  21.73030
 Alpha virt. eigenvalues --   21.76409  21.76410  21.92616  21.92620  22.01758
 Alpha virt. eigenvalues --   22.01761  22.01763  22.01767  22.08271  22.08276
 Alpha virt. eigenvalues --   22.14906  22.14910  22.17336  22.17338  22.17338
 Alpha virt. eigenvalues --   22.17338  22.18476  22.18479  22.18780  22.18782
 Alpha virt. eigenvalues --   22.18783  22.18784  22.18844  22.18845  22.23885
 Alpha virt. eigenvalues --   22.23887  22.45005  22.45039  22.45039  22.45074
 Alpha virt. eigenvalues --   22.45409  22.45436  22.45932  22.45966  22.54570
 Alpha virt. eigenvalues --   22.54571  22.56058  22.56058  22.56060  22.56061
 Alpha virt. eigenvalues --   22.57998  22.57999  22.64421  22.64422  22.70710
 Alpha virt. eigenvalues --   22.70710  22.70710  22.70710  22.77244  22.77247
 Alpha virt. eigenvalues --   23.29477  23.29481  23.32877  23.32881  23.32881
 Alpha virt. eigenvalues --   23.32883  23.38946  23.38951  32.10543  32.10543
 Alpha virt. eigenvalues --   32.10543  32.10543  32.14239  32.14239  32.45794
 Alpha virt. eigenvalues --   32.45795  32.52770  32.52770  32.52771  32.52771
 Alpha virt. eigenvalues --   32.53907  32.53907  32.59963  32.59965
          Condensed to atoms (all electrons):
 Mulliken charges:
               1
     1  C   -0.088085
     2  C   -0.088120
     3  C   -0.201531
     4  C    0.091665
     5  C    0.091604
     6  C   -0.201414
     7  C    0.331123
     8  C    0.331220
     9  N   -0.269134
    10  N   -0.534193
    11  N   -0.534178
    12  H    0.122257
    13  H    0.122298
    14  H    0.139740
    15  H    0.139854
    16  C   -0.089842
    17  C   -0.089842
    18  C   -0.201650
    19  C    0.091832
    20  C    0.091832
    21  C   -0.201650
    22  C    0.331125
    23  C    0.331125
    24  N   -0.269111
    25  N   -0.534178
    26  H    0.123675
    27  H    0.123675
    28  H    0.139813
    29  H    0.139813
    30  C   -0.088092
    31  C   -0.088092
    32  C   -0.201409
    33  C    0.091612
    34  C    0.091612
    35  C   -0.201409
    36  C    0.331239
    37  C    0.331239
    38  N   -0.269149
    39  N   -0.534193
    40  H    0.122306
    41  H    0.122306
    42  H    0.139838
    43  H    0.139838
    44  C   -0.088120
    45  C   -0.088085
    46  C   -0.201414
    47  C    0.091604
    48  C    0.091665
    49  C   -0.201531
    50  C    0.331220
    51  C    0.331123
    52  N   -0.269134
    53  H    0.122298
    54  H    0.122257
    55  H    0.139854
    56  H    0.139740
    57  Zn   0.051157
    58  C   -0.088120
    59  C   -0.088085
    60  C   -0.201414
    61  C    0.091604
    62  C    0.091665
    63  C   -0.201531
    64  C    0.331220
    65  C    0.331123
    66  N   -0.269134
    67  N   -0.534178
    68  N   -0.534193
    69  H    0.122298
    70  H    0.122257
    71  H    0.139854
    72  H    0.139740
    73  C   -0.088092
    74  C   -0.088092
    75  C   -0.201409
    76  C    0.091612
    77  C    0.091612
    78  C   -0.201409
    79  C    0.331239
    80  C    0.331239
    81  N   -0.269149
    82  N   -0.534193
    83  H    0.122306
    84  H    0.122306
    85  H    0.139838
    86  H    0.139838
    87  C   -0.089842
    88  C   -0.089842
    89  C   -0.201650
    90  C    0.091832
    91  C    0.091832
    92  C   -0.201650
    93  C    0.331125
    94  C    0.331125
    95  N   -0.269111
    96  N   -0.534178
    97  H    0.123675
    98  H    0.123675
    99  H    0.139813
   100  H    0.139813
   101  C   -0.088085
   102  C   -0.088120
   103  C   -0.201531
   104  C    0.091665
   105  C    0.091604
   106  C   -0.201414
   107  C    0.331123
   108  C    0.331220
   109  N   -0.269134
   110  H    0.122257
   111  H    0.122298
   112  H    0.139740
   113  H    0.139854
   114  Zn   0.051157
 Sum of Mulliken charges =  -0.00000
 Mulliken charges with hydrogens summed into heavy atoms:
               1
     1  C    0.034172
     2  C    0.034178
     3  C   -0.061792
     4  C    0.091665
     5  C    0.091604
     6  C   -0.061560
     7  C    0.331123
     8  C    0.331220
     9  N   -0.269134
    10  N   -0.534193
    11  N   -0.534178
    16  C    0.033833
    17  C    0.033833
    18  C   -0.061837
    19  C    0.091832
    20  C    0.091832
    21  C   -0.061837
    22  C    0.331125
    23  C    0.331125
    24  N   -0.269111
    25  N   -0.534178
    30  C    0.034214
    31  C    0.034214
    32  C   -0.061571
    33  C    0.091612
    34  C    0.091612
    35  C   -0.061571
    36  C    0.331239
    37  C    0.331239
    38  N   -0.269149
    39  N   -0.534193
    44  C    0.034178
    45  C    0.034172
    46  C   -0.061560
    47  C    0.091604
    48  C    0.091665
    49  C   -0.061792
    50  C    0.331220
    51  C    0.331123
    52  N   -0.269134
    57  Zn   0.051157
    58  C    0.034178
    59  C    0.034172
    60  C   -0.061560
    61  C    0.091604
    62  C    0.091665
    63  C   -0.061792
    64  C    0.331220
    65  C    0.331123
    66  N   -0.269134
    67  N   -0.534178
    68  N   -0.534193
    73  C    0.034214
    74  C    0.034214
    75  C   -0.061571
    76  C    0.091612
    77  C    0.091612
    78  C   -0.061571
    79  C    0.331239
    80  C    0.331239
    81  N   -0.269149
    82  N   -0.534193
    87  C    0.033833
    88  C    0.033833
    89  C   -0.061837
    90  C    0.091832
    91  C    0.091832
    92  C   -0.061837
    93  C    0.331125
    94  C    0.331125
    95  N   -0.269111
    96  N   -0.534178
   101  C    0.034172
   102  C    0.034178
   103  C   -0.061792
   104  C    0.091665
   105  C    0.091604
   106  C   -0.061560
   107  C    0.331123
   108  C    0.331220
   109  N   -0.269134
   114  Zn   0.051157
 Electronic spatial extent (au):  <R**2>=         227259.5361
 Charge=              0.0000 electrons
 Dipole moment (field-independent basis, Debye):
    X=             -0.0000    Y=              0.0000    Z=             -0.0000  Tot=              0.0000
 Quadrupole moment (field-independent basis, Debye-Ang):
   XX=           -497.7217   YY=           -419.2122   ZZ=           -420.0641
   XY=              0.3568   XZ=             -0.0000   YZ=             -0.0000
 Traceless Quadrupole moment (field-independent basis, Debye-Ang):
   XX=            -52.0557   YY=             26.4538   ZZ=             25.6019
   XY=              0.3568   XZ=             -0.0000   YZ=             -0.0000
 Octapole moment (field-independent basis, Debye-Ang**2):
  XXX=              0.0000  YYY=             -0.0000  ZZZ=              0.0000  XYY=              0.0000
  XXY=             -0.0000  XXZ=             -0.0000  XZZ=              0.0000  YZZ=             -0.0000
  YYZ=             -0.0000  XYZ=             -0.0000
 Hexadecapole moment (field-independent basis, Debye-Ang**3):
 XXXX=         -19228.1894 YYYY=        -230612.7401 ZZZZ=         -26652.1109 XXXY=         -33606.7294
 XXXZ=             -0.0000 YYYX=         -28304.8796 YYYZ=              0.0000 ZZZX=              0.0000
 ZZZY=             -0.0000 XXYY=         -48740.0628 XXZZ=          -8418.2165 YYZZ=         -43667.9209
 XXYZ=              0.0000 YYXZ=              0.0000 ZZXY=          -9447.7987
 N-N= 1.261676548570D+04 E-N=-4.149854754497D+04  KE= 6.867865789229D+03
 Symmetry AG   KE= 2.420444042786D+03
 Symmetry BG   KE= 1.013488124901D+03
 Symmetry AU   KE= 1.013487170656D+03
 Symmetry BU   KE= 2.420446450887D+03

 Test job not archived.
 1\1\ WCSS.PL-BEM-KETKOV-PC2\SP\RLC-BLYP TD-FC\Gen\C64H32N16Zn2\SERGEY\
 19-Apr-2026\0\\# td(nstates=4) lc-blyp/gen iop(3/107=0350000000,3/108=
 0350000000) geom=check guess=read\\def2tzvp-f, monomer geom r2scan-3c\
 \0,1\C,0,0.701663,6.554204,0.\C,0,-0.701663,6.554204,0.\C,0,1.422571,5
 .364926,0.\C,0,0.703967,4.174565,0.\C,0,-0.703967,4.174565,0.\C,0,-1.4
 22571,5.364926,0.\C,0,1.120422,2.78002,0.\C,0,-1.120422,2.78002,0.\N,0
 ,0.,1.989101,0.\N,0,-2.390568,2.390568,0.\N,0,2.390568,2.390568,0.\H,0
 ,1.231071,7.50255,0.\H,0,-1.231071,7.50255,0.\H,0,2.508027,5.356475,0.
 \H,0,-2.508027,5.356475,0.\C,0,6.554204,-0.701663,0.\C,0,6.554204,0.70
 1663,0.\C,0,5.364926,-1.422571,0.\C,0,4.174565,-0.703967,0.\C,0,4.1745
 65,0.703967,0.\C,0,5.364926,1.422571,0.\C,0,2.78002,-1.120422,0.\C,0,2
 .78002,1.120422,0.\N,0,1.989101,0.,0.\N,0,2.390568,-2.390568,0.\H,0,7.
 50255,-1.231071,0.\H,0,7.50255,1.231071,0.\H,0,5.356475,-2.508027,0.\H
 ,0,5.356475,2.508027,0.\C,0,-6.554204,0.701663,0.\C,0,-6.554204,-0.701
 663,0.\C,0,-5.364926,1.422571,0.\C,0,-4.174565,0.703967,0.\C,0,-4.1745
 65,-0.703967,0.\C,0,-5.364926,-1.422571,0.\C,0,-2.78002,1.120422,0.\C,
 0,-2.78002,-1.120422,0.\N,0,-1.989101,0.,0.\N,0,-2.390568,-2.390568,0.
 \H,0,-7.50255,1.231071,0.\H,0,-7.50255,-1.231071,0.\H,0,-5.356475,2.50
 8027,0.\H,0,-5.356475,-2.508027,0.\C,0,-0.701663,-6.554204,0.\C,0,0.70
 1663,-6.554204,0.\C,0,-1.422571,-5.364926,0.\C,0,-0.703967,-4.174565,0
 .\C,0,0.703967,-4.174565,0.\C,0,1.422571,-5.364926,0.\C,0,-1.120422,-2
 .78002,0.\C,0,1.120422,-2.78002,0.\N,0,0.,-1.989101,0.\H,0,-1.231071,-
 7.50255,0.\H,0,1.231071,-7.50255,0.\H,0,-2.508027,-5.356475,0.\H,0,2.5
 08027,-5.356475,0.\Zn,0,0.,0.,0.\C,0,18.701663,6.554204,5.\C,0,17.2983
 37,6.554204,5.\C,0,19.422571,5.364926,5.\C,0,18.703967,4.174565,5.\C,0
 ,17.296033,4.174565,5.\C,0,16.577429,5.364926,5.\C,0,19.120422,2.78002
 ,5.\C,0,16.879578,2.78002,5.\N,0,18.,1.989101,5.\N,0,15.609432,2.39056
 8,5.\N,0,20.390568,2.390568,5.\H,0,19.231071,7.50255,5.\H,0,16.768929,
 7.50255,5.\H,0,20.508027,5.356475,5.\H,0,15.491973,5.356475,5.\C,0,24.
 554204,-0.701663,5.\C,0,24.554204,0.701663,5.\C,0,23.364926,-1.422571,
 5.\C,0,22.174565,-0.703967,5.\C,0,22.174565,0.703967,5.\C,0,23.364926,
 1.422571,5.\C,0,20.78002,-1.120422,5.\C,0,20.78002,1.120422,5.\N,0,19.
 989101,0.,5.\N,0,20.390568,-2.390568,5.\H,0,25.50255,-1.231071,5.\H,0,
 25.50255,1.231071,5.\H,0,23.356475,-2.508027,5.\H,0,23.356475,2.508027
 ,5.\C,0,11.445796,0.701663,5.\C,0,11.445796,-0.701663,5.\C,0,12.635074
 ,1.422571,5.\C,0,13.825435,0.703967,5.\C,0,13.825435,-0.703967,5.\C,0,
 12.635074,-1.422571,5.\C,0,15.21998,1.120422,5.\C,0,15.21998,-1.120422
 ,5.\N,0,16.010899,0.,5.\N,0,15.609432,-2.390568,5.\H,0,10.49745,1.2310
 71,5.\H,0,10.49745,-1.231071,5.\H,0,12.643525,2.508027,5.\H,0,12.64352
 5,-2.508027,5.\C,0,17.298337,-6.554204,5.\C,0,18.701663,-6.554204,5.\C
 ,0,16.577429,-5.364926,5.\C,0,17.296033,-4.174565,5.\C,0,18.703967,-4.
 174565,5.\C,0,19.422571,-5.364926,5.\C,0,16.879578,-2.78002,5.\C,0,19.
 120422,-2.78002,5.\N,0,18.,-1.989101,5.\H,0,16.768929,-7.50255,5.\H,0,
 19.231071,-7.50255,5.\H,0,15.491973,-5.356475,5.\H,0,20.508027,-5.3564
 75,5.\Zn,0,18.,0.,5.\\Version=ES64L-G09RevE.01\State=1-AG\HF=-6885.167
 7099\RMSD=8.014e-09\PG=C02H [SGH(N4Zn2),X(C64H32N12)]\\@


 THE RARE EARTHS PERPLEX US IN OUR RESEARCHES,
 BAFFLE US IN OUR SPECULATIONS, AND HAUNT US IN OUR
 VERY DREAMS.  THEY STRETCH LIKE AN UNKNOWN BEFORE US,
 MOCKING, MYSTIFYING, AND MURMURING STRANGE REVELATIONS
 AND POSSIBILITIES.  -- SIR WILLIAM CROOKE, 1832-1919
 Job cpu time:       0 days  8 hours 49 minutes 15.5 seconds.
 File lengths (MBytes):  RWF=   6949 Int=      0 D2E=      0 Chk=    886 Scr=      1
 Normal termination of Gaussian 09 at Sun Apr 19 00:02:40 2026.
