%chk=1x1-scan_beta1.chk
%mem=60GB
%nprocshared=6
# def2svp iop(3/107=0350000000,3/108=0350000000) lc-blyp

geom r2scan-3c

0 1
 C              
 C                  1            B1
 C                  1            B2    2            A1
 C                  3            B3    1            A2    2            D1    0
 C                  4            B4    3            A3    1            D2    0
 C                  5            B5    4            A4    3            D3    0
 C                  4            B6    3            A5    1            D4    0
 C                  5            B7    4            A6    3            D5    0
 N                  7            B8    4            A7    3            D6    0
 N                  8            B9    5            A8    4            D7    0
 N                  7           B10    4            A9    3            D8    0
 H                  1           B11    3           A10    4            D9    0
 H                  2           B12    1           A11    3           D10    0
 H                  3           B13    1           A12    2           D11    0
 H                  6           B14    5           A13    4           D12    0
 C                 11           B15    7           A14    4           D13    0
 C                 16           B16   11           A15    7           D14    0
 C                 16           B17   11           A16    7           D15    0
 C                 18           B18   16           A17   11           D16    0
 C                 19           B19   18           A18   16           D17    0
 C                 20           B20   19           A19   18           D18    0
 C                 19           B21   18           A20   16           D19    0
 C                 11           B22    7           A21    4           D20    0
 N                 22           B23   19           A22   18           D21    0
 N                 22           B24   19           A23   18           D22    0
 H                 16           B25   11           A24    7           D23    0
 H                 17           B26   16           A25   11           D24    0
 H                 18           B27   16           A26   11           D25    0
 H                 21           B28   20           A27   19           D26    0
 C                 10           B29    8           A28    5           D27    0
 C                 30           B30   10           A29    8           D28    0
 C                 30           B31   10           A30    8           D29    0
 C                 32           B32   30           A31   10           D30    0
 C                 33           B33   32           A32   30           D31    0
 C                 34           B34   33           A33   32           D32    0
 C                 10           B35    8           A34    5           D33    0
 C                 34           B36   33           A35   32           D34    0
 N                 36           B37   10           A36    8           D35    0
 N                 37           B38   34           A37   33           D36    0
 H                 30           B39   10           A38    8           D37    0
 H                 31           B40   30           A39   10           D38    0
 H                 32           B41   30           A40   10           D39    0
 H                 35           B42   34           A41   33           D40    0
 C                 39           B43   37           A42   34           D41    0
 C                 44           B44   39           A43   37           D42    0
 C                 44           B45   39           A44   37           D43    0
 C                 46           B46   44           A45   39           D44    0
 C                 47           B47   46           A46   44           D45    0
 C                 48           B48   47           A47   46           D46    0
 C                 39           B49   37           A48   34           D47    0
 C                 25           B50   22           A49   19           D48    0
 N                 50           B51   39           A50   37           D49    0
 H                 44           B52   39           A51   37           D50    0
 H                 45           B53   44           A52   39           D51    0
 H                 46           B54   44           A53   39           D52    0
 H                 49           B55   48           A54   47           D53    0
 Zn                 9           B56    7           A55    4           D54    0
 Bq                57           B57   39           A56    7           D55    0

   B1             1.40332695
   B2             1.39071546
   B3             1.39044994
   B4             1.40793445
   B5             1.39044994
   B6             1.45540010
   B7             1.45540010
   B8             1.37145832
   B9             1.32851199
   B10            1.32851199
   B11            1.08610924
   B12            1.08610924
   B13            1.08548918
   B14            1.08548918
   B15            5.18630491
   B16            1.40332695
   B17            1.39071546
   B18            1.39044994
   B19            1.40793445
   B20            1.39044994
   B21            1.45540010
   B22            1.32851199
   B23            1.37145832
   B24            1.32851199
   B25            1.08610924
   B26            1.08610924
   B27            1.08548918
   B28            1.08548918
   B29            4.49313488
   B30            1.40332695
   B31            1.39071546
   B32            1.39044994
   B33            1.40793445
   B34            1.39044994
   B35            1.32851199
   B36            1.45540010
   B37            1.37145832
   B38            1.32851199
   B39            1.08610924
   B40            1.08610924
   B41            1.08548918
   B42            1.08548918
   B43            4.49313488
   B44            1.40332695
   B45            1.39071546
   B46            1.39044994
   B47            1.40793445
   B48            1.39044994
   B49            1.32851199
   B50            1.32851199
   B51            1.37145832
   B52            1.08610924
   B53            1.08610924
   B54            1.08548918
   B55            1.08548918
   B56            1.98910127
   B57            4.85380000
   A1           121.22308425
   A2           117.65815085
   A3           121.11876490
   A4           121.11876490
   A5           132.25396015
   A6           106.62727495
   A7           108.59143102
   A8           123.67384362
   A9           123.67384362
   A10          119.60476348
   A11          119.17215227
   A12          121.66914167
   A13          120.67270748
   A14          160.44618754
   A15           53.39961887
   A16           67.82346538
   A17          117.65815085
   A18          121.11876490
   A19          121.11876490
   A20          132.25396015
   A21          124.09313734
   A22          108.59143102
   A23          123.67384362
   A24          172.57177115
   A25          119.17215227
   A26          121.66914167
   A27          120.67270748
   A28          174.96750911
   A29          112.07905956
   A30            9.14402469
   A31          117.65815085
   A32          121.11876490
   A33          121.11876490
   A34          124.09313734
   A35          106.62727495
   A36          127.73472536
   A37          123.67384362
   A38          128.74878817
   A39          119.17215227
   A40          121.66914167
   A41          120.67270748
   A42          174.96750911
   A43          112.07905956
   A44            9.14402469
   A45          117.65815085
   A46          121.11876490
   A47          121.11876490
   A48          124.09313734
   A49          124.09313734
   A50          127.73472536
   A51          128.74878817
   A52          119.17215227
   A53          121.66914167
   A54          120.67270748
   A55          125.21870597
   A56           41.55200000
   D1             0.00000000
   D2             0.00000000
   D3             0.00000000
   D4           180.00000000
   D5           180.00000000
   D6           180.00000000
   D7           180.00000000
   D8             0.00000000
   D9           180.00000000
   D10          180.00000000
   D11          180.00000000
   D12          180.00000000
   D13          180.00000000
   D14          180.00000000
   D15            0.00000000
   D16            0.00000000
   D17            0.00000000
   D18            0.00000000
   D19          180.00000000
   D20          180.00000000
   D21          180.00000000
   D22            0.00000000
   D23          180.00000000
   D24          180.00000000
   D25          180.00000000
   D26          180.00000000
   D27          180.00000000
   D28            0.00000000
   D29          180.00000000
   D30            0.00000000
   D31            0.00000000
   D32            0.00000000
   D33          180.00000000
   D34          180.00000000
   D35            0.00000000
   D36          180.00000000
   D37          180.00000000
   D38          180.00000000
   D39          180.00000000
   D40          180.00000000
   D41          180.00000000
   D42            0.00000000
   D43          180.00000000
   D44            0.00000000
   D45            0.00000000
   D46            0.00000000
   D47          180.00000000
   D48          180.00000000
   D49            0.00000000
   D50          180.00000000
   D51          180.00000000
   D52          180.00000000
   D53          180.00000000
   D54          180.00000000
   D55           86.71000000

