 Entering Gaussian System, Link 0=g09
 Input=ZnPc2_35-cp_new.gjf
 Output=ZnPc2_35-cp_new.log
 Initial command:
 /opt/g09/l1.exe "/home/sergey/scratch/Gau-3107421.inp" -scrdir="/home/sergey/scratch/"
 Entering Link 1 = /opt/g09/l1.exe PID=   3107423.
  
 Copyright (c) 1988,1990,1992,1993,1995,1998,2003,2009,2015,
            Gaussian, Inc.  All Rights Reserved.
  
 This is part of the Gaussian(R) 09 program.  It is based on
 the Gaussian(R) 03 system (copyright 2003, Gaussian, Inc.),
 the Gaussian(R) 98 system (copyright 1998, Gaussian, Inc.),
 the Gaussian(R) 94 system (copyright 1995, Gaussian, Inc.),
 the Gaussian 92(TM) system (copyright 1992, Gaussian, Inc.),
 the Gaussian 90(TM) system (copyright 1990, Gaussian, Inc.),
 the Gaussian 88(TM) system (copyright 1988, Gaussian, Inc.),
 the Gaussian 86(TM) system (copyright 1986, Carnegie Mellon
 University), and the Gaussian 82(TM) system (copyright 1983,
 Carnegie Mellon University). Gaussian is a federally registered
 trademark of Gaussian, Inc.
  
 This software contains proprietary and confidential information,
 including trade secrets, belonging to Gaussian, Inc.
  
 This software is provided under written license and may be
 used, copied, transmitted, or stored only in accord with that
 written license.
  
 The following legend is applicable only to US Government
 contracts under FAR:
  
                    RESTRICTED RIGHTS LEGEND
  
 Use, reproduction and disclosure by the US Government is
 subject to restrictions as set forth in subparagraphs (a)
 and (c) of the Commercial Computer Software - Restricted
 Rights clause in FAR 52.227-19.
  
 Gaussian, Inc.
 340 Quinnipiac St., Bldg. 40, Wallingford CT 06492
  
  
 ---------------------------------------------------------------
 Warning -- This program may not be used in any manner that
 competes with the business of Gaussian, Inc. or will provide
 assistance to any competitor of Gaussian, Inc.  The licensee
 of this program is prohibited from giving any competitor of
 Gaussian, Inc. access to this program.  By using this program,
 the user acknowledges that Gaussian, Inc. is engaged in the
 business of creating and licensing software in the field of
 computational chemistry and represents and warrants to the
 licensee that it is not a competitor of Gaussian, Inc. and that
 it will not use this program in any manner prohibited above.
 ---------------------------------------------------------------
  

 Cite this work as:
 Gaussian 09, Revision E.01,
 M. J. Frisch, G. W. Trucks, H. B. Schlegel, G. E. Scuseria, 
 M. A. Robb, J. R. Cheeseman, G. Scalmani, V. Barone, B. Mennucci, 
 G. A. Petersson, H. Nakatsuji, M. Caricato, X. Li, H. P. Hratchian, 
 A. F. Izmaylov, J. Bloino, G. Zheng, J. L. Sonnenberg, M. Hada, 
 M. Ehara, K. Toyota, R. Fukuda, J. Hasegawa, M. Ishida, T. Nakajima, 
 Y. Honda, O. Kitao, H. Nakai, T. Vreven, J. A. Montgomery, Jr., 
 J. E. Peralta, F. Ogliaro, M. Bearpark, J. J. Heyd, E. Brothers, 
 K. N. Kudin, V. N. Staroverov, T. Keith, R. Kobayashi, J. Normand, 
 K. Raghavachari, A. Rendell, J. C. Burant, S. S. Iyengar, J. Tomasi, 
 M. Cossi, N. Rega, J. M. Millam, M. Klene, J. E. Knox, J. B. Cross, 
 V. Bakken, C. Adamo, J. Jaramillo, R. Gomperts, R. E. Stratmann, 
 O. Yazyev, A. J. Austin, R. Cammi, C. Pomelli, J. W. Ochterski, 
 R. L. Martin, K. Morokuma, V. G. Zakrzewski, G. A. Voth, 
 P. Salvador, J. J. Dannenberg, S. Dapprich, A. D. Daniels, 
 O. Farkas, J. B. Foresman, J. V. Ortiz, J. Cioslowski, 
 and D. J. Fox, Gaussian, Inc., Wallingford CT, 2013.
 
 ******************************************
 Gaussian 09:  ES64L-G09RevE.01 30-Nov-2015
                22-Apr-2026 
 ******************************************
 %chk=ZnPc2_35-cp_new.chk
 %nprocshared=8
 Will use up to    8 processors via shared memory.
 %mem=64GB
 Default route:  MaxDisk=100GW
 --------------------------------------------------------------------
 #p lc-blyp/gen counterpoise=2 iop(3/107=0350000000,3/108=0350000000)
 --------------------------------------------------------------------
 1/38=1,62=2/1;
 2/12=2,17=6,18=5,40=1/2;
 1/38=1,53=2,62=2,63=1/22;
 3/5=7,11=2,16=1,25=1,30=1,74=1000402,107=350000000,108=350000000/1,2,3;
 4//1;
 5/5=2,38=5/2;
 6/7=2,8=2,9=2,10=2,28=1/1;
 1/53=2,62=2,63=1/22;
 3/5=7,6=11,11=2,16=1,25=1,30=1,74=1000402,82=7,107=350000000,108=350000000/1,2,3;
 4//1;
 5/5=2,38=5/2;
 6/7=2,8=2,9=2,10=2,28=1/1;
 1/53=2,62=2,63=1/22(-4);
 99/5=1,9=1/99;
 Leave Link    1 at Wed Apr 22 14:25:00 2026, MaxMem=  8589934592 cpu:         0.1
 (Enter /opt/g09/l101.exe)
 -----------------------------------------------------------------
 ZnPc dimer lc-blyp(mu=0.35)/def2-tzvp(-f), monomer geom r2scan-3c
 -----------------------------------------------------------------
 Symbolic Z-matrix:
 Charge =  0 Multiplicity = 1 in supermolecule
 Charge =  0 Multiplicity = 1 in fragment      1.
 Charge =  0 Multiplicity = 1 in fragment      2.
 C(Fragment=1)         0.70166   6.5542    0. 
 C(Fragment=1)        -0.70166   6.5542    0. 
 C(Fragment=1)         1.42257   5.36493   0. 
 C(Fragment=1)         0.70397   4.17457   0. 
 C(Fragment=1)        -0.70397   4.17457   0. 
 C(Fragment=1)        -1.42257   5.36493   0. 
 C(Fragment=1)         1.12042   2.78002   0. 
 C(Fragment=1)        -1.12042   2.78002   0. 
 N(Fragment=1)         0.        1.9891    0. 
 N(Fragment=1)        -2.39057   2.39057   0. 
 N(Fragment=1)         2.39057   2.39057   0. 
 H(Fragment=1)         1.23107   7.50255   0. 
 H(Fragment=1)        -1.23107   7.50255   0. 
 H(Fragment=1)         2.50803   5.35648   0. 
 H(Fragment=1)        -2.50803   5.35648   0. 
 C(Fragment=1)         6.5542   -0.70166   0. 
 C(Fragment=1)         6.5542    0.70166   0. 
 C(Fragment=1)         5.36493  -1.42257   0. 
 C(Fragment=1)         4.17457  -0.70397   0. 
 C(Fragment=1)         4.17457   0.70397   0. 
 C(Fragment=1)         5.36493   1.42257   0. 
 C(Fragment=1)         2.78002  -1.12042   0. 
 C(Fragment=1)         2.78002   1.12042   0. 
 N(Fragment=1)         1.9891    0.        0. 
 N(Fragment=1)         2.39057  -2.39057   0. 
 H(Fragment=1)         7.50255  -1.23107   0. 
 H(Fragment=1)         7.50255   1.23107   0. 
 H(Fragment=1)         5.35648  -2.50803   0. 
 H(Fragment=1)         5.35648   2.50803   0. 
 C(Fragment=1)        -6.5542    0.70166   0. 
 C(Fragment=1)        -6.5542   -0.70166   0. 
 C(Fragment=1)        -5.36493   1.42257   0. 
 C(Fragment=1)        -4.17457   0.70397   0. 
 C(Fragment=1)        -4.17457  -0.70397   0. 
 C(Fragment=1)        -5.36493  -1.42257   0. 
 C(Fragment=1)        -2.78002   1.12042   0. 
 C(Fragment=1)        -2.78002  -1.12042   0. 
 N(Fragment=1)        -1.9891    0.        0. 
 N(Fragment=1)        -2.39057  -2.39057   0. 
 H(Fragment=1)        -7.50255   1.23107   0. 
 H(Fragment=1)        -7.50255  -1.23107   0. 
 H(Fragment=1)        -5.35648   2.50803   0. 
 H(Fragment=1)        -5.35648  -2.50803   0. 
 C(Fragment=1)        -0.70166  -6.5542    0. 
 C(Fragment=1)         0.70166  -6.5542    0. 
 C(Fragment=1)        -1.42257  -5.36493   0. 
 C(Fragment=1)        -0.70397  -4.17457   0. 
 C(Fragment=1)         0.70397  -4.17457   0. 
 C(Fragment=1)         1.42257  -5.36493   0. 
 C(Fragment=1)        -1.12042  -2.78002   0. 
 C(Fragment=1)         1.12042  -2.78002   0. 
 N(Fragment=1)         0.       -1.9891    0. 
 H(Fragment=1)        -1.23107  -7.50255   0. 
 H(Fragment=1)         1.23107  -7.50255   0. 
 H(Fragment=1)        -2.50803  -5.35648   0. 
 H(Fragment=1)         2.50803  -5.35648   0. 
 Zn(Fragment=1)        0.        0.        0. 
 C(Fragment=2)         0.70166   6.5542    3.5 
 C(Fragment=2)        -0.70166   6.5542    3.5 
 C(Fragment=2)         1.42257   5.36493   3.5 
 C(Fragment=2)         0.70397   4.17457   3.5 
 C(Fragment=2)        -0.70397   4.17457   3.5 
 C(Fragment=2)        -1.42257   5.36493   3.5 
 C(Fragment=2)         1.12042   2.78002   3.5 
 C(Fragment=2)        -1.12042   2.78002   3.5 
 N(Fragment=2)         0.        1.9891    3.5 
 N(Fragment=2)        -2.39057   2.39057   3.5 
 N(Fragment=2)         2.39057   2.39057   3.5 
 H(Fragment=2)         1.23107   7.50255   3.5 
 H(Fragment=2)        -1.23107   7.50255   3.5 
 H(Fragment=2)         2.50803   5.35648   3.5 
 H(Fragment=2)        -2.50803   5.35648   3.5 
 C(Fragment=2)         6.5542   -0.70166   3.5 
 C(Fragment=2)         6.5542    0.70166   3.5 
 C(Fragment=2)         5.36493  -1.42257   3.5 
 C(Fragment=2)         4.17457  -0.70397   3.5 
 C(Fragment=2)         4.17457   0.70397   3.5 
 C(Fragment=2)         5.36493   1.42257   3.5 
 C(Fragment=2)         2.78002  -1.12042   3.5 
 C(Fragment=2)         2.78002   1.12042   3.5 
 N(Fragment=2)         1.9891    0.        3.5 
 N(Fragment=2)         2.39057  -2.39057   3.5 
 H(Fragment=2)         7.50255  -1.23107   3.5 
 H(Fragment=2)         7.50255   1.23107   3.5 
 H(Fragment=2)         5.35648  -2.50803   3.5 
 H(Fragment=2)         5.35648   2.50803   3.5 
 C(Fragment=2)        -6.5542    0.70166   3.5 
 C(Fragment=2)        -6.5542   -0.70166   3.5 
 C(Fragment=2)        -5.36493   1.42257   3.5 
 C(Fragment=2)        -4.17457   0.70397   3.5 
 C(Fragment=2)        -4.17457  -0.70397   3.5 
 C(Fragment=2)        -5.36493  -1.42257   3.5 
 C(Fragment=2)        -2.78002   1.12042   3.5 
 C(Fragment=2)        -2.78002  -1.12042   3.5 
 N(Fragment=2)        -1.9891    0.        3.5 
 N(Fragment=2)        -2.39057  -2.39057   3.5 
 H(Fragment=2)        -7.50255   1.23107   3.5 
 H(Fragment=2)        -7.50255  -1.23107   3.5 
 H(Fragment=2)        -5.35648   2.50803   3.5 
 H(Fragment=2)        -5.35648  -2.50803   3.5 
 C(Fragment=2)        -0.70166  -6.5542    3.5 
 C(Fragment=2)         0.70166  -6.5542    3.5 
 C(Fragment=2)        -1.42257  -5.36493   3.5 
 C(Fragment=2)        -0.70397  -4.17457   3.5 
 C(Fragment=2)         0.70397  -4.17457   3.5 
 C(Fragment=2)         1.42257  -5.36493   3.5 
 C(Fragment=2)        -1.12042  -2.78002   3.5 
 C(Fragment=2)         1.12042  -2.78002   3.5 
 N(Fragment=2)         0.       -1.9891    3.5 
 H(Fragment=2)        -1.23107  -7.50255   3.5 
 H(Fragment=2)         1.23107  -7.50255   3.5 
 H(Fragment=2)        -2.50803  -5.35648   3.5 
 H(Fragment=2)         2.50803  -5.35648   3.5 
 Zn(Fragment=2)        0.        0.        3.5 
 
 NAtoms=    114 NQM=      114 NQMF=       0 NMMI=      0 NMMIF=      0
                NMic=       0 NMicF=      0.
                    Isotopes and Nuclear Properties:
 (Nuclear quadrupole moments (NQMom) in fm**2, nuclear magnetic moments (NMagM)
  in nuclear magnetons)

  Atom         1           2           3           4           5           6           7           8           9          10
 IAtWgt=          12          12          12          12          12          12          12          12          14          14
 AtmWgt=  12.0000000  12.0000000  12.0000000  12.0000000  12.0000000  12.0000000  12.0000000  12.0000000  14.0030740  14.0030740
 NucSpn=           0           0           0           0           0           0           0           0           2           2
 AtZEff=   0.0000000   0.0000000   0.0000000   0.0000000   0.0000000   0.0000000   0.0000000   0.0000000   0.0000000   0.0000000
 NQMom=    0.0000000   0.0000000   0.0000000   0.0000000   0.0000000   0.0000000   0.0000000   0.0000000   2.0440000   2.0440000
 NMagM=    0.0000000   0.0000000   0.0000000   0.0000000   0.0000000   0.0000000   0.0000000   0.0000000   0.4037610   0.4037610
 AtZNuc=   6.0000000   6.0000000   6.0000000   6.0000000   6.0000000   6.0000000   6.0000000   6.0000000   7.0000000   7.0000000

  Atom        11          12          13          14          15          16          17          18          19          20
 IAtWgt=          14           1           1           1           1          12          12          12          12          12
 AtmWgt=  14.0030740   1.0078250   1.0078250   1.0078250   1.0078250  12.0000000  12.0000000  12.0000000  12.0000000  12.0000000
 NucSpn=           2           1           1           1           1           0           0           0           0           0
 AtZEff=   0.0000000   0.0000000   0.0000000   0.0000000   0.0000000   0.0000000   0.0000000   0.0000000   0.0000000   0.0000000
 NQMom=    2.0440000   0.0000000   0.0000000   0.0000000   0.0000000   0.0000000   0.0000000   0.0000000   0.0000000   0.0000000
 NMagM=    0.4037610   2.7928460   2.7928460   2.7928460   2.7928460   0.0000000   0.0000000   0.0000000   0.0000000   0.0000000
 AtZNuc=   7.0000000   1.0000000   1.0000000   1.0000000   1.0000000   6.0000000   6.0000000   6.0000000   6.0000000   6.0000000

  Atom        21          22          23          24          25          26          27          28          29          30
 IAtWgt=          12          12          12          14          14           1           1           1           1          12
 AtmWgt=  12.0000000  12.0000000  12.0000000  14.0030740  14.0030740   1.0078250   1.0078250   1.0078250   1.0078250  12.0000000
 NucSpn=           0           0           0           2           2           1           1           1           1           0
 AtZEff=   0.0000000   0.0000000   0.0000000   0.0000000   0.0000000   0.0000000   0.0000000   0.0000000   0.0000000   0.0000000
 NQMom=    0.0000000   0.0000000   0.0000000   2.0440000   2.0440000   0.0000000   0.0000000   0.0000000   0.0000000   0.0000000
 NMagM=    0.0000000   0.0000000   0.0000000   0.4037610   0.4037610   2.7928460   2.7928460   2.7928460   2.7928460   0.0000000
 AtZNuc=   6.0000000   6.0000000   6.0000000   7.0000000   7.0000000   1.0000000   1.0000000   1.0000000   1.0000000   6.0000000

  Atom        31          32          33          34          35          36          37          38          39          40
 IAtWgt=          12          12          12          12          12          12          12          14          14           1
 AtmWgt=  12.0000000  12.0000000  12.0000000  12.0000000  12.0000000  12.0000000  12.0000000  14.0030740  14.0030740   1.0078250
 NucSpn=           0           0           0           0           0           0           0           2           2           1
 AtZEff=   0.0000000   0.0000000   0.0000000   0.0000000   0.0000000   0.0000000   0.0000000   0.0000000   0.0000000   0.0000000
 NQMom=    0.0000000   0.0000000   0.0000000   0.0000000   0.0000000   0.0000000   0.0000000   2.0440000   2.0440000   0.0000000
 NMagM=    0.0000000   0.0000000   0.0000000   0.0000000   0.0000000   0.0000000   0.0000000   0.4037610   0.4037610   2.7928460
 AtZNuc=   6.0000000   6.0000000   6.0000000   6.0000000   6.0000000   6.0000000   6.0000000   7.0000000   7.0000000   1.0000000

  Atom        41          42          43          44          45          46          47          48          49          50
 IAtWgt=           1           1           1          12          12          12          12          12          12          12
 AtmWgt=   1.0078250   1.0078250   1.0078250  12.0000000  12.0000000  12.0000000  12.0000000  12.0000000  12.0000000  12.0000000
 NucSpn=           1           1           1           0           0           0           0           0           0           0
 AtZEff=   0.0000000   0.0000000   0.0000000   0.0000000   0.0000000   0.0000000   0.0000000   0.0000000   0.0000000   0.0000000
 NQMom=    0.0000000   0.0000000   0.0000000   0.0000000   0.0000000   0.0000000   0.0000000   0.0000000   0.0000000   0.0000000
 NMagM=    2.7928460   2.7928460   2.7928460   0.0000000   0.0000000   0.0000000   0.0000000   0.0000000   0.0000000   0.0000000
 AtZNuc=   1.0000000   1.0000000   1.0000000   6.0000000   6.0000000   6.0000000   6.0000000   6.0000000   6.0000000   6.0000000

  Atom        51          52          53          54          55          56          57          58          59          60
 IAtWgt=          12          14           1           1           1           1          64          12          12          12
 AtmWgt=  12.0000000  14.0030740   1.0078250   1.0078250   1.0078250   1.0078250  63.9291454  12.0000000  12.0000000  12.0000000
 NucSpn=           0           2           1           1           1           1           0           0           0           0
 AtZEff=   0.0000000   0.0000000   0.0000000   0.0000000   0.0000000   0.0000000   0.0000000   0.0000000   0.0000000   0.0000000
 NQMom=    0.0000000   2.0440000   0.0000000   0.0000000   0.0000000   0.0000000   0.0000000   0.0000000   0.0000000   0.0000000
 NMagM=    0.0000000   0.4037610   2.7928460   2.7928460   2.7928460   2.7928460   0.0000000   0.0000000   0.0000000   0.0000000
 AtZNuc=   6.0000000   7.0000000   1.0000000   1.0000000   1.0000000   1.0000000  30.0000000   6.0000000   6.0000000   6.0000000

  Atom        61          62          63          64          65          66          67          68          69          70
 IAtWgt=          12          12          12          12          12          14          14          14           1           1
 AtmWgt=  12.0000000  12.0000000  12.0000000  12.0000000  12.0000000  14.0030740  14.0030740  14.0030740   1.0078250   1.0078250
 NucSpn=           0           0           0           0           0           2           2           2           1           1
 AtZEff=   0.0000000   0.0000000   0.0000000   0.0000000   0.0000000   0.0000000   0.0000000   0.0000000   0.0000000   0.0000000
 NQMom=    0.0000000   0.0000000   0.0000000   0.0000000   0.0000000   2.0440000   2.0440000   2.0440000   0.0000000   0.0000000
 NMagM=    0.0000000   0.0000000   0.0000000   0.0000000   0.0000000   0.4037610   0.4037610   0.4037610   2.7928460   2.7928460
 AtZNuc=   6.0000000   6.0000000   6.0000000   6.0000000   6.0000000   7.0000000   7.0000000   7.0000000   1.0000000   1.0000000

  Atom        71          72          73          74          75          76          77          78          79          80
 IAtWgt=           1           1          12          12          12          12          12          12          12          12
 AtmWgt=   1.0078250   1.0078250  12.0000000  12.0000000  12.0000000  12.0000000  12.0000000  12.0000000  12.0000000  12.0000000
 NucSpn=           1           1           0           0           0           0           0           0           0           0
 AtZEff=   0.0000000   0.0000000   0.0000000   0.0000000   0.0000000   0.0000000   0.0000000   0.0000000   0.0000000   0.0000000
 NQMom=    0.0000000   0.0000000   0.0000000   0.0000000   0.0000000   0.0000000   0.0000000   0.0000000   0.0000000   0.0000000
 NMagM=    2.7928460   2.7928460   0.0000000   0.0000000   0.0000000   0.0000000   0.0000000   0.0000000   0.0000000   0.0000000
 AtZNuc=   1.0000000   1.0000000   6.0000000   6.0000000   6.0000000   6.0000000   6.0000000   6.0000000   6.0000000   6.0000000

  Atom        81          82          83          84          85          86          87          88          89          90
 IAtWgt=          14          14           1           1           1           1          12          12          12          12
 AtmWgt=  14.0030740  14.0030740   1.0078250   1.0078250   1.0078250   1.0078250  12.0000000  12.0000000  12.0000000  12.0000000
 NucSpn=           2           2           1           1           1           1           0           0           0           0
 AtZEff=   0.0000000   0.0000000   0.0000000   0.0000000   0.0000000   0.0000000   0.0000000   0.0000000   0.0000000   0.0000000
 NQMom=    2.0440000   2.0440000   0.0000000   0.0000000   0.0000000   0.0000000   0.0000000   0.0000000   0.0000000   0.0000000
 NMagM=    0.4037610   0.4037610   2.7928460   2.7928460   2.7928460   2.7928460   0.0000000   0.0000000   0.0000000   0.0000000
 AtZNuc=   7.0000000   7.0000000   1.0000000   1.0000000   1.0000000   1.0000000   6.0000000   6.0000000   6.0000000   6.0000000

  Atom        91          92          93          94          95          96          97          98          99         100
 IAtWgt=          12          12          12          12          14          14           1           1           1           1
 AtmWgt=  12.0000000  12.0000000  12.0000000  12.0000000  14.0030740  14.0030740   1.0078250   1.0078250   1.0078250   1.0078250
 NucSpn=           0           0           0           0           2           2           1           1           1           1
 AtZEff=   0.0000000   0.0000000   0.0000000   0.0000000   0.0000000   0.0000000   0.0000000   0.0000000   0.0000000   0.0000000
 NQMom=    0.0000000   0.0000000   0.0000000   0.0000000   2.0440000   2.0440000   0.0000000   0.0000000   0.0000000   0.0000000
 NMagM=    0.0000000   0.0000000   0.0000000   0.0000000   0.4037610   0.4037610   2.7928460   2.7928460   2.7928460   2.7928460
 AtZNuc=   6.0000000   6.0000000   6.0000000   6.0000000   7.0000000   7.0000000   1.0000000   1.0000000   1.0000000   1.0000000

  Atom       101         102         103         104         105         106         107         108         109         110
 IAtWgt=          12          12          12          12          12          12          12          12          14           1
 AtmWgt=  12.0000000  12.0000000  12.0000000  12.0000000  12.0000000  12.0000000  12.0000000  12.0000000  14.0030740   1.0078250
 NucSpn=           0           0           0           0           0           0           0           0           2           1
 AtZEff=   0.0000000   0.0000000   0.0000000   0.0000000   0.0000000   0.0000000   0.0000000   0.0000000   0.0000000   0.0000000
 NQMom=    0.0000000   0.0000000   0.0000000   0.0000000   0.0000000   0.0000000   0.0000000   0.0000000   2.0440000   0.0000000
 NMagM=    0.0000000   0.0000000   0.0000000   0.0000000   0.0000000   0.0000000   0.0000000   0.0000000   0.4037610   2.7928460
 AtZNuc=   6.0000000   6.0000000   6.0000000   6.0000000   6.0000000   6.0000000   6.0000000   6.0000000   7.0000000   1.0000000

  Atom       111         112         113         114
 IAtWgt=           1           1           1          64
 AtmWgt=   1.0078250   1.0078250   1.0078250  63.9291454
 NucSpn=           1           1           1           0
 AtZEff=   0.0000000   0.0000000   0.0000000   0.0000000
 NQMom=    0.0000000   0.0000000   0.0000000   0.0000000
 NMagM=    2.7928460   2.7928460   2.7928460   0.0000000
 AtZNuc=   1.0000000   1.0000000   1.0000000  30.0000000
 Leave Link  101 at Wed Apr 22 14:25:00 2026, MaxMem=  8589934592 cpu:         0.6
 (Enter /opt/g09/l202.exe)
 Stoichiometry    C64H32N16Zn2
 Framework group  D4H[C4(Zn.Zn),2SGV(N4),2SGD(N4),X(C64H32)]
 Deg. of freedom    23
 Full point group                 D4H     NOp  16
 Largest Abelian subgroup         D2H     NOp   8
 Largest concise Abelian subgroup D2H     NOp   8
                         Standard orientation:                         
 ---------------------------------------------------------------------
 Center     Atomic      Atomic             Coordinates (Angstroms)
 Number     Number       Type             X           Y           Z
 ---------------------------------------------------------------------
      1          6           0       -0.701663    6.554204    1.750000
      2          6           0        0.701663    6.554204    1.750000
      3          6           0       -1.422571    5.364926    1.750000
      4          6           0       -0.703967    4.174565    1.750000
      5          6           0        0.703967    4.174565    1.750000
      6          6           0        1.422571    5.364926    1.750000
      7          6           0       -1.120422    2.780020    1.750000
      8          6           0        1.120422    2.780020    1.750000
      9          7           0        0.000000    1.989101    1.750000
     10          7           0        2.390568    2.390568    1.750000
     11          7           0       -2.390568    2.390568    1.750000
     12          1           0       -1.231071    7.502550    1.750000
     13          1           0        1.231071    7.502550    1.750000
     14          1           0       -2.508027    5.356475    1.750000
     15          1           0        2.508027    5.356475    1.750000
     16          6           0       -6.554204   -0.701663    1.750000
     17          6           0       -6.554204    0.701663    1.750000
     18          6           0       -5.364926   -1.422571    1.750000
     19          6           0       -4.174565   -0.703967    1.750000
     20          6           0       -4.174565    0.703967    1.750000
     21          6           0       -5.364926    1.422571    1.750000
     22          6           0       -2.780020   -1.120422    1.750000
     23          6           0       -2.780020    1.120422    1.750000
     24          7           0       -1.989101    0.000000    1.750000
     25          7           0       -2.390568   -2.390568    1.750000
     26          1           0       -7.502550   -1.231071    1.750000
     27          1           0       -7.502550    1.231071    1.750000
     28          1           0       -5.356475   -2.508027    1.750000
     29          1           0       -5.356475    2.508027    1.750000
     30          6           0        6.554204    0.701663    1.750000
     31          6           0        6.554204   -0.701663    1.750000
     32          6           0        5.364926    1.422571    1.750000
     33          6           0        4.174565    0.703967    1.750000
     34          6           0        4.174565   -0.703967    1.750000
     35          6           0        5.364926   -1.422571    1.750000
     36          6           0        2.780020    1.120422    1.750000
     37          6           0        2.780020   -1.120422    1.750000
     38          7           0        1.989101   -0.000000    1.750000
     39          7           0        2.390568   -2.390568    1.750000
     40          1           0        7.502550    1.231071    1.750000
     41          1           0        7.502550   -1.231071    1.750000
     42          1           0        5.356475    2.508027    1.750000
     43          1           0        5.356475   -2.508027    1.750000
     44          6           0        0.701663   -6.554204    1.750000
     45          6           0       -0.701663   -6.554204    1.750000
     46          6           0        1.422571   -5.364926    1.750000
     47          6           0        0.703967   -4.174565    1.750000
     48          6           0       -0.703967   -4.174565    1.750000
     49          6           0       -1.422571   -5.364926    1.750000
     50          6           0        1.120422   -2.780020    1.750000
     51          6           0       -1.120422   -2.780020    1.750000
     52          7           0       -0.000000   -1.989101    1.750000
     53          1           0        1.231071   -7.502550    1.750000
     54          1           0       -1.231071   -7.502550    1.750000
     55          1           0        2.508027   -5.356475    1.750000
     56          1           0       -2.508027   -5.356475    1.750000
     57         30           0        0.000000    0.000000    1.750000
     58          6           0       -0.701663    6.554204   -1.750000
     59          6           0        0.701663    6.554204   -1.750000
     60          6           0       -1.422571    5.364926   -1.750000
     61          6           0       -0.703967    4.174565   -1.750000
     62          6           0        0.703967    4.174565   -1.750000
     63          6           0        1.422571    5.364926   -1.750000
     64          6           0       -1.120422    2.780020   -1.750000
     65          6           0        1.120422    2.780020   -1.750000
     66          7           0        0.000000    1.989101   -1.750000
     67          7           0        2.390568    2.390568   -1.750000
     68          7           0       -2.390568    2.390568   -1.750000
     69          1           0       -1.231071    7.502550   -1.750000
     70          1           0        1.231071    7.502550   -1.750000
     71          1           0       -2.508027    5.356475   -1.750000
     72          1           0        2.508027    5.356475   -1.750000
     73          6           0       -6.554204   -0.701663   -1.750000
     74          6           0       -6.554204    0.701663   -1.750000
     75          6           0       -5.364926   -1.422571   -1.750000
     76          6           0       -4.174565   -0.703967   -1.750000
     77          6           0       -4.174565    0.703967   -1.750000
     78          6           0       -5.364926    1.422571   -1.750000
     79          6           0       -2.780020   -1.120422   -1.750000
     80          6           0       -2.780020    1.120422   -1.750000
     81          7           0       -1.989101    0.000000   -1.750000
     82          7           0       -2.390568   -2.390568   -1.750000
     83          1           0       -7.502550   -1.231071   -1.750000
     84          1           0       -7.502550    1.231071   -1.750000
     85          1           0       -5.356475   -2.508027   -1.750000
     86          1           0       -5.356475    2.508027   -1.750000
     87          6           0        6.554204    0.701663   -1.750000
     88          6           0        6.554204   -0.701663   -1.750000
     89          6           0        5.364926    1.422571   -1.750000
     90          6           0        4.174565    0.703967   -1.750000
     91          6           0        4.174565   -0.703967   -1.750000
     92          6           0        5.364926   -1.422571   -1.750000
     93          6           0        2.780020    1.120422   -1.750000
     94          6           0        2.780020   -1.120422   -1.750000
     95          7           0        1.989101   -0.000000   -1.750000
     96          7           0        2.390568   -2.390568   -1.750000
     97          1           0        7.502550    1.231071   -1.750000
     98          1           0        7.502550   -1.231071   -1.750000
     99          1           0        5.356475    2.508027   -1.750000
    100          1           0        5.356475   -2.508027   -1.750000
    101          6           0        0.701663   -6.554204   -1.750000
    102          6           0       -0.701663   -6.554204   -1.750000
    103          6           0        1.422571   -5.364926   -1.750000
    104          6           0        0.703967   -4.174565   -1.750000
    105          6           0       -0.703967   -4.174565   -1.750000
    106          6           0       -1.422571   -5.364926   -1.750000
    107          6           0        1.120422   -2.780020   -1.750000
    108          6           0       -1.120422   -2.780020   -1.750000
    109          7           0       -0.000000   -1.989101   -1.750000
    110          1           0        1.231071   -7.502550   -1.750000
    111          1           0       -1.231071   -7.502550   -1.750000
    112          1           0        2.508027   -5.356475   -1.750000
    113          1           0       -2.508027   -5.356475   -1.750000
    114         30           0        0.000000    0.000000   -1.750000
 ---------------------------------------------------------------------
 Rotational constants (GHZ):      0.0340323      0.0340323      0.0223194
 Mismatch for IA=      1 IOp=  3 Frag=      1 JA=     59 Frag=      2
 Mismatch for IA=      2 IOp=  3 Frag=      1 JA=     58 Frag=      2
 Mismatch for IA=      3 IOp=  3 Frag=      1 JA=     63 Frag=      2
 Mismatch for IA=      4 IOp=  3 Frag=      1 JA=     62 Frag=      2
 Mismatch for IA=      5 IOp=  3 Frag=      1 JA=     61 Frag=      2
 Mismatch for IA=      6 IOp=  3 Frag=      1 JA=     60 Frag=      2
 Mismatch for IA=      7 IOp=  3 Frag=      1 JA=     65 Frag=      2
 Mismatch for IA=      8 IOp=  3 Frag=      1 JA=     64 Frag=      2
 Mismatch for IA=      9 IOp=  3 Frag=      1 JA=     66 Frag=      2
 Mismatch for IA=     10 IOp=  3 Frag=      1 JA=     68 Frag=      2
 Mismatch for IA=     11 IOp=  3 Frag=      1 JA=     67 Frag=      2
 Mismatch for IA=     12 IOp=  3 Frag=      1 JA=     70 Frag=      2
 Mismatch for IA=     13 IOp=  3 Frag=      1 JA=     69 Frag=      2
 Mismatch for IA=     14 IOp=  3 Frag=      1 JA=     72 Frag=      2
 Mismatch for IA=     15 IOp=  3 Frag=      1 JA=     71 Frag=      2
 Mismatch for IA=     16 IOp=  3 Frag=      1 JA=     88 Frag=      2
 Mismatch for IA=     17 IOp=  3 Frag=      1 JA=     87 Frag=      2
 Mismatch for IA=     18 IOp=  3 Frag=      1 JA=     92 Frag=      2
 Mismatch for IA=     19 IOp=  3 Frag=      1 JA=     91 Frag=      2
 Mismatch for IA=     20 IOp=  3 Frag=      1 JA=     90 Frag=      2
 Mismatch for IA=     21 IOp=  3 Frag=      1 JA=     89 Frag=      2
 Mismatch for IA=     22 IOp=  3 Frag=      1 JA=     94 Frag=      2
 Mismatch for IA=     23 IOp=  3 Frag=      1 JA=     93 Frag=      2
 Mismatch for IA=     24 IOp=  3 Frag=      1 JA=     95 Frag=      2
 Mismatch for IA=     25 IOp=  3 Frag=      1 JA=     96 Frag=      2
 Mismatch for IA=     26 IOp=  3 Frag=      1 JA=     98 Frag=      2
 Mismatch for IA=     27 IOp=  3 Frag=      1 JA=     97 Frag=      2
 Mismatch for IA=     28 IOp=  3 Frag=      1 JA=    100 Frag=      2
 Mismatch for IA=     29 IOp=  3 Frag=      1 JA=     99 Frag=      2
 Mismatch for IA=     30 IOp=  3 Frag=      1 JA=     74 Frag=      2
 Mismatch for IA=     31 IOp=  3 Frag=      1 JA=     73 Frag=      2
 Mismatch for IA=     32 IOp=  3 Frag=      1 JA=     78 Frag=      2
 Mismatch for IA=     33 IOp=  3 Frag=      1 JA=     77 Frag=      2
 Mismatch for IA=     34 IOp=  3 Frag=      1 JA=     76 Frag=      2
 Mismatch for IA=     35 IOp=  3 Frag=      1 JA=     75 Frag=      2
 Mismatch for IA=     36 IOp=  3 Frag=      1 JA=     80 Frag=      2
 Mismatch for IA=     37 IOp=  3 Frag=      1 JA=     79 Frag=      2
 Mismatch for IA=     38 IOp=  3 Frag=      1 JA=     81 Frag=      2
 Mismatch for IA=     39 IOp=  3 Frag=      1 JA=     82 Frag=      2
 Mismatch for IA=     40 IOp=  3 Frag=      1 JA=     84 Frag=      2
 Mismatch for IA=     41 IOp=  3 Frag=      1 JA=     83 Frag=      2
 Mismatch for IA=     42 IOp=  3 Frag=      1 JA=     86 Frag=      2
 Mismatch for IA=     43 IOp=  3 Frag=      1 JA=     85 Frag=      2
 Mismatch for IA=     44 IOp=  3 Frag=      1 JA=    102 Frag=      2
 Mismatch for IA=     45 IOp=  3 Frag=      1 JA=    101 Frag=      2
 Mismatch for IA=     46 IOp=  3 Frag=      1 JA=    106 Frag=      2
 Mismatch for IA=     47 IOp=  3 Frag=      1 JA=    105 Frag=      2
 Mismatch for IA=     48 IOp=  3 Frag=      1 JA=    104 Frag=      2
 Mismatch for IA=     49 IOp=  3 Frag=      1 JA=    103 Frag=      2
 Mismatch for IA=     50 IOp=  3 Frag=      1 JA=    108 Frag=      2
 Mismatch for IA=     51 IOp=  3 Frag=      1 JA=    107 Frag=      2
 Mismatch for IA=     52 IOp=  3 Frag=      1 JA=    109 Frag=      2
 Mismatch for IA=     53 IOp=  3 Frag=      1 JA=    111 Frag=      2
 Mismatch for IA=     54 IOp=  3 Frag=      1 JA=    110 Frag=      2
 Mismatch for IA=     55 IOp=  3 Frag=      1 JA=    113 Frag=      2
 Mismatch for IA=     56 IOp=  3 Frag=      1 JA=    112 Frag=      2
 Mismatch for IA=     57 IOp=  3 Frag=      1 JA=    114 Frag=      2
 Mismatch for IA=     58 IOp=  3 Frag=      2 JA=      2 Frag=      1
 Mismatch for IA=     59 IOp=  3 Frag=      2 JA=      1 Frag=      1
 Mismatch for IA=     60 IOp=  3 Frag=      2 JA=      6 Frag=      1
 Mismatch for IA=     61 IOp=  3 Frag=      2 JA=      5 Frag=      1
 Mismatch for IA=     62 IOp=  3 Frag=      2 JA=      4 Frag=      1
 Mismatch for IA=     63 IOp=  3 Frag=      2 JA=      3 Frag=      1
 Mismatch for IA=     64 IOp=  3 Frag=      2 JA=      8 Frag=      1
 Mismatch for IA=     65 IOp=  3 Frag=      2 JA=      7 Frag=      1
 Mismatch for IA=     66 IOp=  3 Frag=      2 JA=      9 Frag=      1
 Mismatch for IA=     67 IOp=  3 Frag=      2 JA=     11 Frag=      1
 Mismatch for IA=     68 IOp=  3 Frag=      2 JA=     10 Frag=      1
 Mismatch for IA=     69 IOp=  3 Frag=      2 JA=     13 Frag=      1
 Mismatch for IA=     70 IOp=  3 Frag=      2 JA=     12 Frag=      1
 Mismatch for IA=     71 IOp=  3 Frag=      2 JA=     15 Frag=      1
 Mismatch for IA=     72 IOp=  3 Frag=      2 JA=     14 Frag=      1
 Mismatch for IA=     73 IOp=  3 Frag=      2 JA=     31 Frag=      1
 Mismatch for IA=     74 IOp=  3 Frag=      2 JA=     30 Frag=      1
 Mismatch for IA=     75 IOp=  3 Frag=      2 JA=     35 Frag=      1
 Mismatch for IA=     76 IOp=  3 Frag=      2 JA=     34 Frag=      1
 Mismatch for IA=     77 IOp=  3 Frag=      2 JA=     33 Frag=      1
 Mismatch for IA=     78 IOp=  3 Frag=      2 JA=     32 Frag=      1
 Mismatch for IA=     79 IOp=  3 Frag=      2 JA=     37 Frag=      1
 Mismatch for IA=     80 IOp=  3 Frag=      2 JA=     36 Frag=      1
 Mismatch for IA=     81 IOp=  3 Frag=      2 JA=     38 Frag=      1
 Mismatch for IA=     82 IOp=  3 Frag=      2 JA=     39 Frag=      1
 Mismatch for IA=     83 IOp=  3 Frag=      2 JA=     41 Frag=      1
 Mismatch for IA=     84 IOp=  3 Frag=      2 JA=     40 Frag=      1
 Mismatch for IA=     85 IOp=  3 Frag=      2 JA=     43 Frag=      1
 Mismatch for IA=     86 IOp=  3 Frag=      2 JA=     42 Frag=      1
 Mismatch for IA=     87 IOp=  3 Frag=      2 JA=     17 Frag=      1
 Mismatch for IA=     88 IOp=  3 Frag=      2 JA=     16 Frag=      1
 Mismatch for IA=     89 IOp=  3 Frag=      2 JA=     21 Frag=      1
 Mismatch for IA=     90 IOp=  3 Frag=      2 JA=     20 Frag=      1
 Mismatch for IA=     91 IOp=  3 Frag=      2 JA=     19 Frag=      1
 Mismatch for IA=     92 IOp=  3 Frag=      2 JA=     18 Frag=      1
 Mismatch for IA=     93 IOp=  3 Frag=      2 JA=     23 Frag=      1
 Mismatch for IA=     94 IOp=  3 Frag=      2 JA=     22 Frag=      1
 Mismatch for IA=     95 IOp=  3 Frag=      2 JA=     24 Frag=      1
 Mismatch for IA=     96 IOp=  3 Frag=      2 JA=     25 Frag=      1
 Mismatch for IA=     97 IOp=  3 Frag=      2 JA=     27 Frag=      1
 Mismatch for IA=     98 IOp=  3 Frag=      2 JA=     26 Frag=      1
 Mismatch for IA=     99 IOp=  3 Frag=      2 JA=     29 Frag=      1
 Mismatch for IA=    100 IOp=  3 Frag=      2 JA=     28 Frag=      1
 Mismatch for IA=    101 IOp=  3 Frag=      2 JA=     45 Frag=      1
 Mismatch for IA=    102 IOp=  3 Frag=      2 JA=     44 Frag=      1
 Mismatch for IA=    103 IOp=  3 Frag=      2 JA=     49 Frag=      1
 Mismatch for IA=    104 IOp=  3 Frag=      2 JA=     48 Frag=      1
 Mismatch for IA=    105 IOp=  3 Frag=      2 JA=     47 Frag=      1
 Mismatch for IA=    106 IOp=  3 Frag=      2 JA=     46 Frag=      1
 Mismatch for IA=    107 IOp=  3 Frag=      2 JA=     51 Frag=      1
 Mismatch for IA=    108 IOp=  3 Frag=      2 JA=     50 Frag=      1
 Mismatch for IA=    109 IOp=  3 Frag=      2 JA=     52 Frag=      1
 Mismatch for IA=    110 IOp=  3 Frag=      2 JA=     54 Frag=      1
 Mismatch for IA=    111 IOp=  3 Frag=      2 JA=     53 Frag=      1
 Mismatch for IA=    112 IOp=  3 Frag=      2 JA=     56 Frag=      1
 Mismatch for IA=    113 IOp=  3 Frag=      2 JA=     55 Frag=      1
 Mismatch for IA=    114 IOp=  3 Frag=      2 JA=     57 Frag=      1
 Symmetry turned off in CkCPSy: fragments do not conform to real system point group.
 Leave Link  202 at Wed Apr 22 14:25:00 2026, MaxMem=  8589934592 cpu:         0.0
 (Enter /opt/g09/l122.exe)
 Counterpoise: doing full dimer calculation.
 Leave Link  122 at Wed Apr 22 14:25:00 2026, MaxMem=  8589934592 cpu:         0.0
 (Enter /opt/g09/l301.exe)
 General basis read from cards:  (5D, 7F)
 Centers:      12     13     14     15     26     27     28     29     40     41
 Centers:      42     43     53     54     55     56     69     70     71     72
 Centers:      83     84     85     86     97     98     99    100    110    111
 Centers:     112    113     57    114
 def2tzvp
 ****
 Centers:       1      2      3      4      5      6      7      8     16     17
 Centers:      18     19     20     21     22     23     30     31     32     33
 Centers:      34     35     36     37     44     45     46     47     48     49
 Centers:      50     51     58     59     60     61     62     63     64     65
 Centers:      73     74     75     76     77     78     79     80     87     88
 Centers:      89     90     91     92     93     94    101    102    103    104
 Centers:     105    106    107    108
 S 6 1.00
     Exponent=  1.3575349682D+04 Coefficients=  2.2245814352D-04
     Exponent=  2.0352333680D+03 Coefficients=  1.7232738252D-03
     Exponent=  4.6322562359D+02 Coefficients=  8.9255715314D-03
     Exponent=  1.3120019598D+02 Coefficients=  3.5727984502D-02
     Exponent=  4.2853015891D+01 Coefficients=  1.1076259931D-01
     Exponent=  1.5584185766D+01 Coefficients=  2.4295627626D-01
 S 2 1.00
     Exponent=  6.2067138508D+00 Coefficients=  4.1440263448D-01
     Exponent=  2.5764896527D+00 Coefficients=  2.3744968655D-01
 S 1 1.00
     Exponent=  5.7696339419D-01 Coefficients=  1.0000000000D+00
 S 1 1.00
     Exponent=  2.2972831358D-01 Coefficients=  1.0000000000D+00
 S 1 1.00
     Exponent=  9.5164440028D-02 Coefficients=  1.0000000000D+00
 P 4 1.00
     Exponent=  3.4697232244D+01 Coefficients=  5.3333657805D-03
     Exponent=  7.9582622826D+00 Coefficients=  3.5864109092D-02
     Exponent=  2.3780826883D+00 Coefficients=  1.4215873329D-01
     Exponent=  8.1433208183D-01 Coefficients=  3.4270471845D-01
 P 1 1.00
     Exponent=  2.8887547253D-01 Coefficients=  4.6445822433D-01
 P 1 1.00
     Exponent=  1.0056823671D-01 Coefficients=  2.4955789874D-01
 D 1 1.00
     Exponent=  1.0970000000D+00 Coefficients=  1.0000000000D+00
 D 1 1.00
     Exponent=  3.1800000000D-01 Coefficients=  1.0000000000D+00
 ****
 Centers:       9     10     11     24     25     38     39     52     66     67
 Centers:      68     81     82     95     96    109
 S 6 1.00
     Exponent=  1.9730800647D+04 Coefficients=  2.1887984991D-04
     Exponent=  2.9578958745D+03 Coefficients=  1.6960708803D-03
     Exponent=  6.7322133595D+02 Coefficients=  8.7954603538D-03
     Exponent=  1.9068249494D+02 Coefficients=  3.5359382605D-02
     Exponent=  6.2295441898D+01 Coefficients=  1.1095789217D-01
     Exponent=  2.2654161182D+01 Coefficients=  2.4982972552D-01
 S 2 1.00
     Exponent=  8.9791477428D+00 Coefficients=  4.0623896148D-01
     Exponent=  3.6863002370D+00 Coefficients=  2.4338217176D-01
 S 1 1.00
     Exponent=  8.4660076805D-01 Coefficients=  1.0000000000D+00
 S 1 1.00
     Exponent=  3.3647133771D-01 Coefficients=  1.0000000000D+00
 S 1 1.00
     Exponent=  1.3647653675D-01 Coefficients=  1.0000000000D+00
 P 4 1.00
     Exponent=  4.9200380510D+01 Coefficients=  5.5552416751D-03
     Exponent=  1.1346790537D+01 Coefficients=  3.8052379723D-02
     Exponent=  3.4273972411D+00 Coefficients=  1.4953671029D-01
     Exponent=  1.1785525134D+00 Coefficients=  3.4949305230D-01
 P 1 1.00
     Exponent=  4.1642204972D-01 Coefficients=  4.5843153697D-01
 P 1 1.00
     Exponent=  1.4260826011D-01 Coefficients=  2.4428771672D-01
 D 1 1.00
     Exponent=  1.6540000000D+00 Coefficients=  1.0000000000D+00
 D 1 1.00
     Exponent=  4.6900000000D-01 Coefficients=  1.0000000000D+00
 ****
 Ernie: Thresh=  0.10000D-02 Tol=  0.10000D-05 Strict=F.
  2208 basis functions,  3746 primitive gaussians,  2382 cartesian basis functions
   294 alpha electrons      294 beta electrons
       nuclear repulsion energy     17522.3885934235 Hartrees.
 IExCor=10402 DFT=T Ex=LC-B+HF Corr=LYP ExCW=0 ScaHFX=  1.000000
 ScaDFX=  1.000000  1.000000  1.000000  1.000000 ScalE2=  1.000000  1.000000
 IRadAn=      0 IRanWt=     -1 IRanGd=            0 ICorTp=0 IEmpDi=  4
  HFx wShort=  0.000000 wLong=  0.350000 cFull=  0.000000 cShort=  0.000000 cLong=  1.000000
  DFx wShort=  0.000000 wLong=  0.350000 cFull=  0.000000 cShort=  0.000000 cLong=  1.000000
 NAtoms=  114 NActive=  114 NUniq=  114 SFac= 1.00D+00 NAtFMM=   60 NAOKFM=T Big=T
 Integral buffers will be    131072 words long.
 Raffenetti 2 integral format.
 Two-electron integral symmetry is turned off.
 Leave Link  301 at Wed Apr 22 14:25:00 2026, MaxMem=  8589934592 cpu:         0.2
 (Enter /opt/g09/l302.exe)
 NPDir=0 NMtPBC=     1 NCelOv=     1 NCel=       1 NClECP=     1 NCelD=      1
         NCelK=      1 NCelE2=     1 NClLst=     1 CellRange=     0.0.
 One-electron integrals computed using PRISM.
 NBasis=  2208 RedAO= T EigKep=  1.27D-06  NBF=  2208
 NBsUse=  2208 1.00D-06 EigRej= -1.00D+00 NBFU=  2208
 Precomputing XC quadrature grid using
 IXCGrd= 4 IRadAn=           0 IRanWt=          -1 IRanGd=           0 AccXCQ= 0.00D+00.
 Generated NRdTot=       0 NPtTot=           0 NUsed=           0 NTot=          32
 NSgBfM=  1912  1912  1912  1912  1912 MxSgAt=   114 MxSgA2=   114.
 Leave Link  302 at Wed Apr 22 14:25:07 2026, MaxMem=  8589934592 cpu:        59.5
 (Enter /opt/g09/l303.exe)
 DipDrv:  MaxL=1.
 Leave Link  303 at Wed Apr 22 14:25:08 2026, MaxMem=  8589934592 cpu:         4.5
 (Enter /opt/g09/l401.exe)
 ExpMin= 4.78D-02 ExpMax= 4.06D+05 ExpMxC= 3.92D+03 IAcc=2 IRadAn=         4 AccDes= 0.00D+00
 Harris functional with IExCor=10402 and IRadAn=       4 diagonalized for initial guess.
 HarFok:  IExCor=10402 AccDes= 0.00D+00 IRadAn=         4 IDoV= 1 UseB2=F ITyADJ=14
 ICtDFT=  3500011 ScaDFX=  1.000000  1.000000  1.000000  1.000000
 FoFCou: FMM=F IPFlag=           0 FMFlag=      100000 FMFlg1=        2001
         NFxFlg=           0 DoJE=T BraDBF=F KetDBF=T FulRan=T
         wScrn=  0.000000 ICntrl=     500 IOpCl=  0 I1Cent=   200000004 NGrid=           0
         NMat0=    1 NMatS0=      1 NMatT0=    0 NMatD0=    1 NMtDS0=    0 NMtDT0=    0
 Symmetry not used in FoFCou.
 Harris En= -6780.59355521147    
 JPrj=0 DoOrth=F DoCkMO=F.
 Leave Link  401 at Wed Apr 22 14:25:26 2026, MaxMem=  8589934592 cpu:       142.0
 (Enter /opt/g09/l502.exe)
 Closed shell SCF:
 Using DIIS extrapolation, IDIIS=  1040.
 Two-electron integral symmetry not used.
 IVT=    17073898 IEndB=    17073898 NGot=  8589934592 MDV=  8578553641
 LenX=  8578553641 LenY=  8572877335
 Requested convergence on RMS density matrix=1.00D-08 within 128 cycles.
 Requested convergence on MAX density matrix=1.00D-06.
 Requested convergence on             energy=1.00D-06.
 No special actions if energy rises.
 Fock matrices will be formed incrementally for  20 cycles.

 Cycle   1  Pass 1  IDiag  1:
 FoFJK:  IHMeth= 1 ICntrl=       0 DoSepK=T KAlg= 0 I1Cent=   0 FoldK=F
 IRaf=         1 NMat=   1 IRICut=       1 DoRegI=T DoRafI=F ISym2E= 0.
 FoFCou: FMM=T IPFlag=           0 FMFlag=      100000 FMFlg1=        2001
         NFxFlg=           0 DoJE=T BraDBF=F KetDBF=F FulRan=T
         wScrn=  0.000000 ICntrl=     500 IOpCl=  0 I1Cent=           0 NGrid=           0
         NMat0=    1 NMatS0=      1 NMatT0=    0 NMatD0=    1 NMtDS0=    0 NMtDT0=    0
 Symmetry not used in FoFCou.
 FMM levels:  10  Number of levels for PrismC:   9
 E= -6883.89425968657    
 DIIS: error= 5.34D-02 at cycle   1 NSaved=   1.
 NSaved= 1 IEnMin= 1 EnMin= -6883.89425968657     IErMin= 1 ErrMin= 5.34D-02
 ErrMax= 5.34D-02  0.00D+00 EMaxC= 1.00D-01 BMatC= 2.27D+00 BMatP= 2.27D+00
 IDIUse=3 WtCom= 4.66D-01 WtEn= 5.34D-01
 Coeff-Com:  0.100D+01
 Coeff-En:   0.100D+01
 Coeff:      0.100D+01
 Gap=     0.151 Goal=   None    Shift=    0.000
 GapD=    0.151 DampG=1.000 DampE=0.250 DampFc=0.2500 IDamp=-1.
 Damping current iteration by 2.50D-01
 RMSDP=2.70D-03 MaxDP=2.57D-01              OVMax= 2.10D-01

 Cycle   2  Pass 1  IDiag  1:
 RMSU=  5.65D-04    CP:  9.47D-01
 E= -6884.34565545898     Delta-E=       -0.451395772408 Rises=F Damp=T
 DIIS: error= 2.07D-02 at cycle   2 NSaved=   2.
 NSaved= 2 IEnMin= 2 EnMin= -6884.34565545898     IErMin= 2 ErrMin= 2.07D-02
 ErrMax= 2.07D-02  0.00D+00 EMaxC= 1.00D-01 BMatC= 4.88D-01 BMatP= 2.27D+00
 IDIUse=3 WtCom= 7.93D-01 WtEn= 2.07D-01
 Coeff-Com: -0.593D+00 0.159D+01
 Coeff-En:   0.000D+00 0.100D+01
 Coeff:     -0.470D+00 0.147D+01
 Gap=     0.169 Goal=   None    Shift=    0.000
 RMSDP=2.31D-03 MaxDP=3.37D-01 DE=-4.51D-01 OVMax= 9.01D-02

 Cycle   3  Pass 1  IDiag  1:
 RMSU=  9.52D-04    CP:  7.22D-01  3.00D+00
 E= -6885.12003446213     Delta-E=       -0.774379003153 Rises=F Damp=F
 DIIS: error= 5.16D-03 at cycle   3 NSaved=   3.
 NSaved= 3 IEnMin= 3 EnMin= -6885.12003446213     IErMin= 3 ErrMin= 5.16D-03
 ErrMax= 5.16D-03  0.00D+00 EMaxC= 1.00D-01 BMatC= 5.21D-02 BMatP= 4.88D-01
 IDIUse=3 WtCom= 9.48D-01 WtEn= 5.16D-02
 Coeff-Com:  0.182D-01 0.184D+00 0.797D+00
 Coeff-En:   0.000D+00 0.000D+00 0.100D+01
 Coeff:      0.173D-01 0.175D+00 0.808D+00
 Gap=     0.149 Goal=   None    Shift=    0.000
 RMSDP=4.13D-04 MaxDP=5.57D-02 DE=-7.74D-01 OVMax= 2.04D-02

 Cycle   4  Pass 1  IDiag  1:
 RMSU=  2.97D-04    CP:  6.95D-01  3.00D+00  1.23D+00
 E= -6885.15862049521     Delta-E=       -0.038586033075 Rises=F Damp=F
 DIIS: error= 2.83D-03 at cycle   4 NSaved=   4.
 NSaved= 4 IEnMin= 4 EnMin= -6885.15862049521     IErMin= 4 ErrMin= 2.83D-03
 ErrMax= 2.83D-03  0.00D+00 EMaxC= 1.00D-01 BMatC= 8.80D-03 BMatP= 5.21D-02
 IDIUse=3 WtCom= 9.72D-01 WtEn= 2.83D-02
 Coeff-Com:  0.703D-01-0.748D-01 0.344D+00 0.660D+00
 Coeff-En:   0.000D+00 0.000D+00 0.000D+00 0.100D+01
 Coeff:      0.683D-01-0.727D-01 0.334D+00 0.670D+00
 Gap=     0.152 Goal=   None    Shift=    0.000
 RMSDP=7.96D-05 MaxDP=8.19D-03 DE=-3.86D-02 OVMax= 8.20D-03

 Cycle   5  Pass 1  IDiag  1:
 RMSU=  6.32D-05    CP:  6.89D-01  3.00D+00  1.25D+00  1.02D+00
 E= -6885.16441175217     Delta-E=       -0.005791256957 Rises=F Damp=F
 DIIS: error= 7.80D-04 at cycle   5 NSaved=   5.
 NSaved= 5 IEnMin= 5 EnMin= -6885.16441175217     IErMin= 5 ErrMin= 7.80D-04
 ErrMax= 7.80D-04  0.00D+00 EMaxC= 1.00D-01 BMatC= 6.75D-04 BMatP= 8.80D-03
 IDIUse=3 WtCom= 9.92D-01 WtEn= 7.80D-03
 Coeff-Com:  0.176D-01-0.301D-01 0.663D-01 0.263D+00 0.683D+00
 Coeff-En:   0.000D+00 0.000D+00 0.000D+00 0.000D+00 0.100D+01
 Coeff:      0.175D-01-0.298D-01 0.658D-01 0.261D+00 0.686D+00
 Gap=     0.152 Goal=   None    Shift=    0.000
 RMSDP=4.11D-05 MaxDP=3.92D-03 DE=-5.79D-03 OVMax= 3.63D-03

 Cycle   6  Pass 1  IDiag  1:
 RMSU=  2.85D-05    CP:  6.87D-01  3.00D+00  1.26D+00  1.10D+00  1.12D+00
 E= -6885.16495108343     Delta-E=       -0.000539331268 Rises=F Damp=F
 DIIS: error= 3.18D-04 at cycle   6 NSaved=   6.
 NSaved= 6 IEnMin= 6 EnMin= -6885.16495108343     IErMin= 6 ErrMin= 3.18D-04
 ErrMax= 3.18D-04  0.00D+00 EMaxC= 1.00D-01 BMatC= 1.19D-04 BMatP= 6.75D-04
 IDIUse=3 WtCom= 9.97D-01 WtEn= 3.18D-03
 Coeff-Com: -0.279D-02-0.698D-03-0.127D-01 0.341D-01 0.328D+00 0.654D+00
 Coeff-En:   0.000D+00 0.000D+00 0.000D+00 0.000D+00 0.000D+00 0.100D+01
 Coeff:     -0.278D-02-0.695D-03-0.127D-01 0.340D-01 0.327D+00 0.655D+00
 Gap=     0.152 Goal=   None    Shift=    0.000
 RMSDP=1.89D-05 MaxDP=2.41D-03 DE=-5.39D-04 OVMax= 2.10D-03

 Cycle   7  Pass 1  IDiag  1:
 RMSU=  1.04D-05    CP:  6.86D-01  3.00D+00  1.27D+00  1.13D+00  1.22D+00
                    CP:  1.03D+00
 E= -6885.16506599639     Delta-E=       -0.000114912953 Rises=F Damp=F
 DIIS: error= 2.16D-04 at cycle   7 NSaved=   7.
 NSaved= 7 IEnMin= 7 EnMin= -6885.16506599639     IErMin= 7 ErrMin= 2.16D-04
 ErrMax= 2.16D-04  0.00D+00 EMaxC= 1.00D-01 BMatC= 1.46D-05 BMatP= 1.19D-04
 IDIUse=3 WtCom= 9.98D-01 WtEn= 2.16D-03
 Coeff-Com: -0.237D-02 0.192D-02-0.142D-01-0.268D-01 0.135D-01 0.273D+00
 Coeff-Com:  0.755D+00
 Coeff-En:   0.000D+00 0.000D+00 0.000D+00 0.000D+00 0.000D+00 0.000D+00
 Coeff-En:   0.100D+01
 Coeff:     -0.237D-02 0.192D-02-0.142D-01-0.267D-01 0.134D-01 0.272D+00
 Coeff:      0.756D+00
 Gap=     0.152 Goal=   None    Shift=    0.000
 DSYEVD-2 returned Info=        4417 IAlg= 4 N=  2208 NDim=  2208 NE2=     3882642 trying  DSYEV.
 RMSDP=1.02D-05 MaxDP=1.08D-03 DE=-1.15D-04 OVMax= 1.57D-03

 Cycle   8  Pass 1  IDiag  1:
 RMSU=  3.37D-06    CP:  6.86D-01  3.00D+00  1.27D+00  1.15D+00  1.28D+00
                    CP:  1.16D+00  1.07D+00
 E= -6885.16508635410     Delta-E=       -0.000020357711 Rises=F Damp=F
 DIIS: error= 7.74D-05 at cycle   8 NSaved=   8.
 NSaved= 8 IEnMin= 8 EnMin= -6885.16508635410     IErMin= 8 ErrMin= 7.74D-05
 ErrMax= 7.74D-05  0.00D+00 EMaxC= 1.00D-01 BMatC= 1.52D-06 BMatP= 1.46D-05
 IDIUse=1 WtCom= 1.00D+00 WtEn= 0.00D+00
 Coeff-Com: -0.418D-03 0.559D-03-0.460D-02-0.148D-01-0.355D-01 0.269D-01
 Coeff-Com:  0.266D+00 0.762D+00
 Coeff:     -0.418D-03 0.559D-03-0.460D-02-0.148D-01-0.355D-01 0.269D-01
 Coeff:      0.266D+00 0.762D+00
 Gap=     0.153 Goal=   None    Shift=    0.000
 RMSDP=2.42D-06 MaxDP=1.63D-04 DE=-2.04D-05 OVMax= 5.64D-04

 Cycle   9  Pass 1  IDiag  1:
 RMSU=  1.69D-06    CP:  6.86D-01  3.00D+00  1.27D+00  1.16D+00  1.29D+00
                    CP:  1.18D+00  1.14D+00  1.12D+00
 E= -6885.16508964097     Delta-E=       -0.000003286874 Rises=F Damp=F
 DIIS: error= 3.03D-05 at cycle   9 NSaved=   9.
 NSaved= 9 IEnMin= 9 EnMin= -6885.16508964097     IErMin= 9 ErrMin= 3.03D-05
 ErrMax= 3.03D-05  0.00D+00 EMaxC= 1.00D-01 BMatC= 3.89D-07 BMatP= 1.52D-06
 IDIUse=1 WtCom= 1.00D+00 WtEn= 0.00D+00
 Coeff-Com:  0.327D-03-0.218D-03 0.518D-03-0.139D-02-0.210D-01-0.351D-01
 Coeff-Com: -0.140D-01 0.342D+00 0.729D+00
 Coeff:      0.327D-03-0.218D-03 0.518D-03-0.139D-02-0.210D-01-0.351D-01
 Coeff:     -0.140D-01 0.342D+00 0.729D+00
 Gap=     0.153 Goal=   None    Shift=    0.000
 RMSDP=1.21D-06 MaxDP=8.38D-05 DE=-3.29D-06 OVMax= 2.19D-04

 Cycle  10  Pass 1  IDiag  1:
 RMSU=  5.94D-07    CP:  6.86D-01  3.00D+00  1.27D+00  1.16D+00  1.30D+00
                    CP:  1.19D+00  1.17D+00  1.26D+00  1.20D+00
 E= -6885.16509047420     Delta-E=       -0.000000833228 Rises=F Damp=F
 DIIS: error= 1.56D-05 at cycle  10 NSaved=  10.
 NSaved=10 IEnMin=10 EnMin= -6885.16509047420     IErMin=10 ErrMin= 1.56D-05
 ErrMax= 1.56D-05  0.00D+00 EMaxC= 1.00D-01 BMatC= 5.40D-08 BMatP= 3.89D-07
 IDIUse=1 WtCom= 1.00D+00 WtEn= 0.00D+00
 Coeff-Com:  0.880D-04-0.313D-04 0.128D-02 0.410D-02 0.366D-02-0.149D-01
 Coeff-Com: -0.702D-01-0.105D+00 0.171D+00 0.101D+01
 Coeff:      0.880D-04-0.313D-04 0.128D-02 0.410D-02 0.366D-02-0.149D-01
 Coeff:     -0.702D-01-0.105D+00 0.171D+00 0.101D+01
 Gap=     0.153 Goal=   None    Shift=    0.000
 RMSDP=7.24D-07 MaxDP=7.65D-05 DE=-8.33D-07 OVMax= 1.64D-04

 Cycle  11  Pass 1  IDiag  1:
 RMSU=  3.45D-07    CP:  6.86D-01  3.00D+00  1.27D+00  1.16D+00  1.30D+00
                    CP:  1.20D+00  1.17D+00  1.34D+00  1.41D+00  1.24D+00
 E= -6885.16509067128     Delta-E=       -0.000000197080 Rises=F Damp=F
 DIIS: error= 4.00D-06 at cycle  11 NSaved=  11.
 NSaved=11 IEnMin=11 EnMin= -6885.16509067128     IErMin=11 ErrMin= 4.00D-06
 ErrMax= 4.00D-06  0.00D+00 EMaxC= 1.00D-01 BMatC= 5.45D-09 BMatP= 5.40D-08
 IDIUse=1 WtCom= 1.00D+00 WtEn= 0.00D+00
 Coeff-Com: -0.539D-04 0.661D-04 0.115D-03 0.724D-03 0.242D-02 0.695D-03
 Coeff-Com: -0.620D-02-0.427D-01-0.527D-01 0.126D+00 0.971D+00
 Coeff:     -0.539D-04 0.661D-04 0.115D-03 0.724D-03 0.242D-02 0.695D-03
 Coeff:     -0.620D-02-0.427D-01-0.527D-01 0.126D+00 0.971D+00
 Gap=     0.153 Goal=   None    Shift=    0.000
 RMSDP=3.13D-07 MaxDP=2.30D-05 DE=-1.97D-07 OVMax= 4.60D-05

 Cycle  12  Pass 1  IDiag  1:
 RMSU=  2.71D-07    CP:  6.86D-01  3.00D+00  1.27D+00  1.16D+00  1.30D+00
                    CP:  1.20D+00  1.17D+00  1.34D+00  1.44D+00  1.39D+00
                    CP:  1.14D+00
 E= -6885.16509069288     Delta-E=       -0.000000021606 Rises=F Damp=F
 DIIS: error= 2.07D-06 at cycle  12 NSaved=  12.
 NSaved=12 IEnMin=12 EnMin= -6885.16509069288     IErMin=12 ErrMin= 2.07D-06
 ErrMax= 2.07D-06  0.00D+00 EMaxC= 1.00D-01 BMatC= 1.53D-09 BMatP= 5.45D-09
 IDIUse=1 WtCom= 1.00D+00 WtEn= 0.00D+00
 Coeff-Com: -0.311D-04 0.188D-04-0.228D-03-0.651D-03 0.117D-03 0.315D-02
 Coeff-Com:  0.127D-01 0.784D-02-0.600D-01-0.179D+00 0.348D+00 0.868D+00
 Coeff:     -0.311D-04 0.188D-04-0.228D-03-0.651D-03 0.117D-03 0.315D-02
 Coeff:      0.127D-01 0.784D-02-0.600D-01-0.179D+00 0.348D+00 0.868D+00
 Gap=     0.153 Goal=   None    Shift=    0.000
 RMSDP=3.35D-07 MaxDP=2.00D-05 DE=-2.16D-08 OVMax= 2.42D-05

 Cycle  13  Pass 1  IDiag  1:
 RMSU=  2.64D-07    CP:  6.86D-01  3.00D+00  1.27D+00  1.16D+00  1.30D+00
                    CP:  1.20D+00  1.17D+00  1.35D+00  1.44D+00  1.40D+00
                    CP:  1.66D+00  7.57D-01
 E= -6885.16509069911     Delta-E=       -0.000000006221 Rises=F Damp=F
 DIIS: error= 8.37D-07 at cycle  13 NSaved=  13.
 NSaved=13 IEnMin=13 EnMin= -6885.16509069911     IErMin=13 ErrMin= 8.37D-07
 ErrMax= 8.37D-07  0.00D+00 EMaxC= 1.00D-01 BMatC= 2.39D-10 BMatP= 1.53D-09
 IDIUse=1 WtCom= 1.00D+00 WtEn= 0.00D+00
 Coeff-Com:  0.196D-04-0.285D-04-0.379D-04-0.233D-03-0.432D-03 0.126D-05
 Coeff-Com:  0.220D-02 0.103D-01 0.686D-02-0.364D-01-0.162D+00 0.725D-01
 Coeff-Com:  0.111D+01
 Coeff:      0.196D-04-0.285D-04-0.379D-04-0.233D-03-0.432D-03 0.126D-05
 Coeff:      0.220D-02 0.103D-01 0.686D-02-0.364D-01-0.162D+00 0.725D-01
 Coeff:      0.111D+01
 Gap=     0.153 Goal=   None    Shift=    0.000
 RMSDP=3.79D-07 MaxDP=2.56D-05 DE=-6.22D-09 OVMax= 1.02D-05

 Cycle  14  Pass 1  IDiag  1:
 RMSU=  2.54D-07    CP:  6.86D-01  3.00D+00  1.27D+00  1.16D+00  1.30D+00
                    CP:  1.20D+00  1.17D+00  1.35D+00  1.42D+00  1.40D+00
                    CP:  1.58D+00  1.77D+00  9.79D-01
 E= -6885.16509069784     Delta-E=        0.000000001262 Rises=F Damp=F
 DIIS: error= 3.78D-07 at cycle  14 NSaved=  14.
 NSaved=14 IEnMin=13 EnMin= -6885.16509069911     IErMin=14 ErrMin= 3.78D-07
 ErrMax= 3.78D-07  0.00D+00 EMaxC= 1.00D-01 BMatC= 3.11D-11 BMatP= 2.39D-10
 IDIUse=1 WtCom= 1.00D+00 WtEn= 0.00D+00
 Coeff-Com:  0.579D-05-0.577D-05 0.174D-04 0.232D-04-0.411D-04-0.406D-03
 Coeff-Com: -0.840D-03 0.626D-03 0.796D-02 0.104D-01-0.701D-01-0.703D-01
 Coeff-Com:  0.204D+00 0.919D+00
 Coeff:      0.579D-05-0.577D-05 0.174D-04 0.232D-04-0.411D-04-0.406D-03
 Coeff:     -0.840D-03 0.626D-03 0.796D-02 0.104D-01-0.701D-01-0.703D-01
 Coeff:      0.204D+00 0.919D+00
 Gap=     0.153 Goal=   None    Shift=    0.000
 RMSDP=5.26D-07 MaxDP=2.81D-05 DE= 1.26D-09 OVMax= 3.04D-06

 Cycle  15  Pass 1  IDiag  1:
 RMSU=  2.36D-07    CP:  6.86D-01  3.00D+00  1.27D+00  1.16D+00  1.30D+00
                    CP:  1.20D+00  1.18D+00  1.35D+00  1.44D+00  1.38D+00
                    CP:  2.10D+00  1.17D+00  2.41D+00  8.42D-01
 E= -6885.16509069855     Delta-E=       -0.000000000702 Rises=F Damp=F
 DIIS: error= 4.87D-07 at cycle  15 NSaved=  15.
 NSaved=15 IEnMin=13 EnMin= -6885.16509069911     IErMin=14 ErrMin= 3.78D-07
 ErrMax= 4.87D-07  0.00D+00 EMaxC= 1.00D-01 BMatC= 2.26D-11 BMatP= 3.11D-11
 IDIUse=1 WtCom= 1.00D+00 WtEn= 0.00D+00
 Coeff-Com: -0.705D-06 0.268D-05 0.170D-04 0.542D-04 0.643D-04-0.262D-03
 Coeff-Com: -0.855D-03-0.154D-02 0.383D-02 0.128D-01-0.139D-01-0.561D-01
 Coeff-Com: -0.807D-01 0.595D+00 0.541D+00
 Coeff:     -0.705D-06 0.268D-05 0.170D-04 0.542D-04 0.643D-04-0.262D-03
 Coeff:     -0.855D-03-0.154D-02 0.383D-02 0.128D-01-0.139D-01-0.561D-01
 Coeff:     -0.807D-01 0.595D+00 0.541D+00
 Gap=     0.153 Goal=   None    Shift=    0.000
 RMSDP=3.56D-07 MaxDP=2.08D-05 DE=-7.02D-10 OVMax= 9.20D-07

 Cycle  16  Pass 1  IDiag  1:
 RMSU=  1.30D-07    CP:  6.86D-01  3.00D+00  1.27D+00  1.16D+00  1.30D+00
                    CP:  1.20D+00  1.17D+00  1.35D+00  1.44D+00  1.41D+00
                    CP:  2.01D+00  1.87D+00  2.32D+00  1.87D+00  1.06D+00
 E= -6885.16509069648     Delta-E=        0.000000002070 Rises=F Damp=F
 DIIS: error= 1.24D-07 at cycle  16 NSaved=  16.
 NSaved=16 IEnMin=13 EnMin= -6885.16509069911     IErMin=16 ErrMin= 1.24D-07
 ErrMax= 1.24D-07  0.00D+00 EMaxC= 1.00D-01 BMatC= 9.20D-12 BMatP= 2.26D-11
 IDIUse=1 WtCom= 1.00D+00 WtEn= 0.00D+00
 Coeff-Com: -0.847D-06 0.237D-05 0.119D-04 0.389D-04 0.523D-04-0.182D-03
 Coeff-Com: -0.595D-03-0.120D-02 0.255D-02 0.915D-02-0.725D-02-0.390D-01
 Coeff-Com: -0.710D-01 0.414D+00 0.394D+00 0.299D+00
 Coeff:     -0.847D-06 0.237D-05 0.119D-04 0.389D-04 0.523D-04-0.182D-03
 Coeff:     -0.595D-03-0.120D-02 0.255D-02 0.915D-02-0.725D-02-0.390D-01
 Coeff:     -0.710D-01 0.414D+00 0.394D+00 0.299D+00
 Gap=     0.153 Goal=   None    Shift=    0.000
 RMSDP=1.45D-07 MaxDP=1.14D-05 DE= 2.07D-09 OVMax= 1.48D-07

 Cycle  17  Pass 1  IDiag  1:
 RMSU=  6.76D-08    CP:  6.86D-01  3.00D+00  1.27D+00  1.16D+00  1.30D+00
                    CP:  1.20D+00  1.17D+00  1.35D+00  1.45D+00  1.42D+00
                    CP:  2.09D+00  1.94D+00  2.56D+00  2.09D+00  1.40D+00
                    CP:  1.24D+00
 E= -6885.16509069636     Delta-E=        0.000000000120 Rises=F Damp=F
 DIIS: error= 2.07D-07 at cycle  17 NSaved=  17.
 NSaved=17 IEnMin=13 EnMin= -6885.16509069911     IErMin=16 ErrMin= 1.24D-07
 ErrMax= 2.07D-07  0.00D+00 EMaxC= 1.00D-01 BMatC= 1.29D-11 BMatP= 9.20D-12
 IDIUse=1 WtCom= 1.00D+00 WtEn= 0.00D+00
 Coeff-Com: -0.116D-05 0.279D-05 0.120D-04 0.403D-04 0.574D-04-0.178D-03
 Coeff-Com: -0.597D-03-0.129D-02 0.242D-02 0.933D-02-0.506D-02-0.388D-01
 Coeff-Com: -0.834D-01 0.406D+00 0.422D+00 0.581D+00-0.291D+00
 Coeff:     -0.116D-05 0.279D-05 0.120D-04 0.403D-04 0.574D-04-0.178D-03
 Coeff:     -0.597D-03-0.129D-02 0.242D-02 0.933D-02-0.506D-02-0.388D-01
 Coeff:     -0.834D-01 0.406D+00 0.422D+00 0.581D+00-0.291D+00
 Gap=     0.153 Goal=   None    Shift=    0.000
 RMSDP=8.48D-08 MaxDP=5.02D-06 DE= 1.20D-10 OVMax= 5.56D-08

 Cycle  18  Pass 1  IDiag  1:
 RMSU=  5.81D-08    CP:  6.86D-01  3.00D+00  1.27D+00  1.16D+00  1.30D+00
                    CP:  1.20D+00  1.17D+00  1.35D+00  1.45D+00  1.41D+00
                    CP:  2.06D+00  1.91D+00  2.52D+00  1.96D+00  1.32D+00
                    CP:  9.68D-01  6.18D-01
 E= -6885.16509069597     Delta-E=        0.000000000386 Rises=F Damp=F
 DIIS: error= 1.80D-07 at cycle  18 NSaved=  18.
 NSaved=18 IEnMin=13 EnMin= -6885.16509069911     IErMin=16 ErrMin= 1.24D-07
 ErrMax= 1.80D-07  0.00D+00 EMaxC= 1.00D-01 BMatC= 1.07D-11 BMatP= 9.20D-12
 IDIUse=1 WtCom= 1.00D+00 WtEn= 0.00D+00
 Coeff-Com: -0.108D-05 0.261D-05 0.112D-04 0.376D-04 0.542D-04-0.167D-03
 Coeff-Com: -0.557D-03-0.121D-02 0.225D-02 0.871D-02-0.460D-02-0.361D-01
 Coeff-Com: -0.788D-01 0.381D+00 0.387D+00 0.552D+00-0.419D+00 0.209D+00
 Coeff:     -0.108D-05 0.261D-05 0.112D-04 0.376D-04 0.542D-04-0.167D-03
 Coeff:     -0.557D-03-0.121D-02 0.225D-02 0.871D-02-0.460D-02-0.361D-01
 Coeff:     -0.788D-01 0.381D+00 0.387D+00 0.552D+00-0.419D+00 0.209D+00
 Gap=     0.153 Goal=   None    Shift=    0.000
 RMSDP=4.83D-08 MaxDP=2.19D-06 DE= 3.86D-10 OVMax= 2.95D-08

 Cycle  19  Pass 1  IDiag  1:
 RMSU=  3.88D-08    CP:  6.86D-01  3.00D+00  1.27D+00  1.16D+00  1.30D+00
                    CP:  1.20D+00  1.17D+00  1.35D+00  1.45D+00  1.41D+00
                    CP:  2.06D+00  1.95D+00  2.55D+00  2.00D+00  1.35D+00
                    CP:  9.87D-01  4.29D-01  1.33D+00
 E= -6885.16509069555     Delta-E=        0.000000000422 Rises=F Damp=F
 DIIS: error= 2.39D-07 at cycle  19 NSaved=  19.
 NSaved=19 IEnMin=13 EnMin= -6885.16509069911     IErMin=16 ErrMin= 1.24D-07
 ErrMax= 2.39D-07  0.00D+00 EMaxC= 1.00D-01 BMatC= 1.42D-11 BMatP= 9.20D-12
 IDIUse=1 WtCom= 1.00D+00 WtEn= 0.00D+00
 Coeff-Com: -0.117D-05 0.269D-05 0.109D-04 0.370D-04 0.549D-04-0.160D-03
 Coeff-Com: -0.540D-03-0.122D-02 0.212D-02 0.850D-02-0.352D-02-0.349D-01
 Coeff-Com: -0.818D-01 0.369D+00 0.376D+00 0.668D+00-0.606D+00 0.566D+00
 Coeff-Com: -0.261D+00
 Coeff:     -0.117D-05 0.269D-05 0.109D-04 0.370D-04 0.549D-04-0.160D-03
 Coeff:     -0.540D-03-0.122D-02 0.212D-02 0.850D-02-0.352D-02-0.349D-01
 Coeff:     -0.818D-01 0.369D+00 0.376D+00 0.668D+00-0.606D+00 0.566D+00
 Coeff:     -0.261D+00
 Gap=     0.153 Goal=   None    Shift=    0.000
 DSYEVD-2 returned Info=     2443153 IAlg= 4 N=  2208 NDim=  2208 NE2=     3882642 trying  DSYEV.
 RMSDP=6.44D-08 MaxDP=5.48D-06 DE= 4.22D-10 OVMax= 4.49D-08

 Cycle  20  Pass 1  IDiag  1:
 RMSU=  4.91D-08    CP:  6.86D-01  3.00D+00  1.27D+00  1.16D+00  1.30D+00
                    CP:  1.20D+00  1.17D+00  1.35D+00  1.44D+00  1.41D+00
                    CP:  2.02D+00  1.94D+00  2.51D+00  1.96D+00  1.29D+00
                    CP:  8.87D-01  2.37D-01  1.12D+00  4.64D-01
 E= -6885.16509069556     Delta-E=       -0.000000000011 Rises=F Damp=F
 DIIS: error= 1.79D-07 at cycle  20 NSaved=  20.
 NSaved=20 IEnMin=13 EnMin= -6885.16509069911     IErMin=16 ErrMin= 1.24D-07
 ErrMax= 1.79D-07  0.00D+00 EMaxC= 1.00D-01 BMatC= 1.12D-11 BMatP= 9.20D-12
 IDIUse=1 WtCom= 1.00D+00 WtEn= 0.00D+00
 Coeff-Com: -0.114D-05 0.264D-05 0.107D-04 0.364D-04 0.540D-04-0.159D-03
 Coeff-Com: -0.534D-03-0.120D-02 0.210D-02 0.839D-02-0.360D-02-0.345D-01
 Coeff-Com: -0.803D-01 0.365D+00 0.369D+00 0.644D+00-0.601D+00 0.558D+00
 Coeff-Com: -0.297D+00 0.711D-01
 Coeff:     -0.114D-05 0.264D-05 0.107D-04 0.364D-04 0.540D-04-0.159D-03
 Coeff:     -0.534D-03-0.120D-02 0.210D-02 0.839D-02-0.360D-02-0.345D-01
 Coeff:     -0.803D-01 0.365D+00 0.369D+00 0.644D+00-0.601D+00 0.558D+00
 Coeff:     -0.297D+00 0.711D-01
 Gap=     0.153 Goal=   None    Shift=    0.000
 RMSDP=1.47D-08 MaxDP=7.98D-07 DE=-1.09D-11 OVMax= 7.69D-09

 Cycle  21  Pass 1  IDiag  1:
 Restarting incremental Fock formation.
 E= -6885.16509068657     Delta-E=        0.000000008993 Rises=F Damp=F
 DIIS: error= 3.48D-06 at cycle  21 NSaved=  20.
 NSaved=20 IEnMin=12 EnMin= -6885.16509069911     IErMin=15 ErrMin= 1.24D-07
 ErrMax= 3.48D-06  0.00D+00 EMaxC= 1.00D-01 BMatC= 1.47D-09 BMatP= 9.20D-12
 IDIUse=1 WtCom= 1.00D+00 WtEn= 0.00D+00
 Coeff-Com:  0.121D-05 0.131D-04 0.389D-04 0.422D-04-0.196D-03-0.601D-03
 Coeff-Com: -0.101D-02 0.269D-02 0.868D-02-0.907D-02-0.364D-01-0.580D-01
 Coeff-Com:  0.365D+00 0.344D+00 0.622D+00-0.581D+00 0.549D+00-0.293D+00
 Coeff-Com:  0.742D-01 0.124D-01
 Coeff:      0.121D-05 0.131D-04 0.389D-04 0.422D-04-0.196D-03-0.601D-03
 Coeff:     -0.101D-02 0.269D-02 0.868D-02-0.907D-02-0.364D-01-0.580D-01
 Coeff:      0.365D+00 0.344D+00 0.622D+00-0.581D+00 0.549D+00-0.293D+00
 Coeff:      0.742D-01 0.124D-01
 Gap=     0.153 Goal=   None    Shift=    0.000
 RMSDP=5.59D-08 MaxDP=3.43D-06 DE= 8.99D-09 OVMax= 3.88D-08

 Cycle  22  Pass 1  IDiag  1:
 RMSU=  5.59D-08    CP:  1.00D+00
 E= -6885.16509068844     Delta-E=       -0.000000001877 Rises=F Damp=F
 DIIS: error= 3.43D-06 at cycle  22 NSaved=  20.
 NSaved=20 IEnMin=11 EnMin= -6885.16509069911     IErMin=14 ErrMin= 1.24D-07
 ErrMax= 3.43D-06  0.00D+00 EMaxC= 1.00D-01 BMatC= 1.43D-09 BMatP= 9.20D-12
 IDIUse=1 WtCom= 1.00D+00 WtEn= 0.00D+00
 Coeff-Com:  0.777D-05 0.281D-04 0.469D-04-0.125D-03-0.377D-03-0.788D-03
 Coeff-Com:  0.190D-02 0.585D-02-0.719D-02-0.276D-01-0.472D-01 0.327D+00
 Coeff-Com:  0.316D+00 0.650D+00-0.592D+00 0.580D+00-0.307D+00 0.897D-01
 Coeff-Com:  0.240D-01-0.116D-01
 Coeff:      0.777D-05 0.281D-04 0.469D-04-0.125D-03-0.377D-03-0.788D-03
 Coeff:      0.190D-02 0.585D-02-0.719D-02-0.276D-01-0.472D-01 0.327D+00
 Coeff:      0.316D+00 0.650D+00-0.592D+00 0.580D+00-0.307D+00 0.897D-01
 Coeff:      0.240D-01-0.116D-01
 Gap=     0.153 Goal=   None    Shift=    0.000
 RMSDP=1.72D-08 MaxDP=1.36D-06 DE=-1.88D-09 OVMax= 2.92D-08

 Cycle  23  Pass 1  IDiag  1:
 RMSU=  1.64D-08    CP:  1.00D+00  9.04D-01
 E= -6885.16509068854     Delta-E=       -0.000000000095 Rises=F Damp=F
 DIIS: error= 3.48D-06 at cycle  23 NSaved=  20.
 NSaved=20 IEnMin=10 EnMin= -6885.16509069911     IErMin=13 ErrMin= 1.24D-07
 ErrMax= 3.48D-06  0.00D+00 EMaxC= 1.00D-01 BMatC= 1.44D-09 BMatP= 9.20D-12
 IDIUse=1 WtCom= 1.00D+00 WtEn= 0.00D+00
 Coeff-Com: -0.124D-05 0.276D-06-0.709D-04-0.516D-05 0.113D-03 0.151D-02
 Coeff-Com:  0.113D-02-0.108D-01-0.169D-01-0.116D-01 0.272D+00 0.262D+00
 Coeff-Com:  0.685D+00-0.581D+00 0.588D+00-0.303D+00 0.102D+00-0.215D-01
 Coeff-Com: -0.354D+00 0.388D+00
 Coeff:     -0.124D-05 0.276D-06-0.709D-04-0.516D-05 0.113D-03 0.151D-02
 Coeff:      0.113D-02-0.108D-01-0.169D-01-0.116D-01 0.272D+00 0.262D+00
 Coeff:      0.685D+00-0.581D+00 0.588D+00-0.303D+00 0.102D+00-0.215D-01
 Coeff:     -0.354D+00 0.388D+00
 Gap=     0.153 Goal=   None    Shift=    0.000
 RMSDP=5.27D-08 MaxDP=3.03D-06 DE=-9.46D-11 OVMax= 3.99D-08

 Cycle  24  Pass 1  IDiag  1:
 RMSU=  5.08D-08    CP:  1.00D+00  1.00D+00  1.79D+00
 E= -6885.16509068784     Delta-E=        0.000000000698 Rises=F Damp=F
 DIIS: error= 3.50D-06 at cycle  24 NSaved=  20.
 NSaved=20 IEnMin= 9 EnMin= -6885.16509069911     IErMin=12 ErrMin= 1.24D-07
 ErrMax= 3.50D-06  0.00D+00 EMaxC= 1.00D-01 BMatC= 1.45D-09 BMatP= 9.20D-12
 IDIUse=1 WtCom= 1.00D+00 WtEn= 0.00D+00
 Coeff-Com:  0.223D-05-0.737D-04-0.248D-04 0.966D-04 0.160D-02 0.142D-02
 Coeff-Com: -0.114D-01-0.178D-01-0.105D-01 0.273D+00 0.261D+00 0.676D+00
 Coeff-Com: -0.566D+00 0.577D+00-0.302D+00 0.106D+00-0.349D-01-0.403D+00
 Coeff-Com:  0.567D+00-0.116D+00
 Coeff:      0.223D-05-0.737D-04-0.248D-04 0.966D-04 0.160D-02 0.142D-02
 Coeff:     -0.114D-01-0.178D-01-0.105D-01 0.273D+00 0.261D+00 0.676D+00
 Coeff:     -0.566D+00 0.577D+00-0.302D+00 0.106D+00-0.349D-01-0.403D+00
 Coeff:      0.567D+00-0.116D+00
 Gap=     0.153 Goal=   None    Shift=    0.000
 RMSDP=2.73D-08 MaxDP=1.69D-06 DE= 6.98D-10 OVMax= 1.94D-08

 Cycle  25  Pass 1  IDiag  1:
 RMSU=  2.45D-08    CP:  1.00D+00  1.01D+00  1.35D+00  8.14D-01
 E= -6885.16509068817     Delta-E=       -0.000000000327 Rises=F Damp=F
 DIIS: error= 3.47D-06 at cycle  25 NSaved=  20.
 NSaved=20 IEnMin= 8 EnMin= -6885.16509069911     IErMin=11 ErrMin= 1.24D-07
 ErrMax= 3.47D-06  0.00D+00 EMaxC= 1.00D-01 BMatC= 1.45D-09 BMatP= 9.20D-12
 IDIUse=1 WtCom= 1.00D+00 WtEn= 0.00D+00
 Coeff-Com: -0.773D-04-0.275D-04 0.106D-03 0.163D-02 0.149D-02-0.113D-01
 Coeff-Com: -0.181D-01-0.118D-01 0.273D+00 0.262D+00 0.677D+00-0.567D+00
 Coeff-Com:  0.577D+00-0.302D+00 0.106D+00-0.358D-01-0.427D+00 0.568D+00
 Coeff-Com: -0.151D+00 0.573D-01
 Coeff:     -0.773D-04-0.275D-04 0.106D-03 0.163D-02 0.149D-02-0.113D-01
 Coeff:     -0.181D-01-0.118D-01 0.273D+00 0.262D+00 0.677D+00-0.567D+00
 Coeff:      0.577D+00-0.302D+00 0.106D+00-0.358D-01-0.427D+00 0.568D+00
 Coeff:     -0.151D+00 0.573D-01
 Gap=     0.153 Goal=   None    Shift=    0.000
 RMSDP=1.14D-08 MaxDP=7.41D-07 DE=-3.27D-10 OVMax= 8.50D-09

 Cycle  26  Pass 1  IDiag  1:
 RMSU=  1.07D-08    CP:  1.00D+00  1.02D+00  1.35D+00  7.98D-01  1.15D+00
 E= -6885.16509068823     Delta-E=       -0.000000000062 Rises=F Damp=F
 DIIS: error= 3.48D-06 at cycle  26 NSaved=  20.
 NSaved=20 IEnMin= 7 EnMin= -6885.16509069911     IErMin=10 ErrMin= 1.24D-07
 ErrMax= 3.48D-06  0.00D+00 EMaxC= 1.00D-01 BMatC= 1.45D-09 BMatP= 9.20D-12
 IDIUse=1 WtCom= 1.00D+00 WtEn= 0.00D+00
 Coeff-Com:  0.127D-03 0.610D-04 0.111D-02 0.920D-03-0.827D-02-0.153D-01
 Coeff-Com: -0.203D-01 0.222D+00 0.237D+00 0.738D+00-0.598D+00 0.627D+00
 Coeff-Com: -0.323D+00 0.126D+00-0.354D-01-0.445D+00 0.589D+00-0.172D+00
 Coeff-Com:  0.154D+00-0.793D-01
 Coeff:      0.127D-03 0.610D-04 0.111D-02 0.920D-03-0.827D-02-0.153D-01
 Coeff:     -0.203D-01 0.222D+00 0.237D+00 0.738D+00-0.598D+00 0.627D+00
 Coeff:     -0.323D+00 0.126D+00-0.354D-01-0.445D+00 0.589D+00-0.172D+00
 Coeff:      0.154D+00-0.793D-01
 Gap=     0.153 Goal=   None    Shift=    0.000
 RMSDP=4.38D-08 MaxDP=3.71D-06 DE=-6.18D-11 OVMax= 2.13D-07

 Cycle  27  Pass 1  IDiag  1:
 RMSU=  1.81D-08    CP:  1.00D+00  7.20D-01  3.00D+00  7.87D-01  1.01D+00
                    CP:  1.04D+00
 E= -6885.16509068818     Delta-E=        0.000000000044 Rises=F Damp=F
 DIIS: error= 3.65D-06 at cycle  27 NSaved=  20.
 NSaved=20 IEnMin= 6 EnMin= -6885.16509069911     IErMin= 9 ErrMin= 1.24D-07
 ErrMax= 3.65D-06  0.00D+00 EMaxC= 1.00D-01 BMatC= 1.48D-09 BMatP= 9.20D-12
 IDIUse=1 WtCom= 1.00D+00 WtEn= 0.00D+00
 Coeff-Com: -0.828D-04 0.133D-02 0.166D-02-0.109D-01-0.168D-01-0.673D-02
 Coeff-Com:  0.238D+00 0.222D+00 0.701D+00-0.549D+00 0.580D+00-0.308D+00
 Coeff-Com:  0.136D+00-0.928D-01 0.479D+00-0.307D+00-0.271D+00 0.285D+00
 Coeff-Com: -0.537D+00 0.457D+00
 Coeff:     -0.828D-04 0.133D-02 0.166D-02-0.109D-01-0.168D-01-0.673D-02
 Coeff:      0.238D+00 0.222D+00 0.701D+00-0.549D+00 0.580D+00-0.308D+00
 Coeff:      0.136D+00-0.928D-01 0.479D+00-0.307D+00-0.271D+00 0.285D+00
 Coeff:     -0.537D+00 0.457D+00
 Gap=     0.153 Goal=   None    Shift=    0.000
 RMSDP=7.54D-08 MaxDP=5.90D-06 DE= 4.37D-11 OVMax= 7.64D-08

 Cycle  28  Pass 1  IDiag  1:
 RMSU=  7.15D-08    CP:  1.00D+00  1.06D+00  3.00D+00  9.92D-01  1.03D+00
                    CP:  2.23D-01  1.34D+00
 E= -6885.16509068743     Delta-E=        0.000000000753 Rises=F Damp=F
 DIIS: error= 3.60D-06 at cycle  28 NSaved=  20.
 NSaved=20 IEnMin= 5 EnMin= -6885.16509069911     IErMin= 8 ErrMin= 1.24D-07
 ErrMax= 3.60D-06  0.00D+00 EMaxC= 1.00D-01 BMatC= 1.48D-09 BMatP= 9.20D-12
 IDIUse=1 WtCom= 1.00D+00 WtEn= 0.00D+00
 Coeff-Com:  0.134D-02 0.145D-02-0.107D-01-0.166D-01-0.745D-02 0.234D+00
 Coeff-Com:  0.227D+00 0.704D+00-0.555D+00 0.583D+00-0.303D+00 0.131D+00
 Coeff-Com: -0.137D+00 0.513D+00-0.311D+00-0.263D+00 0.424D+00-0.665D+00
 Coeff-Com:  0.596D+00-0.147D+00
 Coeff:      0.134D-02 0.145D-02-0.107D-01-0.166D-01-0.745D-02 0.234D+00
 Coeff:      0.227D+00 0.704D+00-0.555D+00 0.583D+00-0.303D+00 0.131D+00
 Coeff:     -0.137D+00 0.513D+00-0.311D+00-0.263D+00 0.424D+00-0.665D+00
 Coeff:      0.596D+00-0.147D+00
 Gap=     0.153 Goal=   None    Shift=    0.000
 RMSDP=3.67D-08 MaxDP=2.64D-06 DE= 7.53D-10 OVMax= 4.63D-08

 Cycle  29  Pass 1  IDiag  1:
 RMSU=  3.21D-08    CP:  1.00D+00  1.01D+00  3.00D+00  9.57D-01  1.01D+00
                    CP:  4.34D-02  9.78D-01  7.75D-01
 E= -6885.16509068752     Delta-E=       -0.000000000091 Rises=F Damp=F
 DIIS: error= 3.54D-06 at cycle  29 NSaved=  20.
 NSaved=20 IEnMin= 4 EnMin= -6885.16509069911     IErMin= 7 ErrMin= 1.24D-07
 ErrMax= 3.54D-06  0.00D+00 EMaxC= 1.00D-01 BMatC= 1.47D-09 BMatP= 9.20D-12
 IDIUse=1 WtCom= 1.00D+00 WtEn= 0.00D+00
 Coeff-Com: -0.117D-03-0.289D-02-0.573D-02-0.167D-01 0.163D+00 0.187D+00
 Coeff-Com:  0.781D+00-0.593D+00 0.656D+00-0.337D+00 0.158D+00-0.147D+00
 Coeff-Com:  0.680D+00-0.489D+00-0.279D+00 0.445D+00-0.740D+00 0.674D+00
 Coeff-Com: -0.206D+00 0.741D-01
 Coeff:     -0.117D-03-0.289D-02-0.573D-02-0.167D-01 0.163D+00 0.187D+00
 Coeff:      0.781D+00-0.593D+00 0.656D+00-0.337D+00 0.158D+00-0.147D+00
 Coeff:      0.680D+00-0.489D+00-0.279D+00 0.445D+00-0.740D+00 0.674D+00
 Coeff:     -0.206D+00 0.741D-01
 Gap=     0.153 Goal=   None    Shift=    0.000
 RMSDP=5.20D-08 MaxDP=3.78D-06 DE=-9.09D-11 OVMax= 1.87D-07

 Cycle  30  Pass 1  IDiag  1:
 RMSU=  3.76D-08    CP:  1.00D+00  7.26D-01  3.00D+00  9.81D-01  9.28D-01
                    CP:  1.59D-01  2.73D+00  8.08D-01  1.16D+00
 E= -6885.16509068671     Delta-E=        0.000000000808 Rises=F Damp=F
 DIIS: error= 3.75D-06 at cycle  30 NSaved=  20.
 NSaved=20 IEnMin= 3 EnMin= -6885.16509069911     IErMin= 6 ErrMin= 1.24D-07
 ErrMax= 3.75D-06  0.00D+00 EMaxC= 1.00D-01 BMatC= 1.51D-09 BMatP= 9.20D-12
 IDIUse=1 WtCom= 1.00D+00 WtEn= 0.00D+00
 Coeff-Com: -0.307D-02-0.598D-02-0.141D-01 0.165D+00 0.191D+00 0.771D+00
 Coeff-Com: -0.585D+00 0.642D+00-0.331D+00 0.158D+00-0.146D+00 0.857D+00
 Coeff-Com: -0.674D+00-0.281D+00 0.456D+00-0.875D+00 0.819D+00-0.239D+00
 Coeff-Com:  0.193D+00-0.992D-01
 Coeff:     -0.307D-02-0.598D-02-0.141D-01 0.165D+00 0.191D+00 0.771D+00
 Coeff:     -0.585D+00 0.642D+00-0.331D+00 0.158D+00-0.146D+00 0.857D+00
 Coeff:     -0.674D+00-0.281D+00 0.456D+00-0.875D+00 0.819D+00-0.239D+00
 Coeff:      0.193D+00-0.992D-01
 Gap=     0.153 Goal=   None    Shift=    0.000
 RMSDP=2.25D-08 MaxDP=1.73D-06 DE= 8.08D-10 OVMax= 3.21D-08

 Cycle  31  Pass 1  IDiag  1:
 RMSU=  1.90D-08    CP:  1.00D+00  7.20D-01  3.00D+00  9.25D-01  9.38D-01
                    CP:  8.45D-02  2.64D+00  7.20D-01  1.09D+00  7.56D-01
 E= -6885.16509068698     Delta-E=       -0.000000000262 Rises=F Damp=F
 DIIS: error= 3.69D-06 at cycle  31 NSaved=  20.
 NSaved=20 IEnMin= 2 EnMin= -6885.16509069911     IErMin= 5 ErrMin= 1.24D-07
 ErrMax= 3.69D-06  0.00D+00 EMaxC= 1.00D-01 BMatC= 1.50D-09 BMatP= 9.20D-12
 IDIUse=1 WtCom= 1.00D+00 WtEn= 0.00D+00
 Coeff-Com: -0.511D-02-0.179D-01 0.145D+00 0.183D+00 0.801D+00-0.600D+00
 Coeff-Com:  0.655D+00-0.336D+00 0.163D+00-0.140D+00 0.780D+00-0.620D+00
 Coeff-Com: -0.257D+00 0.410D+00-0.783D+00 0.758D+00-0.241D+00 0.165D+00
 Coeff-Com: -0.167D+00 0.106D+00
 Coeff:     -0.511D-02-0.179D-01 0.145D+00 0.183D+00 0.801D+00-0.600D+00
 Coeff:      0.655D+00-0.336D+00 0.163D+00-0.140D+00 0.780D+00-0.620D+00
 Coeff:     -0.257D+00 0.410D+00-0.783D+00 0.758D+00-0.241D+00 0.165D+00
 Coeff:     -0.167D+00 0.106D+00
 Gap=     0.153 Goal=   None    Shift=    0.000
 RMSDP=2.46D-08 MaxDP=1.44D-06 DE=-2.62D-10 OVMax= 1.16D-07

 Cycle  32  Pass 1  IDiag  1:
 RMSU=  1.82D-08    CP:  1.00D+00  6.01D-01  3.00D+00  9.41D-01  8.00D-01
                    CP:  1.67D-01  3.00D+00  7.13D-01  1.13D+00  8.33D-01
                    CP:  1.55D+00
 E= -6885.16509068682     Delta-E=        0.000000000156 Rises=F Damp=F
 DIIS: error= 3.69D-06 at cycle  32 NSaved=  20.
 NSaved=20 IEnMin= 2 EnMin= -6885.16509069911     IErMin= 5 ErrMin= 1.24D-07
 ErrMax= 3.69D-06  0.00D+00 EMaxC= 1.00D-01 BMatC= 1.52D-09 BMatP= 9.20D-12
 IDIUse=1 WtCom= 1.00D+00 WtEn= 0.00D+00
 Coeff-Com: -0.497D-02-0.178D-01 0.147D+00 0.182D+00 0.801D+00-0.596D+00
 Coeff-Com:  0.649D+00-0.338D+00 0.168D+00 0.682D+00-0.676D+00-0.233D+00
 Coeff-Com:  0.356D+00-0.760D+00 0.750D+00-0.221D+00 0.175D+00-0.228D+00
 Coeff-Com:  0.251D+00-0.852D-01
 Coeff:     -0.497D-02-0.178D-01 0.147D+00 0.182D+00 0.801D+00-0.596D+00
 Coeff:      0.649D+00-0.338D+00 0.168D+00 0.682D+00-0.676D+00-0.233D+00
 Coeff:      0.356D+00-0.760D+00 0.750D+00-0.221D+00 0.175D+00-0.228D+00
 Coeff:      0.251D+00-0.852D-01
 Gap=     0.153 Goal=   None    Shift=    0.000
 DSYEVD-2 returned Info=        4417 IAlg= 4 N=  2208 NDim=  2208 NE2=     3882642 trying  DSYEV.
 RMSDP=2.31D-08 MaxDP=1.50D-06 DE= 1.56D-10 OVMax= 1.53D-08

 Cycle  33  Pass 1  IDiag  1:
 RMSU=  2.20D-08    CP:  1.00D+00  5.32D-01  3.00D+00  9.26D-01  7.72D-01
                    CP:  2.40D-01  3.00D+00  7.43D-01  1.05D+00  8.93D-01
                    CP:  1.38D+00  9.18D-01
 E= -6885.16509068746     Delta-E=       -0.000000000640 Rises=F Damp=F
 DIIS: error= 3.70D-06 at cycle  33 NSaved=  20.
 NSaved=20 IEnMin= 2 EnMin= -6885.16509069911     IErMin= 5 ErrMin= 1.24D-07
 ErrMax= 3.70D-06  0.00D+00 EMaxC= 1.00D-01 BMatC= 1.51D-09 BMatP= 9.20D-12
 IDIUse=1 WtCom= 1.00D+00 WtEn= 0.00D+00
 Coeff-Com: -0.528D-02-0.201D-01 0.144D+00 0.181D+00 0.818D+00-0.620D+00
 Coeff-Com:  0.680D+00-0.360D+00 0.172D+00 0.473D+00-0.449D+00-0.260D+00
 Coeff-Com:  0.414D+00-0.654D+00 0.588D+00-0.176D+00 0.644D-01-0.420D-01
 Coeff-Com: -0.332D-01 0.842D-01
 Coeff:     -0.528D-02-0.201D-01 0.144D+00 0.181D+00 0.818D+00-0.620D+00
 Coeff:      0.680D+00-0.360D+00 0.172D+00 0.473D+00-0.449D+00-0.260D+00
 Coeff:      0.414D+00-0.654D+00 0.588D+00-0.176D+00 0.644D-01-0.420D-01
 Coeff:     -0.332D-01 0.842D-01
 Gap=     0.153 Goal=   None    Shift=    0.000
 RMSDP=3.87D-08 MaxDP=2.67D-06 DE=-6.40D-10 OVMax= 3.19D-08

 Cycle  34  Pass 1  IDiag  1:
 RMSU=  2.25D-08    CP:  1.00D+00  5.10D-01  3.00D+00  9.78D-01  8.06D-01
                    CP:  4.01D-01  2.91D+00  8.45D-01  9.38D-01  1.22D+00
                    CP:  1.22D-01  1.99D-01  8.96D-01
 E= -6885.16509068742     Delta-E=        0.000000000040 Rises=F Damp=F
 DIIS: error= 3.81D-06 at cycle  34 NSaved=  20.
 NSaved=20 IEnMin= 2 EnMin= -6885.16509069911     IErMin= 5 ErrMin= 1.24D-07
 ErrMax= 3.81D-06  0.00D+00 EMaxC= 1.00D-01 BMatC= 1.51D-09 BMatP= 9.20D-12
 IDIUse=1 WtCom= 1.00D+00 WtEn= 0.00D+00
 Coeff-Com: -0.517D-02-0.194D-01 0.143D+00 0.183D+00 0.813D+00-0.612D+00
 Coeff-Com:  0.670D+00-0.350D+00 0.168D+00 0.511D+00-0.488D+00-0.249D+00
 Coeff-Com:  0.390D+00-0.672D+00 0.635D+00-0.188D+00 0.888D-01-0.353D-01
 Coeff-Com:  0.851D-01-0.671D-01
 Coeff:     -0.517D-02-0.194D-01 0.143D+00 0.183D+00 0.813D+00-0.612D+00
 Coeff:      0.670D+00-0.350D+00 0.168D+00 0.511D+00-0.488D+00-0.249D+00
 Coeff:      0.390D+00-0.672D+00 0.635D+00-0.188D+00 0.888D-01-0.353D-01
 Coeff:      0.851D-01-0.671D-01
 Gap=     0.153 Goal=   None    Shift=    0.000
 RMSDP=3.15D-08 MaxDP=2.29D-06 DE= 4.00D-11 OVMax= 2.40D-08

 Cycle  35  Pass 1  IDiag  1:
 RMSU=  1.30D-08    CP:  1.00D+00  5.06D-01  3.00D+00  9.45D-01  7.55D-01
                    CP:  3.88D-01  3.00D+00  7.96D-01  9.74D-01  1.06D+00
                    CP:  1.15D+00  6.40D-01  2.97D-01  4.86D-01
 E= -6885.16509068767     Delta-E=       -0.000000000247 Rises=F Damp=F
 DIIS: error= 3.75D-06 at cycle  35 NSaved=  20.
 NSaved=20 IEnMin= 2 EnMin= -6885.16509069911     IErMin= 5 ErrMin= 1.24D-07
 ErrMax= 3.75D-06  0.00D+00 EMaxC= 1.00D-01 BMatC= 1.52D-09 BMatP= 9.20D-12
 IDIUse=1 WtCom= 1.00D+00 WtEn= 0.00D+00
 Coeff-Com: -0.511D-02-0.194D-01 0.142D+00 0.183D+00 0.813D+00-0.613D+00
 Coeff-Com:  0.672D+00-0.350D+00 0.167D+00 0.515D+00-0.496D+00-0.239D+00
 Coeff-Com:  0.370D+00-0.659D+00 0.634D+00-0.181D+00 0.762D-01 0.113D+00
 Coeff-Com: -0.537D-01-0.691D-01
 Coeff:     -0.511D-02-0.194D-01 0.142D+00 0.183D+00 0.813D+00-0.613D+00
 Coeff:      0.672D+00-0.350D+00 0.167D+00 0.515D+00-0.496D+00-0.239D+00
 Coeff:      0.370D+00-0.659D+00 0.634D+00-0.181D+00 0.762D-01 0.113D+00
 Coeff:     -0.537D-01-0.691D-01
 Gap=     0.153 Goal=   None    Shift=    0.000
 RMSDP=1.33D-08 MaxDP=7.50D-07 DE=-2.47D-10 OVMax= 7.78D-09

 Cycle  36  Pass 1  IDiag  1:
 RMSU=  1.12D-08    CP:  1.00D+00  4.83D-01  3.00D+00  9.26D-01  7.60D-01
                    CP:  4.19D-01  3.00D+00  7.88D-01  9.62D-01  1.07D+00
                    CP:  1.13D+00  3.25D-01  4.09D-01  5.85D-01  8.33D-01
 E= -6885.16509068713     Delta-E=        0.000000000538 Rises=F Damp=F
 DIIS: error= 3.77D-06 at cycle  36 NSaved=  20.
 NSaved=20 IEnMin= 2 EnMin= -6885.16509069911     IErMin= 5 ErrMin= 1.24D-07
 ErrMax= 3.77D-06  0.00D+00 EMaxC= 1.00D-01 BMatC= 1.52D-09 BMatP= 9.20D-12
 IDIUse=1 WtCom= 1.00D+00 WtEn= 0.00D+00
 Coeff-Com: -0.518D-02-0.199D-01 0.143D+00 0.182D+00 0.816D+00-0.617D+00
 Coeff-Com:  0.678D+00-0.356D+00 0.169D+00 0.486D+00-0.465D+00-0.243D+00
 Coeff-Com:  0.379D+00-0.640D+00 0.600D+00-0.171D+00 0.551D-01 0.102D+00
 Coeff-Com: -0.743D-01-0.178D-01
 Coeff:     -0.518D-02-0.199D-01 0.143D+00 0.182D+00 0.816D+00-0.617D+00
 Coeff:      0.678D+00-0.356D+00 0.169D+00 0.486D+00-0.465D+00-0.243D+00
 Coeff:      0.379D+00-0.640D+00 0.600D+00-0.171D+00 0.551D-01 0.102D+00
 Coeff:     -0.743D-01-0.178D-01
 Gap=     0.153 Goal=   None    Shift=    0.000
 RMSDP=1.97D-08 MaxDP=1.57D-06 DE= 5.38D-10 OVMax= 1.56D-08

 Cycle  37  Pass 1  IDiag  1:
 RMSU=  3.37D-09    CP:  1.00D+00  4.83D-01  3.00D+00  9.51D-01  7.96D-01
                    CP:  4.42D-01  2.95D+00  8.24D-01  9.31D-01  1.17D+00
                    CP:  4.72D-01  4.50D-02  7.24D-01  9.48D-01  2.87D-01
                    CP:  1.13D+00
 E= -6885.16509068708     Delta-E=        0.000000000051 Rises=F Damp=F
 DIIS: error= 3.82D-06 at cycle  37 NSaved=  20.
 NSaved=20 IEnMin= 2 EnMin= -6885.16509069911     IErMin= 5 ErrMin= 1.24D-07
 ErrMax= 3.82D-06  0.00D+00 EMaxC= 1.00D-01 BMatC= 1.51D-09 BMatP= 9.20D-12
 IDIUse=1 WtCom= 1.00D+00 WtEn= 0.00D+00
 Coeff-Com: -0.502D-02-0.202D-01 0.141D+00 0.176D+00 0.820D+00-0.617D+00
 Coeff-Com:  0.677D+00-0.359D+00 0.177D+00 0.415D+00-0.379D+00-0.247D+00
 Coeff-Com:  0.281D+00-0.524D+00 0.479D+00-0.177D-01 0.113D+00-0.140D+00
 Coeff-Com:  0.985D-01-0.680D-01
 Coeff:     -0.502D-02-0.202D-01 0.141D+00 0.176D+00 0.820D+00-0.617D+00
 Coeff:      0.677D+00-0.359D+00 0.177D+00 0.415D+00-0.379D+00-0.247D+00
 Coeff:      0.281D+00-0.524D+00 0.479D+00-0.177D-01 0.113D+00-0.140D+00
 Coeff:      0.985D-01-0.680D-01
 Gap=     0.153 Goal=   None    Shift=    0.000
 RMSDP=4.58D-08 MaxDP=2.32D-06 DE= 5.09D-11 OVMax= 2.98D-08

 Cycle  38  Pass 1  IDiag  1:
 RMSU=  1.75D-08    CP:  1.00D+00  5.17D-01  3.00D+00  9.45D-01  7.79D-01
                    CP:  6.69D-01  3.00D+00  1.00D+00 -1.80D-01  9.40D-01
                    CP:  9.64D-01  5.07D-01  3.79D-01  7.46D-01  3.24D-01
                    CP:  1.35D+00 -1.56D-01
 E= -6885.16509068711     Delta-E=       -0.000000000033 Rises=F Damp=F
 DIIS: error= 3.82D-06 at cycle  38 NSaved=  20.
 NSaved=20 IEnMin= 2 EnMin= -6885.16509069911     IErMin= 5 ErrMin= 1.24D-07
 ErrMax= 3.82D-06  0.00D+00 EMaxC= 1.00D-01 BMatC= 1.53D-09 BMatP= 9.20D-12
 IDIUse=1 WtCom= 1.00D+00 WtEn= 0.00D+00
 Coeff-Com: -0.504D-02-0.203D-01 0.141D+00 0.176D+00 0.817D+00-0.614D+00
 Coeff-Com:  0.676D+00-0.357D+00 0.174D+00 0.418D+00-0.385D+00-0.245D+00
 Coeff-Com:  0.299D+00-0.542D+00 0.494D+00-0.350D-01 0.111D+00-0.632D-01
 Coeff-Com: -0.163D-01-0.251D-01
 Coeff:     -0.504D-02-0.203D-01 0.141D+00 0.176D+00 0.817D+00-0.614D+00
 Coeff:      0.676D+00-0.357D+00 0.174D+00 0.418D+00-0.385D+00-0.245D+00
 Coeff:      0.299D+00-0.542D+00 0.494D+00-0.350D-01 0.111D+00-0.632D-01
 Coeff:     -0.163D-01-0.251D-01
 Gap=     0.153 Goal=   None    Shift=    0.000
 RMSDP=1.61D-08 MaxDP=9.56D-07 DE=-3.27D-11 OVMax= 8.11D-09

 Cycle  39  Pass 1  IDiag  1:
 RMSU=  7.91D-09    CP:  1.00D+00  5.08D-01  3.00D+00  9.81D-01  8.22D-01
                    CP:  5.96D-01  3.00D+00  9.89D-01  4.47D-02  1.01D+00
                    CP:  6.63D-01  3.53D-01  3.91D-01  8.75D-01  4.65D-01
                    CP:  1.11D+00  1.33D+00  6.17D-01
 E= -6885.16509068615     Delta-E=        0.000000000960 Rises=F Damp=F
 DIIS: error= 3.82D-06 at cycle  39 NSaved=  20.
 NSaved=20 IEnMin= 2 EnMin= -6885.16509069911     IErMin= 5 ErrMin= 1.24D-07
 ErrMax= 3.82D-06  0.00D+00 EMaxC= 1.00D-01 BMatC= 1.52D-09 BMatP= 9.20D-12
 IDIUse=1 WtCom= 1.00D+00 WtEn= 0.00D+00
 Coeff-Com: -0.506D-02-0.204D-01 0.141D+00 0.177D+00 0.816D+00-0.612D+00
 Coeff-Com:  0.676D+00-0.355D+00 0.173D+00 0.415D+00-0.385D+00-0.245D+00
 Coeff-Com:  0.304D+00-0.538D+00 0.491D+00-0.446D-01 0.121D+00-0.876D-01
 Coeff-Com: -0.656D-01 0.453D-01
 Coeff:     -0.506D-02-0.204D-01 0.141D+00 0.177D+00 0.816D+00-0.612D+00
 Coeff:      0.676D+00-0.355D+00 0.173D+00 0.415D+00-0.385D+00-0.245D+00
 Coeff:      0.304D+00-0.538D+00 0.491D+00-0.446D-01 0.121D+00-0.876D-01
 Coeff:     -0.656D-01 0.453D-01
 Gap=     0.153 Goal=   None    Shift=    0.000
 RMSDP=1.63D-08 MaxDP=1.16D-06 DE= 9.60D-10 OVMax= 9.90D-09

 Cycle  40  Pass 1  IDiag  1:
 RMSU=  8.92D-09    CP:  1.00D+00  5.01D-01  3.00D+00  1.00D+00  8.89D-01
                    CP:  4.55D-01  3.00D+00  9.84D-01  1.88D-01  1.04D+00
                    CP:  4.64D-01  1.68D-01  6.09D-01  9.10D-01  1.28D-01
                    CP:  1.15D+00 -5.41D-02  2.52D-01  1.65D+00
 E= -6885.16509068656     Delta-E=       -0.000000000407 Rises=F Damp=F
 DIIS: error= 3.78D-06 at cycle  40 NSaved=  20.
 NSaved=20 IEnMin= 2 EnMin= -6885.16509069911     IErMin= 5 ErrMin= 1.24D-07
 ErrMax= 3.78D-06  0.00D+00 EMaxC= 1.00D-01 BMatC= 1.51D-09 BMatP= 9.20D-12
 IDIUse=1 WtCom= 1.00D+00 WtEn= 0.00D+00
 Coeff-Com: -0.508D-02-0.207D-01 0.141D+00 0.175D+00 0.821D+00-0.620D+00
 Coeff-Com:  0.682D+00-0.363D+00 0.178D+00 0.391D+00-0.355D+00-0.249D+00
 Coeff-Com:  0.293D+00-0.513D+00 0.456D+00-0.342D-01 0.105D+00-0.879D-01
 Coeff-Com: -0.287D-01 0.339D-01
 Coeff:     -0.508D-02-0.207D-01 0.141D+00 0.175D+00 0.821D+00-0.620D+00
 Coeff:      0.682D+00-0.363D+00 0.178D+00 0.391D+00-0.355D+00-0.249D+00
 Coeff:      0.293D+00-0.513D+00 0.456D+00-0.342D-01 0.105D+00-0.879D-01
 Coeff:     -0.287D-01 0.339D-01
 Gap=     0.153 Goal=   None    Shift=    0.000
 RMSDP=2.09D-08 MaxDP=1.95D-06 DE=-4.07D-10 OVMax= 1.25D-08

 Cycle  41  Pass 1  IDiag  1:
 Restarting incremental Fock formation.
 E= -6885.16509068673     Delta-E=       -0.000000000167 Rises=F Damp=F
 DIIS: error= 3.41D-06 at cycle  41 NSaved=  20.
 NSaved=20 IEnMin= 2 EnMin= -6885.16509069911     IErMin= 5 ErrMin= 1.24D-07
 ErrMax= 3.41D-06  0.00D+00 EMaxC= 1.00D-01 BMatC= 1.44D-09 BMatP= 9.20D-12
 IDIUse=1 WtCom= 1.00D+00 WtEn= 0.00D+00
 Coeff-Com: -0.821D-02-0.356D-01 0.171D+00 0.212D+00 0.804D+00-0.549D+00
 Coeff-Com:  0.557D+00-0.331D+00 0.171D+00-0.641D+00-0.592D-01-0.264D+00
 Coeff-Com:  0.303D+00-0.412D+00 0.327D+00-0.499D-01 0.152D+00-0.120D+00
 Coeff-Com:  0.105D-01 0.763D+00
 Coeff:     -0.821D-02-0.356D-01 0.171D+00 0.212D+00 0.804D+00-0.549D+00
 Coeff:      0.557D+00-0.331D+00 0.171D+00-0.641D+00-0.592D-01-0.264D+00
 Coeff:      0.303D+00-0.412D+00 0.327D+00-0.499D-01 0.152D+00-0.120D+00
 Coeff:      0.105D-01 0.763D+00
 Gap=     0.153 Goal=   None    Shift=    0.000
 RMSDP=1.31D-07 MaxDP=7.63D-06 DE=-1.67D-10 OVMax= 1.77D-07

 Cycle  42  Pass 1  IDiag  1:
 RMSU=  1.30D-07    CP:  1.00D+00
 E= -6885.16509068725     Delta-E=       -0.000000000520 Rises=F Damp=F
 DIIS: error= 3.36D-06 at cycle  42 NSaved=  20.
 NSaved=20 IEnMin= 2 EnMin= -6885.16509069911     IErMin= 5 ErrMin= 1.24D-07
 ErrMax= 3.36D-06  0.00D+00 EMaxC= 1.00D-01 BMatC= 1.43D-09 BMatP= 9.20D-12
 IDIUse=1 WtCom= 1.00D+00 WtEn= 0.00D+00
 Coeff-Com: -0.721D-02-0.339D-01 0.150D+00 0.204D+00 0.760D+00-0.455D+00
 Coeff-Com:  0.486D+00-0.300D+00 0.187D+00-0.902D+00-0.293D-01-0.381D+00
 Coeff-Com:  0.386D+00-0.499D+00 0.408D+00-0.577D-01 0.211D+00-0.159D+00
 Coeff-Com:  0.626D+00 0.407D+00
 Coeff:     -0.721D-02-0.339D-01 0.150D+00 0.204D+00 0.760D+00-0.455D+00
 Coeff:      0.486D+00-0.300D+00 0.187D+00-0.902D+00-0.293D-01-0.381D+00
 Coeff:      0.386D+00-0.499D+00 0.408D+00-0.577D-01 0.211D+00-0.159D+00
 Coeff:      0.626D+00 0.407D+00
 Gap=     0.153 Goal=   None    Shift=    0.000
 RMSDP=9.03D-08 MaxDP=8.68D-06 DE=-5.20D-10 OVMax= 8.03D-08

 Cycle  43  Pass 1  IDiag  1:
 RMSU=  8.46D-08    CP:  1.00D+00  1.24D+00
 E= -6885.16509068720     Delta-E=        0.000000000047 Rises=F Damp=F
 DIIS: error= 3.32D-06 at cycle  43 NSaved=  20.
 NSaved=20 IEnMin= 2 EnMin= -6885.16509069911     IErMin= 5 ErrMin= 1.24D-07
 ErrMax= 3.32D-06  0.00D+00 EMaxC= 1.00D-01 BMatC= 1.42D-09 BMatP= 9.20D-12
 IDIUse=1 WtCom= 1.00D+00 WtEn= 0.00D+00
 Coeff-Com: -0.432D-02-0.220D-01 0.116D+00 0.172D+00 0.745D+00-0.447D+00
 Coeff-Com:  0.528D+00-0.302D+00 0.204D+00-0.353D+00-0.205D+00-0.456D+00
 Coeff-Com:  0.426D+00-0.625D+00 0.557D+00-0.477D-01 0.218D+00-0.177D+00
 Coeff-Com:  0.579D+00 0.943D-01
 Coeff:     -0.432D-02-0.220D-01 0.116D+00 0.172D+00 0.745D+00-0.447D+00
 Coeff:      0.528D+00-0.302D+00 0.204D+00-0.353D+00-0.205D+00-0.456D+00
 Coeff:      0.426D+00-0.625D+00 0.557D+00-0.477D-01 0.218D+00-0.177D+00
 Coeff:      0.579D+00 0.943D-01
 Gap=     0.153 Goal=   None    Shift=    0.000
 RMSDP=9.00D-08 MaxDP=6.42D-06 DE= 4.73D-11 OVMax= 1.05D-07

 Cycle  44  Pass 1  IDiag  1:
 RMSU=  1.74D-08    CP:  1.00D+00  7.60D-01  1.74D+00
 E= -6885.16509068688     Delta-E=        0.000000000317 Rises=F Damp=F
 DIIS: error= 3.34D-06 at cycle  44 NSaved=  20.
 NSaved=20 IEnMin= 2 EnMin= -6885.16509069911     IErMin= 5 ErrMin= 1.24D-07
 ErrMax= 3.34D-06  0.00D+00 EMaxC= 1.00D-01 BMatC= 1.43D-09 BMatP= 9.20D-12
 IDIUse=1 WtCom= 1.00D+00 WtEn= 0.00D+00
 Coeff-Com: -0.460D-02-0.204D-01 0.133D+00 0.168D+00 0.782D+00-0.537D+00
 Coeff-Com:  0.592D+00-0.325D+00 0.200D+00-0.891D-01-0.220D+00-0.401D+00
 Coeff-Com:  0.354D+00-0.596D+00 0.564D+00-0.388D-01 0.168D+00-0.151D+00
 Coeff-Com:  0.379D+00 0.418D-01
 Coeff:     -0.460D-02-0.204D-01 0.133D+00 0.168D+00 0.782D+00-0.537D+00
 Coeff:      0.592D+00-0.325D+00 0.200D+00-0.891D-01-0.220D+00-0.401D+00
 Coeff:      0.354D+00-0.596D+00 0.564D+00-0.388D-01 0.168D+00-0.151D+00
 Coeff:      0.379D+00 0.418D-01
 Gap=     0.153 Goal=   None    Shift=    0.000
 RMSDP=7.30D-08 MaxDP=5.34D-06 DE= 3.17D-10 OVMax= 5.64D-08

 Cycle  45  Pass 1  IDiag  1:
 RMSU=  3.38D-08    CP:  1.00D+00  7.55D-01  1.35D+00  3.00D+00
 E= -6885.16509068962     Delta-E=       -0.000000002736 Rises=F Damp=F
 DIIS: error= 3.38D-06 at cycle  45 NSaved=  20.
 NSaved=20 IEnMin= 2 EnMin= -6885.16509069911     IErMin= 5 ErrMin= 1.24D-07
 ErrMax= 3.38D-06  0.00D+00 EMaxC= 1.00D-01 BMatC= 1.46D-09 BMatP= 9.20D-12
 IDIUse=1 WtCom= 1.00D+00 WtEn= 0.00D+00
 Coeff-Com: -0.543D-02-0.221D-01 0.150D+00 0.174D+00 0.816D+00-0.607D+00
 Coeff-Com:  0.631D+00-0.346D+00 0.197D+00 0.485D-01-0.216D+00-0.329D+00
 Coeff-Com:  0.314D+00-0.543D+00 0.503D+00-0.320D-01 0.129D+00-0.118D+00
 Coeff-Com:  0.378D+00-0.122D+00
 Coeff:     -0.543D-02-0.221D-01 0.150D+00 0.174D+00 0.816D+00-0.607D+00
 Coeff:      0.631D+00-0.346D+00 0.197D+00 0.485D-01-0.216D+00-0.329D+00
 Coeff:      0.314D+00-0.543D+00 0.503D+00-0.320D-01 0.129D+00-0.118D+00
 Coeff:      0.378D+00-0.122D+00
 Gap=     0.153 Goal=   None    Shift=    0.000
 RMSDP=7.41D-08 MaxDP=4.91D-06 DE=-2.74D-09 OVMax= 5.32D-08

 Cycle  46  Pass 1  IDiag  1:
 RMSU=  2.73D-08    CP:  1.00D+00  6.34D-01  5.64D-01  3.00D+00  7.84D-01
 E= -6885.16509068999     Delta-E=       -0.000000000375 Rises=F Damp=F
 DIIS: error= 3.39D-06 at cycle  46 NSaved=  20.
 NSaved=20 IEnMin= 2 EnMin= -6885.16509069911     IErMin= 5 ErrMin= 1.24D-07
 ErrMax= 3.39D-06  0.00D+00 EMaxC= 1.00D-01 BMatC= 1.46D-09 BMatP= 9.20D-12
 IDIUse=1 WtCom= 1.00D+00 WtEn= 0.00D+00
 Coeff-Com: -0.532D-02-0.219D-01 0.142D+00 0.179D+00 0.814D+00-0.596D+00
 Coeff-Com:  0.647D+00-0.328D+00 0.159D+00 0.294D+00-0.346D+00-0.246D+00
 Coeff-Com:  0.269D+00-0.484D+00 0.437D+00-0.205D-01 0.933D-01-0.749D-01
 Coeff-Com: -0.164D-01 0.106D+00
 Coeff:     -0.532D-02-0.219D-01 0.142D+00 0.179D+00 0.814D+00-0.596D+00
 Coeff:      0.647D+00-0.328D+00 0.159D+00 0.294D+00-0.346D+00-0.246D+00
 Coeff:      0.269D+00-0.484D+00 0.437D+00-0.205D-01 0.933D-01-0.749D-01
 Coeff:     -0.164D-01 0.106D+00
 Gap=     0.153 Goal=   None    Shift=    0.000
 RMSDP=1.15D-07 MaxDP=7.34D-06 DE=-3.75D-10 OVMax= 9.72D-08

 Cycle  47  Pass 1  IDiag  1:
 RMSU=  3.73D-08    CP:  1.00D+00  1.84D-01  1.19D-01  7.20D-01 -2.29D-02
                    CP: -9.15D-01
 E= -6885.16509068695     Delta-E=        0.000000003038 Rises=F Damp=F
 DIIS: error= 3.42D-06 at cycle  47 NSaved=  20.
 NSaved=20 IEnMin= 2 EnMin= -6885.16509069911     IErMin= 5 ErrMin= 1.24D-07
 ErrMax= 3.42D-06  0.00D+00 EMaxC= 1.00D-01 BMatC= 1.45D-09 BMatP= 9.20D-12
 IDIUse=1 WtCom= 1.00D+00 WtEn= 0.00D+00
 Coeff-Com: -0.669D-02-0.289D-01 0.158D+00 0.192D+00 0.760D+00-0.496D+00
 Coeff-Com:  0.546D+00-0.301D+00 0.167D+00-0.229D+00-0.184D+00-0.273D+00
 Coeff-Com:  0.274D+00-0.410D+00 0.328D+00 0.313D-01 0.208D-01-0.300D+00
 Coeff-Com:  0.303D+00 0.448D+00
 Coeff:     -0.669D-02-0.289D-01 0.158D+00 0.192D+00 0.760D+00-0.496D+00
 Coeff:      0.546D+00-0.301D+00 0.167D+00-0.229D+00-0.184D+00-0.273D+00
 Coeff:      0.274D+00-0.410D+00 0.328D+00 0.313D-01 0.208D-01-0.300D+00
 Coeff:      0.303D+00 0.448D+00
 Gap=     0.153 Goal=   None    Shift=    0.000
 RMSDP=1.02D-07 MaxDP=6.40D-06 DE= 3.04D-09 OVMax= 7.70D-08

 Cycle  48  Pass 1  IDiag  1:
 RMSU=  9.15D-08    CP:  1.00D+00  3.34D-01  2.40D-02  1.26D+00 -4.24D-01
                    CP:  6.26D-02  1.66D+00
 E= -6885.16509068741     Delta-E=       -0.000000000458 Rises=F Damp=F
 DIIS: error= 3.40D-06 at cycle  48 NSaved=  20.
 NSaved=20 IEnMin= 2 EnMin= -6885.16509069911     IErMin= 5 ErrMin= 1.24D-07
 ErrMax= 3.40D-06  0.00D+00 EMaxC= 1.00D-01 BMatC= 1.45D-09 BMatP= 9.20D-12
 IDIUse=1 WtCom= 1.00D+00 WtEn= 0.00D+00
 Coeff-Com: -0.665D-02-0.291D-01 0.156D+00 0.191D+00 0.763D+00-0.497D+00
 Coeff-Com:  0.546D+00-0.301D+00 0.168D+00-0.266D+00-0.148D+00-0.272D+00
 Coeff-Com:  0.297D+00-0.408D+00 0.326D+00 0.297D-01-0.291D+00 0.294D+00
 Coeff-Com:  0.437D+00 0.107D-01
 Coeff:     -0.665D-02-0.291D-01 0.156D+00 0.191D+00 0.763D+00-0.497D+00
 Coeff:      0.546D+00-0.301D+00 0.168D+00-0.266D+00-0.148D+00-0.272D+00
 Coeff:      0.297D+00-0.408D+00 0.326D+00 0.297D-01-0.291D+00 0.294D+00
 Coeff:      0.437D+00 0.107D-01
 Gap=     0.153 Goal=   None    Shift=    0.000
 RMSDP=6.97D-09 MaxDP=4.99D-07 DE=-4.58D-10 OVMax= 5.28D-09

 Density matrix is not changing but DIIS error= 3.40D-06 CofLast= 4.37D-01.
 Cycle  49  Pass 1  IDiag  1:
 E= -6885.16509068747     Delta-E=       -0.000000000055 Rises=F Damp=F
 DIIS: error= 3.42D-06 at cycle   1 NSaved=   1.
 NSaved= 1 IEnMin= 1 EnMin= -6885.16509068747     IErMin= 1 ErrMin= 3.42D-06
 ErrMax= 3.42D-06  0.00D+00 EMaxC= 1.00D+00 BMatC= 1.45D-09 BMatP= 1.45D-09
 IDIUse=1 WtCom= 1.00D+00 WtEn= 0.00D+00
 Coeff-Com:  0.100D+01
 Coeff:      0.100D+01
 Gap=     0.153 Goal=   None    Shift=    0.000
 RMSDP=4.33D-06 MaxDP=2.56D-04 DE=-5.46D-11 OVMax= 3.33D-06

 Cycle  50  Pass 1  IDiag  1:
 RMSU=  4.32D-06    CP:  1.00D+00
 E= -6885.16509070900     Delta-E=       -0.000000021533 Rises=F Damp=F
 DIIS: error= 3.25D-07 at cycle  50 NSaved=   2.
 NSaved= 2 IEnMin= 2 EnMin= -6885.16509070900     IErMin= 2 ErrMin= 3.25D-07
 ErrMax= 3.25D-07  0.00D+00 EMaxC= 1.00D+00 BMatC= 9.80D-12 BMatP= 1.45D-09
 IDIUse=1 WtCom= 1.00D+00 WtEn= 0.00D+00
 Coeff-Com: -0.200D-01 0.102D+01
 Coeff:     -0.200D-01 0.102D+01
 Gap=     0.153 Goal=   None    Shift=    0.000
 DSYEVD-2 returned Info=        4417 IAlg= 4 N=  2208 NDim=  2208 NE2=     3882642 trying  DSYEV.
 RMSDP=5.50D-07 MaxDP=3.88D-05 DE=-2.15D-08 OVMax= 4.47D-07

 Cycle  51  Pass 1  IDiag  1:
 RMSU=  4.88D-07    CP:  1.00D+00  1.06D+00
 E= -6885.16509070714     Delta-E=        0.000000001859 Rises=F Damp=F
 DIIS: error= 2.70D-07 at cycle  51 NSaved=   3.
 NSaved= 3 IEnMin= 2 EnMin= -6885.16509070900     IErMin= 3 ErrMin= 2.70D-07
 ErrMax= 2.70D-07  0.00D+00 EMaxC= 1.00D+00 BMatC= 6.05D-12 BMatP= 9.80D-12
 IDIUse=1 WtCom= 1.00D+00 WtEn= 0.00D+00
 Coeff-Com: -0.562D-02 0.423D+00 0.583D+00
 Coeff:     -0.562D-02 0.423D+00 0.583D+00
 Gap=     0.153 Goal=   None    Shift=    0.000
 DSYEVD-2 returned Info=     4272205 IAlg= 4 N=  2208 NDim=  2208 NE2=     3882642 trying  DSYEV.
 RMSDP=2.06D-07 MaxDP=1.33D-05 DE= 1.86D-09 OVMax= 2.32D-07

 Cycle  52  Pass 1  IDiag  1:
 RMSU=  1.63D-07    CP:  1.00D+00  1.05D+00  7.45D-01
 E= -6885.16509070664     Delta-E=        0.000000000498 Rises=F Damp=F
 DIIS: error= 1.45D-07 at cycle  52 NSaved=   4.
 NSaved= 4 IEnMin= 2 EnMin= -6885.16509070900     IErMin= 4 ErrMin= 1.45D-07
 ErrMax= 1.45D-07  0.00D+00 EMaxC= 1.00D+00 BMatC= 3.87D-12 BMatP= 6.05D-12
 IDIUse=1 WtCom= 1.00D+00 WtEn= 0.00D+00
 Coeff-Com: -0.692D-03 0.208D+00 0.380D+00 0.413D+00
 Coeff:     -0.692D-03 0.208D+00 0.380D+00 0.413D+00
 Gap=     0.153 Goal=   None    Shift=    0.000
 RMSDP=9.84D-08 MaxDP=8.00D-06 DE= 4.98D-10 OVMax= 8.14D-08

 Cycle  53  Pass 1  IDiag  1:
 RMSU=  8.51D-08    CP:  1.00D+00  1.05D+00  7.11D-01  1.26D+00
 E= -6885.16509070603     Delta-E=        0.000000000615 Rises=F Damp=F
 DIIS: error= 2.08D-07 at cycle  53 NSaved=   5.
 NSaved= 5 IEnMin= 2 EnMin= -6885.16509070900     IErMin= 4 ErrMin= 1.45D-07
 ErrMax= 2.08D-07  0.00D+00 EMaxC= 1.00D+00 BMatC= 5.28D-12 BMatP= 3.87D-12
 IDIUse=1 WtCom= 1.00D+00 WtEn= 0.00D+00
 Coeff-Com: -0.577D-03 0.206D+00 0.388D+00 0.435D+00-0.286D-01
 Coeff:     -0.577D-03 0.206D+00 0.388D+00 0.435D+00-0.286D-01
 Gap=     0.153 Goal=   None    Shift=    0.000
 RMSDP=8.85D-09 MaxDP=4.32D-07 DE= 6.15D-10 OVMax= 9.33D-09

 SCF Done:  E(RLC-B+HF-LYP) =  -6885.16509071     A.U. after   53 cycles
            NFock= 53  Conv=0.89D-08     -V/T= 2.0025
 KE= 6.867956805915D+03 PE=-5.131284690488D+04 EE= 2.003733641483D+04
 Leave Link  502 at Wed Apr 22 19:59:04 2026, MaxMem=  8589934592 cpu:    159066.5
 (Enter /opt/g09/l601.exe)
 Copying SCF densities to generalized density rwf, IOpCl= 0 IROHF=0.
 Hyperfine terms turned off by default for NAtoms > 100.

 **********************************************************************

            Population analysis using the SCF density.

 **********************************************************************

 Alpha  occ. eigenvalues -- -345.97009-345.97009 -41.83877 -41.83877 -36.92188
 Alpha  occ. eigenvalues --  -36.92187 -36.91324 -36.91324 -36.91323 -36.91323
 Alpha  occ. eigenvalues --  -14.20027 -14.20026 -14.20026 -14.20025 -14.20025
 Alpha  occ. eigenvalues --  -14.20025 -14.20024 -14.20024 -14.19126 -14.19126
 Alpha  occ. eigenvalues --  -14.19126 -14.19126 -14.19125 -14.19125 -14.19125
 Alpha  occ. eigenvalues --  -14.19125 -10.16321 -10.16320 -10.16319 -10.16319
 Alpha  occ. eigenvalues --  -10.16318 -10.16318 -10.16317 -10.16316 -10.16315
 Alpha  occ. eigenvalues --  -10.16314 -10.16313 -10.16313 -10.16312 -10.16311
 Alpha  occ. eigenvalues --  -10.16311 -10.16309 -10.09362 -10.09362 -10.09361
 Alpha  occ. eigenvalues --  -10.09361 -10.09359 -10.09359 -10.09359 -10.09359
 Alpha  occ. eigenvalues --  -10.09329 -10.09329 -10.09329 -10.09329 -10.09328
 Alpha  occ. eigenvalues --  -10.09328 -10.09328 -10.09328 -10.09186 -10.09186
 Alpha  occ. eigenvalues --  -10.09186 -10.09186 -10.09185 -10.09185 -10.09185
 Alpha  occ. eigenvalues --  -10.09185 -10.09184 -10.09184 -10.09184 -10.09183
 Alpha  occ. eigenvalues --  -10.09182 -10.09182 -10.09182 -10.09181 -10.09057
 Alpha  occ. eigenvalues --  -10.09057 -10.09057 -10.09057 -10.09055 -10.09055
 Alpha  occ. eigenvalues --  -10.09055 -10.09055 -10.09020 -10.09020 -10.09020
 Alpha  occ. eigenvalues --  -10.09020 -10.09019 -10.09019 -10.09019 -10.09019
 Alpha  occ. eigenvalues --   -4.78733  -4.78733  -3.23392  -3.23392  -3.21915
 Alpha  occ. eigenvalues --   -3.21915  -3.21914  -3.21914  -1.12910  -1.12575
 Alpha  occ. eigenvalues --   -1.11437  -1.11437  -1.11119  -1.11119  -1.08624
 Alpha  occ. eigenvalues --   -1.08326  -1.06382  -1.06113  -1.02225  -1.02225
 Alpha  occ. eigenvalues --   -1.01979  -1.01979  -0.99126  -0.98842  -0.97896
 Alpha  occ. eigenvalues --   -0.97896  -0.97852  -0.97788  -0.97453  -0.97453
 Alpha  occ. eigenvalues --   -0.97424  -0.97402  -0.89788  -0.89386  -0.88479
 Alpha  occ. eigenvalues --   -0.88240  -0.88240  -0.88067  -0.87860  -0.87860
 Alpha  occ. eigenvalues --   -0.87845  -0.87845  -0.87673  -0.87541  -0.87443
 Alpha  occ. eigenvalues --   -0.87443  -0.87296  -0.87106  -0.84004  -0.83674
 Alpha  occ. eigenvalues --   -0.81325  -0.81325  -0.81055  -0.81055  -0.75854
 Alpha  occ. eigenvalues --   -0.75748  -0.75628  -0.75384  -0.74896  -0.74896
 Alpha  occ. eigenvalues --   -0.74560  -0.74560  -0.74252  -0.73936  -0.73906
 Alpha  occ. eigenvalues --   -0.73623  -0.71417  -0.71417  -0.71338  -0.71125
 Alpha  occ. eigenvalues --   -0.71104  -0.71104  -0.70256  -0.69960  -0.67770
 Alpha  occ. eigenvalues --   -0.67400  -0.66763  -0.66763  -0.66497  -0.66497
 Alpha  occ. eigenvalues --   -0.65309  -0.65068  -0.65068  -0.65051  -0.64861
 Alpha  occ. eigenvalues --   -0.64861  -0.61460  -0.61426  -0.61381  -0.61343
 Alpha  occ. eigenvalues --   -0.61181  -0.61164  -0.60960  -0.60940  -0.60781
 Alpha  occ. eigenvalues --   -0.60323  -0.60323  -0.59347  -0.59347  -0.59074
 Alpha  occ. eigenvalues --   -0.59074  -0.58968  -0.58968  -0.58010  -0.58010
 Alpha  occ. eigenvalues --   -0.57848  -0.57759  -0.57759  -0.57568  -0.57151
 Alpha  occ. eigenvalues --   -0.57151  -0.57135  -0.56992  -0.56845  -0.56545
 Alpha  occ. eigenvalues --   -0.56540  -0.56518  -0.56399  -0.55963  -0.55649
 Alpha  occ. eigenvalues --   -0.55278  -0.55187  -0.55187  -0.55051  -0.55051
 Alpha  occ. eigenvalues --   -0.54983  -0.54732  -0.54732  -0.54639  -0.53902
 Alpha  occ. eigenvalues --   -0.53661  -0.53661  -0.53649  -0.53438  -0.53438
 Alpha  occ. eigenvalues --   -0.52728  -0.52417  -0.52216  -0.51959  -0.51800
 Alpha  occ. eigenvalues --   -0.50873  -0.50131  -0.50053  -0.50053  -0.49146
 Alpha  occ. eigenvalues --   -0.47995  -0.47548  -0.47318  -0.47286  -0.47286
 Alpha  occ. eigenvalues --   -0.47063  -0.47063  -0.46683  -0.46683  -0.46580
 Alpha  occ. eigenvalues --   -0.46533  -0.46533  -0.46460  -0.46272  -0.46197
 Alpha  occ. eigenvalues --   -0.46197  -0.45771  -0.45536  -0.44842  -0.44587
 Alpha  occ. eigenvalues --   -0.44587  -0.44414  -0.44364  -0.44364  -0.44213
 Alpha  occ. eigenvalues --   -0.44090  -0.44090  -0.41797  -0.41438  -0.41438
 Alpha  occ. eigenvalues --   -0.41367  -0.39382  -0.38819  -0.38819  -0.38427
 Alpha  occ. eigenvalues --   -0.38427  -0.37436  -0.37079  -0.36998  -0.36801
 Alpha  occ. eigenvalues --   -0.36801  -0.36608  -0.36082  -0.35866  -0.35866
 Alpha  occ. eigenvalues --   -0.35678  -0.34923  -0.34842  -0.34751  -0.34351
 Alpha  occ. eigenvalues --   -0.33875  -0.33690  -0.33690  -0.33052  -0.33052
 Alpha  occ. eigenvalues --   -0.32873  -0.32348  -0.24966  -0.22271
 Alpha virt. eigenvalues --   -0.07011  -0.07011  -0.04608  -0.04608   0.01500
 Alpha virt. eigenvalues --    0.01771   0.02367   0.03175   0.03175   0.04092
 Alpha virt. eigenvalues --    0.05307   0.05635   0.06546   0.06546   0.07529
 Alpha virt. eigenvalues --    0.07776   0.08378   0.08429   0.08442   0.08442
 Alpha virt. eigenvalues --    0.09776   0.09819   0.09819   0.10658   0.10740
 Alpha virt. eigenvalues --    0.11461   0.11484   0.11646   0.11646   0.11836
 Alpha virt. eigenvalues --    0.11836   0.12219   0.12856   0.13092   0.13092
 Alpha virt. eigenvalues --    0.13322   0.13496   0.13496   0.13900   0.14074
 Alpha virt. eigenvalues --    0.14382   0.14752   0.14826   0.14826   0.14935
 Alpha virt. eigenvalues --    0.14935   0.15105   0.15294   0.15931   0.16125
 Alpha virt. eigenvalues --    0.16158   0.16158   0.17029   0.17681   0.17731
 Alpha virt. eigenvalues --    0.18165   0.18165   0.18717   0.18721   0.18721
 Alpha virt. eigenvalues --    0.19158   0.19276   0.19276   0.19861   0.20010
 Alpha virt. eigenvalues --    0.20337   0.20337   0.20600   0.20668   0.20668
 Alpha virt. eigenvalues --    0.21907   0.22036   0.22336   0.22669   0.22922
 Alpha virt. eigenvalues --    0.22922   0.22995   0.23215   0.23381   0.23381
 Alpha virt. eigenvalues --    0.23525   0.23695   0.23695   0.23710   0.24103
 Alpha virt. eigenvalues --    0.24189   0.24612   0.24673   0.24673   0.25855
 Alpha virt. eigenvalues --    0.25855   0.26039   0.26549   0.26549   0.26586
 Alpha virt. eigenvalues --    0.26586   0.26714   0.26725   0.26979   0.27196
 Alpha virt. eigenvalues --    0.27389   0.27886   0.27886   0.27897   0.27922
 Alpha virt. eigenvalues --    0.27922   0.28023   0.28210   0.28210   0.28240
 Alpha virt. eigenvalues --    0.28366   0.28737   0.28821   0.29063   0.29063
 Alpha virt. eigenvalues --    0.29067   0.29239   0.29400   0.29556   0.29556
 Alpha virt. eigenvalues --    0.29636   0.29745   0.29745   0.29812   0.30071
 Alpha virt. eigenvalues --    0.30103   0.30169   0.30272   0.30346   0.30585
 Alpha virt. eigenvalues --    0.30585   0.30729   0.30729   0.30875   0.30875
 Alpha virt. eigenvalues --    0.30945   0.31198   0.31687   0.31788   0.31959
 Alpha virt. eigenvalues --    0.31959   0.32055   0.32090   0.32090   0.32456
 Alpha virt. eigenvalues --    0.32724   0.32724   0.33332   0.33445   0.33812
 Alpha virt. eigenvalues --    0.34036   0.34038   0.34038   0.34253   0.34561
 Alpha virt. eigenvalues --    0.34561   0.34759   0.35151   0.35183   0.35183
 Alpha virt. eigenvalues --    0.35581   0.35897   0.36057   0.36057   0.36142
 Alpha virt. eigenvalues --    0.36142   0.36144   0.36530   0.37505   0.37505
 Alpha virt. eigenvalues --    0.37545   0.37712   0.37890   0.37890   0.37901
 Alpha virt. eigenvalues --    0.37985   0.38010   0.38303   0.38303   0.38328
 Alpha virt. eigenvalues --    0.38328   0.38749   0.38774   0.39513   0.39673
 Alpha virt. eigenvalues --    0.39803   0.39803   0.39832   0.40180   0.40199
 Alpha virt. eigenvalues --    0.40364   0.40374   0.40374   0.40589   0.40786
 Alpha virt. eigenvalues --    0.40786   0.41195   0.41279   0.41279   0.41594
 Alpha virt. eigenvalues --    0.41762   0.41968   0.42060   0.42060   0.42320
 Alpha virt. eigenvalues --    0.42446   0.42675   0.42675   0.42687   0.42738
 Alpha virt. eigenvalues --    0.43276   0.43440   0.43440   0.43443   0.43640
 Alpha virt. eigenvalues --    0.43757   0.43757   0.43844   0.44560   0.44729
 Alpha virt. eigenvalues --    0.44810   0.45015   0.45015   0.45076   0.45076
 Alpha virt. eigenvalues --    0.45315   0.45315   0.45391   0.45637   0.45849
 Alpha virt. eigenvalues --    0.46256   0.46462   0.46462   0.46815   0.46815
 Alpha virt. eigenvalues --    0.47114   0.47356   0.47459   0.47459   0.47519
 Alpha virt. eigenvalues --    0.47897   0.47993   0.48100   0.48210   0.48210
 Alpha virt. eigenvalues --    0.48489   0.48489   0.48776   0.48776   0.48812
 Alpha virt. eigenvalues --    0.48867   0.48867   0.48958   0.49008   0.49405
 Alpha virt. eigenvalues --    0.49959   0.49959   0.50027   0.50318   0.50338
 Alpha virt. eigenvalues --    0.50338   0.50424   0.50557   0.50557   0.50765
 Alpha virt. eigenvalues --    0.51034   0.51034   0.51087   0.51182   0.51314
 Alpha virt. eigenvalues --    0.51314   0.51685   0.52118   0.52226   0.52321
 Alpha virt. eigenvalues --    0.52416   0.52493   0.52493   0.53056   0.53665
 Alpha virt. eigenvalues --    0.53665   0.53689   0.53758   0.53758   0.53928
 Alpha virt. eigenvalues --    0.54513   0.54548   0.55174   0.55174   0.55194
 Alpha virt. eigenvalues --    0.55324   0.55440   0.55523   0.55626   0.55684
 Alpha virt. eigenvalues --    0.55684   0.55897   0.55897   0.56201   0.56201
 Alpha virt. eigenvalues --    0.56650   0.56737   0.56755   0.56971   0.56971
 Alpha virt. eigenvalues --    0.57101   0.57101   0.57299   0.57505   0.57673
 Alpha virt. eigenvalues --    0.57718   0.57776   0.58291   0.58291   0.58721
 Alpha virt. eigenvalues --    0.59035   0.59035   0.59158   0.59644   0.59785
 Alpha virt. eigenvalues --    0.59785   0.59860   0.59914   0.59914   0.60231
 Alpha virt. eigenvalues --    0.60544   0.60544   0.60572   0.60572   0.60609
 Alpha virt. eigenvalues --    0.61294   0.61294   0.61462   0.61867   0.62577
 Alpha virt. eigenvalues --    0.62691   0.62855   0.63096   0.63096   0.63305
 Alpha virt. eigenvalues --    0.63342   0.63583   0.63583   0.64591   0.64648
 Alpha virt. eigenvalues --    0.64648   0.65437   0.65437   0.65869   0.66177
 Alpha virt. eigenvalues --    0.66543   0.66580   0.66580   0.66709   0.66785
 Alpha virt. eigenvalues --    0.66785   0.67165   0.67289   0.67289   0.67340
 Alpha virt. eigenvalues --    0.67401   0.67401   0.67941   0.68138   0.68383
 Alpha virt. eigenvalues --    0.68468   0.68656   0.68656   0.68955   0.68955
 Alpha virt. eigenvalues --    0.69509   0.69521   0.69615   0.69615   0.69929
 Alpha virt. eigenvalues --    0.70007   0.70127   0.70162   0.70182   0.70182
 Alpha virt. eigenvalues --    0.70767   0.70809   0.70855   0.71289   0.71413
 Alpha virt. eigenvalues --    0.71535   0.71535   0.71969   0.71984   0.71984
 Alpha virt. eigenvalues --    0.72118   0.72195   0.72209   0.72209   0.73265
 Alpha virt. eigenvalues --    0.73410   0.73433   0.73835   0.74108   0.74108
 Alpha virt. eigenvalues --    0.74130   0.74130   0.74290   0.74791   0.74879
 Alpha virt. eigenvalues --    0.74879   0.74953   0.75063   0.75165   0.75166
 Alpha virt. eigenvalues --    0.75558   0.75605   0.75836   0.75967   0.76239
 Alpha virt. eigenvalues --    0.76469   0.76469   0.76514   0.76552   0.77062
 Alpha virt. eigenvalues --    0.77388   0.77388   0.77771   0.77877   0.77877
 Alpha virt. eigenvalues --    0.77906   0.77906   0.78362   0.78477   0.78605
 Alpha virt. eigenvalues --    0.78832   0.78832   0.78937   0.79114   0.79612
 Alpha virt. eigenvalues --    0.79612   0.79747   0.79747   0.80012   0.80063
 Alpha virt. eigenvalues --    0.80063   0.80135   0.80226   0.80947   0.80948
 Alpha virt. eigenvalues --    0.81047   0.81147   0.81342   0.81455   0.81519
 Alpha virt. eigenvalues --    0.81546   0.81695   0.81771   0.81771   0.82106
 Alpha virt. eigenvalues --    0.82762   0.82762   0.83212   0.83212   0.83218
 Alpha virt. eigenvalues --    0.83330   0.83398   0.83398   0.83586   0.83623
 Alpha virt. eigenvalues --    0.83810   0.83810   0.84219   0.84219   0.84959
 Alpha virt. eigenvalues --    0.85357   0.85357   0.85418   0.85461   0.85511
 Alpha virt. eigenvalues --    0.85584   0.85585   0.85874   0.86270   0.86270
 Alpha virt. eigenvalues --    0.86370   0.86709   0.86919   0.86919   0.87148
 Alpha virt. eigenvalues --    0.87268   0.87268   0.87435   0.87555   0.87871
 Alpha virt. eigenvalues --    0.87902   0.88049   0.88049   0.89179   0.89179
 Alpha virt. eigenvalues --    0.89198   0.89438   0.89598   0.89598   0.90425
 Alpha virt. eigenvalues --    0.90615   0.90934   0.90934   0.91764   0.91974
 Alpha virt. eigenvalues --    0.92027   0.92063   0.92081   0.92081   0.92700
 Alpha virt. eigenvalues --    0.93170   0.93170   0.93297   0.93377   0.94357
 Alpha virt. eigenvalues --    0.94460   0.94766   0.94766   0.95010   0.95562
 Alpha virt. eigenvalues --    0.95736   0.95736   0.95821   0.96354   0.96387
 Alpha virt. eigenvalues --    0.96408   0.96408   0.96600   0.96600   0.96844
 Alpha virt. eigenvalues --    0.96898   0.96957   0.97331   0.97331   0.97759
 Alpha virt. eigenvalues --    0.97793   0.98171   0.98181   0.98638   0.98834
 Alpha virt. eigenvalues --    0.98970   0.99030   0.99030   0.99120   0.99394
 Alpha virt. eigenvalues --    0.99568   0.99568   0.99728   0.99729   1.00633
 Alpha virt. eigenvalues --    1.00633   1.00796   1.00984   1.01192   1.01192
 Alpha virt. eigenvalues --    1.01320   1.01320   1.01705   1.02421   1.02517
 Alpha virt. eigenvalues --    1.02517   1.02966   1.03110   1.03113   1.03113
 Alpha virt. eigenvalues --    1.03649   1.03649   1.03671   1.03721   1.03721
 Alpha virt. eigenvalues --    1.04661   1.04661   1.04923   1.04923   1.05732
 Alpha virt. eigenvalues --    1.05953   1.05953   1.06255   1.06305   1.06305
 Alpha virt. eigenvalues --    1.06596   1.06638   1.06839   1.07311   1.07311
 Alpha virt. eigenvalues --    1.07445   1.07884   1.07913   1.08661   1.08661
 Alpha virt. eigenvalues --    1.08753   1.09078   1.09078   1.09119   1.09466
 Alpha virt. eigenvalues --    1.09700   1.09851   1.09851   1.09943   1.10441
 Alpha virt. eigenvalues --    1.10867   1.11018   1.11093   1.11093   1.12105
 Alpha virt. eigenvalues --    1.12692   1.12796   1.12796   1.12849   1.13423
 Alpha virt. eigenvalues --    1.13423   1.13951   1.13951   1.14297   1.14477
 Alpha virt. eigenvalues --    1.14519   1.14704   1.14962   1.14977   1.15751
 Alpha virt. eigenvalues --    1.15907   1.15907   1.16309   1.16309   1.16411
 Alpha virt. eigenvalues --    1.17610   1.17661   1.17985   1.18202   1.18226
 Alpha virt. eigenvalues --    1.18442   1.18713   1.18810   1.18810   1.18946
 Alpha virt. eigenvalues --    1.19521   1.19536   1.20339   1.20339   1.20370
 Alpha virt. eigenvalues --    1.20885   1.21500   1.21500   1.22451   1.22827
 Alpha virt. eigenvalues --    1.22827   1.23020   1.23168   1.23168   1.23997
 Alpha virt. eigenvalues --    1.23997   1.24301   1.24521   1.24716   1.24798
 Alpha virt. eigenvalues --    1.24886   1.24896   1.24896   1.25967   1.26002
 Alpha virt. eigenvalues --    1.26002   1.26135   1.26148   1.26541   1.26762
 Alpha virt. eigenvalues --    1.26762   1.26922   1.27776   1.27855   1.27972
 Alpha virt. eigenvalues --    1.27972   1.28478   1.28478   1.28806   1.28922
 Alpha virt. eigenvalues --    1.28922   1.28947   1.29428   1.29552   1.29552
 Alpha virt. eigenvalues --    1.30295   1.30371   1.30371   1.30441   1.30598
 Alpha virt. eigenvalues --    1.31397   1.31397   1.31595   1.31672   1.31672
 Alpha virt. eigenvalues --    1.31728   1.31769   1.32843   1.33308   1.33308
 Alpha virt. eigenvalues --    1.33741   1.33742   1.34443   1.35162   1.35162
 Alpha virt. eigenvalues --    1.35520   1.35799   1.35799   1.35810   1.36536
 Alpha virt. eigenvalues --    1.36574   1.36776   1.36897   1.36897   1.37198
 Alpha virt. eigenvalues --    1.37332   1.37803   1.37803   1.37846   1.38236
 Alpha virt. eigenvalues --    1.38678   1.38956   1.38956   1.39333   1.39365
 Alpha virt. eigenvalues --    1.39365   1.39402   1.39686   1.40056   1.40056
 Alpha virt. eigenvalues --    1.40227   1.40227   1.40714   1.41189   1.41399
 Alpha virt. eigenvalues --    1.41592   1.41735   1.42164   1.42589   1.42590
 Alpha virt. eigenvalues --    1.42722   1.42915   1.42915   1.43194   1.43334
 Alpha virt. eigenvalues --    1.43334   1.43335   1.43391   1.43852   1.44007
 Alpha virt. eigenvalues --    1.44498   1.44498   1.44950   1.45241   1.45430
 Alpha virt. eigenvalues --    1.45430   1.45510   1.46078   1.46078   1.46834
 Alpha virt. eigenvalues --    1.46834   1.46917   1.47066   1.47066   1.47100
 Alpha virt. eigenvalues --    1.47253   1.47431   1.48006   1.48213   1.48213
 Alpha virt. eigenvalues --    1.48350   1.48526   1.49088   1.49111   1.49111
 Alpha virt. eigenvalues --    1.49650   1.49796   1.49796   1.50138   1.50246
 Alpha virt. eigenvalues --    1.50690   1.51007   1.51008   1.51135   1.51135
 Alpha virt. eigenvalues --    1.51527   1.51685   1.51685   1.52153   1.52674
 Alpha virt. eigenvalues --    1.53105   1.53105   1.53316   1.53316   1.53939
 Alpha virt. eigenvalues --    1.54122   1.54122   1.54386   1.54648   1.54670
 Alpha virt. eigenvalues --    1.54802   1.55124   1.55541   1.55541   1.55877
 Alpha virt. eigenvalues --    1.56088   1.56349   1.56592   1.57781   1.58072
 Alpha virt. eigenvalues --    1.58072   1.58093   1.58093   1.58620   1.58778
 Alpha virt. eigenvalues --    1.59172   1.59172   1.59252   1.59252   1.59638
 Alpha virt. eigenvalues --    1.59736   1.60150   1.60230   1.60241   1.60469
 Alpha virt. eigenvalues --    1.60469   1.61452   1.61576   1.61576   1.62411
 Alpha virt. eigenvalues --    1.62517   1.62517   1.62887   1.63228   1.63338
 Alpha virt. eigenvalues --    1.63338   1.63937   1.64140   1.64140   1.64530
 Alpha virt. eigenvalues --    1.65138   1.65292   1.65301   1.65301   1.65740
 Alpha virt. eigenvalues --    1.65768   1.66286   1.66286   1.66577   1.67168
 Alpha virt. eigenvalues --    1.67981   1.67981   1.68383   1.68423   1.68423
 Alpha virt. eigenvalues --    1.68507   1.68507   1.68896   1.69079   1.69079
 Alpha virt. eigenvalues --    1.69240   1.69240   1.69310   1.69449   1.70143
 Alpha virt. eigenvalues --    1.70456   1.70467   1.71070   1.71337   1.71501
 Alpha virt. eigenvalues --    1.71501   1.71560   1.71978   1.71978   1.72291
 Alpha virt. eigenvalues --    1.72547   1.72567   1.73195   1.73195   1.73228
 Alpha virt. eigenvalues --    1.73871   1.73873   1.73924   1.73924   1.74012
 Alpha virt. eigenvalues --    1.74867   1.75038   1.75116   1.75742   1.75742
 Alpha virt. eigenvalues --    1.75882   1.75882   1.75962   1.76305   1.76325
 Alpha virt. eigenvalues --    1.76776   1.76981   1.76981   1.77303   1.77312
 Alpha virt. eigenvalues --    1.77396   1.77732   1.77733   1.77968   1.78272
 Alpha virt. eigenvalues --    1.78307   1.78307   1.79590   1.79675   1.79675
 Alpha virt. eigenvalues --    1.80247   1.80869   1.81042   1.81042   1.81058
 Alpha virt. eigenvalues --    1.81696   1.81696   1.81792   1.82147   1.82386
 Alpha virt. eigenvalues --    1.82386   1.82440   1.82937   1.83142   1.83142
 Alpha virt. eigenvalues --    1.83475   1.83508   1.83508   1.83622   1.83668
 Alpha virt. eigenvalues --    1.83860   1.84073   1.84158   1.84158   1.84692
 Alpha virt. eigenvalues --    1.84946   1.85108   1.85108   1.86007   1.86031
 Alpha virt. eigenvalues --    1.86031   1.86090   1.86230   1.86417   1.86417
 Alpha virt. eigenvalues --    1.86694   1.86828   1.86828   1.87101   1.87101
 Alpha virt. eigenvalues --    1.87393   1.87798   1.88395   1.88395   1.88520
 Alpha virt. eigenvalues --    1.88521   1.88646   1.88771   1.88779   1.89520
 Alpha virt. eigenvalues --    1.89743   1.89784   1.90541   1.90639   1.90796
 Alpha virt. eigenvalues --    1.91096   1.91096   1.91762   1.91789   1.91921
 Alpha virt. eigenvalues --    1.91921   1.91994   1.92361   1.93106   1.93106
 Alpha virt. eigenvalues --    1.93247   1.94378   1.94378   1.94867   1.94867
 Alpha virt. eigenvalues --    1.95110   1.95333   1.96142   1.96222   1.96241
 Alpha virt. eigenvalues --    1.96241   1.96734   1.96734   1.96995   1.97172
 Alpha virt. eigenvalues --    1.97335   1.97335   1.97506   1.97827   1.98193
 Alpha virt. eigenvalues --    1.98515   1.98701   1.98968   1.98968   2.00233
 Alpha virt. eigenvalues --    2.00904   2.00904   2.01253   2.02016   2.02016
 Alpha virt. eigenvalues --    2.03481   2.03819   2.04111   2.04111   2.04146
 Alpha virt. eigenvalues --    2.04146   2.04611   2.05337   2.05337   2.05360
 Alpha virt. eigenvalues --    2.05981   2.06252   2.06252   2.07814   2.07836
 Alpha virt. eigenvalues --    2.09149   2.09257   2.09258   2.09261   2.09549
 Alpha virt. eigenvalues --    2.09937   2.09937   2.10109   2.10109   2.10254
 Alpha virt. eigenvalues --    2.10461   2.10667   2.11500   2.11565   2.11565
 Alpha virt. eigenvalues --    2.11817   2.11914   2.11914   2.12003   2.13089
 Alpha virt. eigenvalues --    2.13962   2.14480   2.14571   2.14571   2.15020
 Alpha virt. eigenvalues --    2.15020   2.15826   2.15832   2.16805   2.16805
 Alpha virt. eigenvalues --    2.17023   2.17208   2.17648   2.18312   2.18524
 Alpha virt. eigenvalues --    2.18590   2.18590   2.18921   2.20060   2.20060
 Alpha virt. eigenvalues --    2.20200   2.20200   2.20546   2.20546   2.21073
 Alpha virt. eigenvalues --    2.21073   2.21102   2.21511   2.22178   2.22475
 Alpha virt. eigenvalues --    2.23218   2.23698   2.24768   2.24948   2.25220
 Alpha virt. eigenvalues --    2.26241   2.26241   2.26424   2.26497   2.26497
 Alpha virt. eigenvalues --    2.26585   2.27046   2.27483   2.27483   2.27766
 Alpha virt. eigenvalues --    2.27766   2.28054   2.30028   2.30028   2.30741
 Alpha virt. eigenvalues --    2.31146   2.31323   2.31323   2.31326   2.31599
 Alpha virt. eigenvalues --    2.31623   2.31623   2.33060   2.33171   2.33326
 Alpha virt. eigenvalues --    2.33326   2.34095   2.34355   2.34355   2.35193
 Alpha virt. eigenvalues --    2.35689   2.35689   2.36108   2.36737   2.37141
 Alpha virt. eigenvalues --    2.37565   2.37866   2.37866   2.37959   2.38815
 Alpha virt. eigenvalues --    2.38896   2.38896   2.38955   2.39240   2.39405
 Alpha virt. eigenvalues --    2.39405   2.40028   2.40028   2.40180   2.40336
 Alpha virt. eigenvalues --    2.40368   2.40495   2.40778   2.40974   2.41133
 Alpha virt. eigenvalues --    2.42117   2.42619   2.42619   2.42746   2.42746
 Alpha virt. eigenvalues --    2.43804   2.43804   2.44295   2.44429   2.45085
 Alpha virt. eigenvalues --    2.45597   2.45762   2.45762   2.46332   2.46680
 Alpha virt. eigenvalues --    2.46740   2.46740   2.47040   2.47040   2.47187
 Alpha virt. eigenvalues --    2.47199   2.47199   2.48031   2.48309   2.48309
 Alpha virt. eigenvalues --    2.48643   2.48643   2.48757   2.49292   2.49969
 Alpha virt. eigenvalues --    2.50691   2.51693   2.52475   2.52475   2.52844
 Alpha virt. eigenvalues --    2.52844   2.52892   2.52892   2.53434   2.53468
 Alpha virt. eigenvalues --    2.53607   2.53607   2.54140   2.54590   2.54590
 Alpha virt. eigenvalues --    2.54847   2.55541   2.55541   2.55827   2.56061
 Alpha virt. eigenvalues --    2.56144   2.56144   2.56155   2.56345   2.56502
 Alpha virt. eigenvalues --    2.56631   2.56804   2.57836   2.57836   2.58204
 Alpha virt. eigenvalues --    2.58425   2.58706   2.58706   2.59471   2.59471
 Alpha virt. eigenvalues --    2.59552   2.61239   2.61319   2.61637   2.61748
 Alpha virt. eigenvalues --    2.62067   2.62067   2.62671   2.62744   2.63431
 Alpha virt. eigenvalues --    2.64386   2.64386   2.64999   2.67508   2.67508
 Alpha virt. eigenvalues --    2.67948   2.68381   2.69471   2.69709   2.69709
 Alpha virt. eigenvalues --    2.70049   2.70352   2.70469   2.70469   2.70598
 Alpha virt. eigenvalues --    2.72287   2.73023   2.73618   2.73688   2.73832
 Alpha virt. eigenvalues --    2.73832   2.75032   2.75066   2.75066   2.76426
 Alpha virt. eigenvalues --    2.76426   2.76439   2.76507   2.76743   2.76743
 Alpha virt. eigenvalues --    2.77039   2.77088   2.77204   2.77608   2.77812
 Alpha virt. eigenvalues --    2.78076   2.78076   2.78164   2.78164   2.78355
 Alpha virt. eigenvalues --    2.78391   2.78965   2.78965   2.78990   2.79046
 Alpha virt. eigenvalues --    2.79470   2.79470   2.80002   2.80002   2.80235
 Alpha virt. eigenvalues --    2.80346   2.81097   2.81097   2.81164   2.81300
 Alpha virt. eigenvalues --    2.81300   2.81848   2.82287   2.83811   2.84084
 Alpha virt. eigenvalues --    2.84850   2.85386   2.85772   2.85772   2.85967
 Alpha virt. eigenvalues --    2.86249   2.86282   2.86282   2.88436   2.88823
 Alpha virt. eigenvalues --    2.88823   2.89382   2.89429   2.89638   2.89793
 Alpha virt. eigenvalues --    2.89793   2.91304   2.91739   2.92378   2.92378
 Alpha virt. eigenvalues --    2.92508   2.92523   2.92754   2.93533   2.93533
 Alpha virt. eigenvalues --    2.94022   2.94022   2.94724   2.95548   2.95560
 Alpha virt. eigenvalues --    2.95729   2.95916   2.96042   2.96102   2.96102
 Alpha virt. eigenvalues --    2.96883   2.97460   2.97474   2.97474   2.97491
 Alpha virt. eigenvalues --    2.97491   2.98121   2.98645   2.99005   2.99382
 Alpha virt. eigenvalues --    2.99382   2.99399   2.99683   2.99800   2.99800
 Alpha virt. eigenvalues --    2.99898   3.01313   3.01313   3.01374   3.02830
 Alpha virt. eigenvalues --    3.02931   3.03451   3.03451   3.03564   3.03724
 Alpha virt. eigenvalues --    3.03883   3.03883   3.04492   3.04570   3.04822
 Alpha virt. eigenvalues --    3.04822   3.05496   3.05496   3.05640   3.05977
 Alpha virt. eigenvalues --    3.06254   3.06254   3.06280   3.06633   3.06633
 Alpha virt. eigenvalues --    3.06736   3.06988   3.07598   3.07918   3.07918
 Alpha virt. eigenvalues --    3.08188   3.09163   3.09163   3.09195   3.09195
 Alpha virt. eigenvalues --    3.09495   3.09874   3.10391   3.10923   3.11273
 Alpha virt. eigenvalues --    3.11398   3.11398   3.12173   3.12305   3.12305
 Alpha virt. eigenvalues --    3.13570   3.14268   3.14268   3.14544   3.14544
 Alpha virt. eigenvalues --    3.14755   3.15033   3.15110   3.15158   3.15304
 Alpha virt. eigenvalues --    3.15304   3.15813   3.15951   3.17274   3.17401
 Alpha virt. eigenvalues --    3.17401   3.17532   3.17578   3.17830   3.18001
 Alpha virt. eigenvalues --    3.18001   3.18479   3.18698   3.18698   3.18760
 Alpha virt. eigenvalues --    3.18820   3.18908   3.19353   3.19358   3.19358
 Alpha virt. eigenvalues --    3.19832   3.20300   3.20300   3.20913   3.21479
 Alpha virt. eigenvalues --    3.21680   3.21967   3.22014   3.22014   3.22509
 Alpha virt. eigenvalues --    3.22617   3.22787   3.22853   3.22853   3.23274
 Alpha virt. eigenvalues --    3.23274   3.23870   3.23870   3.23899   3.24115
 Alpha virt. eigenvalues --    3.24590   3.24718   3.24748   3.25268   3.25268
 Alpha virt. eigenvalues --    3.25385   3.25385   3.25927   3.26463   3.26463
 Alpha virt. eigenvalues --    3.26853   3.27184   3.27307   3.27837   3.28410
 Alpha virt. eigenvalues --    3.28411   3.28932   3.29320   3.29320   3.29746
 Alpha virt. eigenvalues --    3.30744   3.30744   3.30845   3.31020   3.31369
 Alpha virt. eigenvalues --    3.31369   3.32050   3.32288   3.32415   3.32713
 Alpha virt. eigenvalues --    3.32908   3.32908   3.33551   3.33551   3.34624
 Alpha virt. eigenvalues --    3.34624   3.34983   3.35150   3.35224   3.35238
 Alpha virt. eigenvalues --    3.35238   3.35402   3.35422   3.35607   3.35737
 Alpha virt. eigenvalues --    3.36694   3.36812   3.37140   3.37187   3.37254
 Alpha virt. eigenvalues --    3.37254   3.37352   3.37352   3.38044   3.39109
 Alpha virt. eigenvalues --    3.39866   3.39866   3.40115   3.40274   3.40392
 Alpha virt. eigenvalues --    3.40849   3.41131   3.41131   3.41200   3.41245
 Alpha virt. eigenvalues --    3.41245   3.41563   3.41563   3.42083   3.42259
 Alpha virt. eigenvalues --    3.42537   3.42537   3.42705   3.43111   3.43336
 Alpha virt. eigenvalues --    3.43336   3.43726   3.43726   3.45058   3.45534
 Alpha virt. eigenvalues --    3.46017   3.46586   3.46654   3.46654   3.46824
 Alpha virt. eigenvalues --    3.46843   3.47224   3.47261   3.47261   3.48452
 Alpha virt. eigenvalues --    3.48731   3.48731   3.49260   3.50040   3.50040
 Alpha virt. eigenvalues --    3.50231   3.50273   3.50598   3.50959   3.50959
 Alpha virt. eigenvalues --    3.51164   3.51164   3.51646   3.51737   3.52098
 Alpha virt. eigenvalues --    3.52493   3.52968   3.53315   3.53315   3.53316
 Alpha virt. eigenvalues --    3.53674   3.53674   3.54121   3.54256   3.54256
 Alpha virt. eigenvalues --    3.54322   3.55420   3.55450   3.56351   3.56351
 Alpha virt. eigenvalues --    3.56579   3.58262   3.58418   3.58418   3.59025
 Alpha virt. eigenvalues --    3.59043   3.59043   3.59317   3.59891   3.59891
 Alpha virt. eigenvalues --    3.60130   3.60300   3.60300   3.60503   3.61379
 Alpha virt. eigenvalues --    3.61568   3.61568   3.62023   3.62114   3.62234
 Alpha virt. eigenvalues --    3.62834   3.62834   3.63104   3.63104   3.63369
 Alpha virt. eigenvalues --    3.63403   3.63552   3.63700   3.64499   3.64682
 Alpha virt. eigenvalues --    3.65485   3.65485   3.65975   3.65975   3.66110
 Alpha virt. eigenvalues --    3.66318   3.66491   3.66636   3.66636   3.68362
 Alpha virt. eigenvalues --    3.68362   3.69045   3.69143   3.69489   3.69489
 Alpha virt. eigenvalues --    3.69494   3.69695   3.70552   3.70552   3.70900
 Alpha virt. eigenvalues --    3.70919   3.71957   3.72012   3.72903   3.73356
 Alpha virt. eigenvalues --    3.73356   3.74228   3.75114   3.75169   3.75440
 Alpha virt. eigenvalues --    3.75440   3.76168   3.76587   3.76711   3.76711
 Alpha virt. eigenvalues --    3.76954   3.76954   3.77000   3.77166   3.77277
 Alpha virt. eigenvalues --    3.77277   3.77820   3.77820   3.78664   3.80095
 Alpha virt. eigenvalues --    3.81708   3.82285   3.82285   3.82344   3.82499
 Alpha virt. eigenvalues --    3.82499   3.82507   3.83618   3.83618   3.84667
 Alpha virt. eigenvalues --    3.85929   3.85929   3.85943   3.85943   3.86387
 Alpha virt. eigenvalues --    3.86615   3.86615   3.86963   3.87250   3.87650
 Alpha virt. eigenvalues --    3.88009   3.88394   3.88996   3.89055   3.89321
 Alpha virt. eigenvalues --    3.91432   3.91963   3.93352   3.94173   3.94173
 Alpha virt. eigenvalues --    3.96038   3.96038   3.98325   3.98325   3.99009
 Alpha virt. eigenvalues --    3.99856   4.00239   4.00239   4.01791   4.02099
 Alpha virt. eigenvalues --    4.02585   4.02951   4.03356   4.03607   4.03607
 Alpha virt. eigenvalues --    4.03709   4.03709   4.05248   4.05937   4.07151
 Alpha virt. eigenvalues --    4.07244   4.07244   4.08606   4.08856   4.08856
 Alpha virt. eigenvalues --    4.09133   4.09814   4.09814   4.10204   4.10599
 Alpha virt. eigenvalues --    4.10708   4.10708   4.11728   4.11728   4.12574
 Alpha virt. eigenvalues --    4.13453   4.13951   4.13951   4.14105   4.14127
 Alpha virt. eigenvalues --    4.16588   4.17355   4.18113   4.18561   4.22747
 Alpha virt. eigenvalues --    4.22747   4.22871   4.22871   4.23528   4.25214
 Alpha virt. eigenvalues --    4.25923   4.25923   4.27671   4.27932   4.28446
 Alpha virt. eigenvalues --    4.29338   4.29338   4.29971   4.32577   4.32577
 Alpha virt. eigenvalues --    4.34282   4.35173   4.35500   4.35898   4.35898
 Alpha virt. eigenvalues --    4.36248   4.36248   4.37473   4.38599   4.38881
 Alpha virt. eigenvalues --    4.40156   4.40183   4.41298   4.41664   4.41664
 Alpha virt. eigenvalues --    4.42157   4.42157   4.43330   4.43775   4.44720
 Alpha virt. eigenvalues --    4.44720   4.46915   4.47607   4.50178   4.50178
 Alpha virt. eigenvalues --    4.51201   4.51201   4.51426   4.51976   4.52627
 Alpha virt. eigenvalues --    4.61927   4.62369   4.62369   4.63949   4.63949
 Alpha virt. eigenvalues --    4.64020   4.64673   4.65505   4.67435   4.67530
 Alpha virt. eigenvalues --    4.71234   4.75321   4.75770   4.75770   4.80638
 Alpha virt. eigenvalues --    4.80638   4.81100   4.81367   4.81367   4.81389
 Alpha virt. eigenvalues --    4.84014   4.84795   4.86240   4.88519   4.88519
 Alpha virt. eigenvalues --    4.88793   4.91765   4.91870   4.91870   4.95487
 Alpha virt. eigenvalues --    4.96285   4.96285   4.96903   4.99081   5.01182
 Alpha virt. eigenvalues --    5.03153   5.03202   5.03202   5.05136   5.05136
 Alpha virt. eigenvalues --    5.05401   5.05516   5.06491   5.06491   5.07693
 Alpha virt. eigenvalues --    5.07702   5.08420   5.08761   5.11537   5.11537
 Alpha virt. eigenvalues --    5.12043   5.13588   5.14921   5.14921   5.16501
 Alpha virt. eigenvalues --    5.19490   5.19490   5.20129   5.20129   5.21895
 Alpha virt. eigenvalues --    5.23129   5.23129   5.24488   5.30955   5.32567
 Alpha virt. eigenvalues --    5.33182   5.33184   5.33184   5.37668   5.37668
 Alpha virt. eigenvalues --    5.39332   5.40481   5.40891   5.40891   5.43894
 Alpha virt. eigenvalues --    5.44031   5.44031   5.45588   5.46811   5.46811
 Alpha virt. eigenvalues --    5.48429   5.48429   5.51118   5.51338   5.55280
 Alpha virt. eigenvalues --    5.57884   5.67213   5.67227   5.67412   5.67412
 Alpha virt. eigenvalues --    5.68531   5.72490   5.72490   5.73513   5.93754
 Alpha virt. eigenvalues --    5.96946   5.97864   5.99436   6.10686   6.14114
 Alpha virt. eigenvalues --    6.58961   6.59255   6.59668   6.59832   6.60704
 Alpha virt. eigenvalues --    6.60829   6.62077   6.62077   6.62379   6.62379
 Alpha virt. eigenvalues --    6.75092   6.75092   6.76343   6.76343  21.62958
 Alpha virt. eigenvalues --   21.73539  21.73539  21.77109  21.92122  21.94195
 Alpha virt. eigenvalues --   21.97613  21.97613  21.98955  22.01265  22.01265
 Alpha virt. eigenvalues --   22.08823  22.11425  22.18217  22.18689  22.18689
 Alpha virt. eigenvalues --   22.20298  22.20298  22.21708  22.22212  22.22212
 Alpha virt. eigenvalues --   22.22346  22.24818  22.27330  22.27839  22.28480
 Alpha virt. eigenvalues --   22.28480  22.28726  22.30008  22.31366  22.31366
 Alpha virt. eigenvalues --   22.37004  22.48053  22.48053  22.48391  22.48934
 Alpha virt. eigenvalues --   22.54143  22.54143  22.54375  22.55734  22.56749
 Alpha virt. eigenvalues --   22.57828  22.57828  22.60256  22.61747  22.65178
 Alpha virt. eigenvalues --   22.65618  22.65618  22.66581  22.71273  22.71273
 Alpha virt. eigenvalues --   22.73495  22.76878  22.79532  22.79532  22.84883
 Alpha virt. eigenvalues --   23.31420  23.33618  23.34453  23.34453  23.36047
 Alpha virt. eigenvalues --   23.36047  23.40775  23.41938  32.14236  32.14236
 Alpha virt. eigenvalues --   32.18926  32.21176  32.23168  32.23168  32.50855
 Alpha virt. eigenvalues --   32.52025  32.56206  32.56206  32.56501  32.60466
 Alpha virt. eigenvalues --   32.63391  32.63391  32.65570  32.73473
          Condensed to atoms (all electrons):
 Mulliken charges:
               1
     1  C   -0.079992
     2  C   -0.079990
     3  C   -0.234696
     4  C    0.091869
     5  C    0.091867
     6  C   -0.234700
     7  C    0.401161
     8  C    0.401167
     9  N   -0.261558
    10  N   -0.557713
    11  N   -0.557713
    12  H    0.115670
    13  H    0.115670
    14  H    0.130800
    15  H    0.130799
    16  C   -0.079994
    17  C   -0.079989
    18  C   -0.234692
    19  C    0.091866
    20  C    0.091867
    21  C   -0.234700
    22  C    0.401161
    23  C    0.401169
    24  N   -0.261558
    25  N   -0.557713
    26  H    0.115670
    27  H    0.115670
    28  H    0.130800
    29  H    0.130800
    30  C   -0.079989
    31  C   -0.079992
    32  C   -0.234700
    33  C    0.091869
    34  C    0.091870
    35  C   -0.234697
    36  C    0.401164
    37  C    0.401163
    38  N   -0.261558
    39  N   -0.557713
    40  H    0.115671
    41  H    0.115670
    42  H    0.130799
    43  H    0.130800
    44  C   -0.079989
    45  C   -0.079994
    46  C   -0.234698
    47  C    0.091867
    48  C    0.091866
    49  C   -0.234693
    50  C    0.401167
    51  C    0.401164
    52  N   -0.261557
    53  H    0.115671
    54  H    0.115670
    55  H    0.130800
    56  H    0.130800
    57  Zn  -0.121428
    58  C   -0.079991
    59  C   -0.079989
    60  C   -0.234700
    61  C    0.091873
    62  C    0.091866
    63  C   -0.234699
    64  C    0.401161
    65  C    0.401167
    66  N   -0.261558
    67  N   -0.557712
    68  N   -0.557713
    69  H    0.115670
    70  H    0.115671
    71  H    0.130800
    72  H    0.130800
    73  C   -0.079991
    74  C   -0.079990
    75  C   -0.234696
    76  C    0.091863
    77  C    0.091875
    78  C   -0.234699
    79  C    0.401165
    80  C    0.401161
    81  N   -0.261558
    82  N   -0.557713
    83  H    0.115670
    84  H    0.115670
    85  H    0.130800
    86  H    0.130799
    87  C   -0.079992
    88  C   -0.079989
    89  C   -0.234696
    90  C    0.091862
    91  C    0.091876
    92  C   -0.234699
    93  C    0.401166
    94  C    0.401160
    95  N   -0.261558
    96  N   -0.557713
    97  H    0.115670
    98  H    0.115670
    99  H    0.130800
   100  H    0.130799
   101  C   -0.079989
   102  C   -0.079993
   103  C   -0.234698
   104  C    0.091870
   105  C    0.091866
   106  C   -0.234695
   107  C    0.401162
   108  C    0.401164
   109  N   -0.261558
   110  H    0.115670
   111  H    0.115670
   112  H    0.130799
   113  H    0.130800
   114  Zn  -0.121429
 Sum of Mulliken charges =  -0.00000
 Mulliken charges with hydrogens summed into heavy atoms:
               1
     1  C    0.035679
     2  C    0.035681
     3  C   -0.103897
     4  C    0.091869
     5  C    0.091867
     6  C   -0.103900
     7  C    0.401161
     8  C    0.401167
     9  N   -0.261558
    10  N   -0.557713
    11  N   -0.557713
    16  C    0.035677
    17  C    0.035681
    18  C   -0.103892
    19  C    0.091866
    20  C    0.091867
    21  C   -0.103900
    22  C    0.401161
    23  C    0.401169
    24  N   -0.261558
    25  N   -0.557713
    30  C    0.035682
    31  C    0.035678
    32  C   -0.103900
    33  C    0.091869
    34  C    0.091870
    35  C   -0.103898
    36  C    0.401164
    37  C    0.401163
    38  N   -0.261558
    39  N   -0.557713
    44  C    0.035681
    45  C    0.035676
    46  C   -0.103899
    47  C    0.091867
    48  C    0.091866
    49  C   -0.103893
    50  C    0.401167
    51  C    0.401164
    52  N   -0.261557
    57  Zn  -0.121428
    58  C    0.035679
    59  C    0.035681
    60  C   -0.103900
    61  C    0.091873
    62  C    0.091866
    63  C   -0.103900
    64  C    0.401161
    65  C    0.401167
    66  N   -0.261558
    67  N   -0.557712
    68  N   -0.557713
    73  C    0.035679
    74  C    0.035680
    75  C   -0.103896
    76  C    0.091863
    77  C    0.091875
    78  C   -0.103899
    79  C    0.401165
    80  C    0.401161
    81  N   -0.261558
    82  N   -0.557713
    87  C    0.035678
    88  C    0.035681
    89  C   -0.103896
    90  C    0.091862
    91  C    0.091876
    92  C   -0.103900
    93  C    0.401166
    94  C    0.401160
    95  N   -0.261558
    96  N   -0.557713
   101  C    0.035681
   102  C    0.035678
   103  C   -0.103899
   104  C    0.091870
   105  C    0.091866
   106  C   -0.103895
   107  C    0.401162
   108  C    0.401164
   109  N   -0.261558
   114  Zn  -0.121429
         Mulliken charges condensed to fragments:
      1      0.000000
      2     -0.000000
 Electronic spatial extent (au):  <R**2>=          50491.5189
 Charge=             -0.0000 electrons
 Dipole moment (field-independent basis, Debye):
    X=              0.0000    Y=              0.0000    Z=             -0.0000  Tot=              0.0000
 Quadrupole moment (field-independent basis, Debye-Ang):
   XX=           -422.5739   YY=           -422.5739   ZZ=           -502.2449
   XY=             -0.0000   XZ=             -0.0000   YZ=             -0.0000
 Traceless Quadrupole moment (field-independent basis, Debye-Ang):
   XX=             26.5570   YY=             26.5570   ZZ=            -53.1140
   XY=             -0.0000   XZ=             -0.0000   YZ=             -0.0000
 Octapole moment (field-independent basis, Debye-Ang**2):
  XXX=              0.0000  YYY=              0.0000  ZZZ=             -0.0000  XYY=             -0.0000
  XXY=              0.0000  XXZ=             -0.0000  XZZ=              0.0000  YZZ=              0.0000
  YYZ=             -0.0000  XYZ=              0.0000
 Hexadecapole moment (field-independent basis, Debye-Ang**3):
 XXXX=         -26982.1659 YYYY=         -26982.1659 ZZZZ=          -9748.3606 XXXY=             -0.0000
 XXXZ=             -0.0000 YYYX=              0.0000 YYYZ=              0.0000 ZZZX=             -0.0000
 ZZZY=              0.0000 XXYY=          -9697.7208 XXZZ=          -7164.8983 YYZZ=          -7164.8983
 XXYZ=             -0.0000 YYXZ=             -0.0000 ZZXY=             -0.0000
 N-N= 1.752238859342D+04 E-N=-5.131284690524D+04  KE= 6.867956805915D+03
 Leave Link  601 at Wed Apr 22 19:59:05 2026, MaxMem=  8589934592 cpu:         4.6
 (Enter /opt/g09/l122.exe)
 CPIOFr:  IOpCl= 0 IRwI=-1 IRwCP=  731 ICalc= -1 LCPTot=     7389475 Len1MO=    19550682 IndFrg=     7389475
 CPIOFr:  IOpCl= 0 IRwI=-1 IRwCP=  731 ICalc=  0 LCPTot=     7389475 Len1MO=    19550682 IndFrg=    26940157
 Counterpoise: doing DCBS calculation for fragment   1 NewBq=T
 Leave Link  122 at Wed Apr 22 19:59:05 2026, MaxMem=  8589934592 cpu:         1.4
 (Enter /opt/g09/l301.exe)
 Basis read from rwf:  (5D, 7F)
 No pseudopotential information found on rwf file.
  2208 basis functions,  3746 primitive gaussians,  2382 cartesian basis functions
   147 alpha electrons      147 beta electrons
       nuclear repulsion energy      5050.3623699626 Hartrees.
 IExCor=10402 DFT=T Ex=LC-B+HF Corr=LYP ExCW=0 ScaHFX=  1.000000
 ScaDFX=  1.000000  1.000000  1.000000  1.000000 ScalE2=  1.000000  1.000000
 IRadAn=      0 IRanWt=     -1 IRanGd=            0 ICorTp=0 IEmpDi=  4
  HFx wShort=  0.000000 wLong=  0.350000 cFull=  0.000000 cShort=  0.000000 cLong=  1.000000
  DFx wShort=  0.000000 wLong=  0.350000 cFull=  0.000000 cShort=  0.000000 cLong=  1.000000
 NAtoms=  114 NActive=  114 NUniq=  114 SFac= 1.00D+00 NAtFMM=   60 NAOKFM=T Big=T
 Integral buffers will be    131072 words long.
 Raffenetti 2 integral format.
 Two-electron integral symmetry is turned off.
 No density basis found on file   718.
 Leave Link  301 at Wed Apr 22 19:59:05 2026, MaxMem=  8589934592 cpu:         0.2
 (Enter /opt/g09/l302.exe)
 NPDir=0 NMtPBC=     1 NCelOv=     1 NCel=       1 NClECP=     1 NCelD=      1
         NCelK=      1 NCelE2=     1 NClLst=     1 CellRange=     0.0.
 One-electron integrals computed using PRISM.
 NBasis=  2208 RedAO= T EigKep=  1.27D-06  NBF=  2208
 NBsUse=  2208 1.00D-06 EigRej= -1.00D+00 NBFU=  2208
 Precomputing XC quadrature grid using
 IXCGrd= 4 IRadAn=           0 IRanWt=          -1 IRanGd=           0 AccXCQ= 0.00D+00.
 Generated NRdTot=       0 NPtTot=           0 NUsed=           0 NTot=          32
 NSgBfM=  1912  1912  1912  1912  1912 MxSgAt=   114 MxSgA2=   114.
 Leave Link  302 at Wed Apr 22 19:59:13 2026, MaxMem=  8589934592 cpu:        59.0
 (Enter /opt/g09/l303.exe)
 DipDrv:  MaxL=1.
 Leave Link  303 at Wed Apr 22 19:59:13 2026, MaxMem=  8589934592 cpu:         4.4
 (Enter /opt/g09/l401.exe)
 ExpMin= 4.78D-02 ExpMax= 4.06D+05 ExpMxC= 3.92D+03 IAcc=2 IRadAn=         4 AccDes= 0.00D+00
 Harris functional with IExCor=10402 and IRadAn=       4 diagonalized for initial guess.
 HarFok:  IExCor=10402 AccDes= 0.00D+00 IRadAn=         4 IDoV= 1 UseB2=F ITyADJ=14
 ICtDFT=  3500011 ScaDFX=  1.000000  1.000000  1.000000  1.000000
 FoFCou: FMM=F IPFlag=           0 FMFlag=      100000 FMFlg1=        2001
         NFxFlg=           0 DoJE=T BraDBF=F KetDBF=T FulRan=T
         wScrn=  0.000000 ICntrl=     500 IOpCl=  0 I1Cent=   200000004 NGrid=           0
         NMat0=    1 NMatS0=      1 NMatT0=    0 NMatD0=    1 NMtDS0=    0 NMtDT0=    0
 Symmetry not used in FoFCou.
 Harris En= -3390.30085045307    
 JPrj=0 DoOrth=F DoCkMO=F.
 Leave Link  401 at Wed Apr 22 19:59:30 2026, MaxMem=  8589934592 cpu:       136.2
 (Enter /opt/g09/l502.exe)
 Closed shell SCF:
 Using DIIS extrapolation, IDIIS=  1040.
 Two-electron integral symmetry not used.
 IVT=    17073898 IEndB=    17073898 NGot=  8589934592 MDV=  8578553641
 LenX=  8578553641 LenY=  8572877335
 Requested convergence on RMS density matrix=1.00D-08 within 128 cycles.
 Requested convergence on MAX density matrix=1.00D-06.
 Requested convergence on             energy=1.00D-06.
 No special actions if energy rises.
 Fock matrices will be formed incrementally for  20 cycles.

 Cycle   1  Pass 1  IDiag  1:
 FoFJK:  IHMeth= 1 ICntrl=       0 DoSepK=T KAlg= 0 I1Cent=   0 FoldK=F
 IRaf=         1 NMat=   1 IRICut=       1 DoRegI=T DoRafI=F ISym2E= 0.
 FoFCou: FMM=T IPFlag=           0 FMFlag=      100000 FMFlg1=        2001
         NFxFlg=           0 DoJE=T BraDBF=F KetDBF=F FulRan=T
         wScrn=  0.000000 ICntrl=     500 IOpCl=  0 I1Cent=           0 NGrid=           0
         NMat0=    1 NMatS0=      1 NMatT0=    0 NMatD0=    1 NMtDS0=    0 NMtDT0=    0
 Symmetry not used in FoFCou.
 FMM levels:  10  Number of levels for PrismC:   9
 E= -3441.97113380409    
 DIIS: error= 2.44D-02 at cycle   1 NSaved=   1.
 NSaved= 1 IEnMin= 1 EnMin= -3441.97113380409     IErMin= 1 ErrMin= 2.44D-02
 ErrMax= 2.44D-02  0.00D+00 EMaxC= 1.00D-01 BMatC= 1.09D+00 BMatP= 1.09D+00
 IDIUse=3 WtCom= 7.56D-01 WtEn= 2.44D-01
 Coeff-Com:  0.100D+01
 Coeff-En:   0.100D+01
 Coeff:      0.100D+01
 Gap=     0.621 Goal=   None    Shift=    0.000
 GapD=    0.621 DampG=2.000 DampE=0.250 DampFc=0.5000 IDamp=-1.
 Damping current iteration by 5.00D-01
 RMSDP=1.75D-03 MaxDP=2.33D-01              OVMax= 1.78D-01

 Cycle   2  Pass 1  IDiag  1:
 RMSU=  7.60D-04    CP:  9.01D-01
 E= -3442.23978038018     Delta-E=       -0.268646576082 Rises=F Damp=T
 DIIS: error= 9.03D-03 at cycle   2 NSaved=   2.
 NSaved= 2 IEnMin= 2 EnMin= -3442.23978038018     IErMin= 2 ErrMin= 9.03D-03
 ErrMax= 9.03D-03  0.00D+00 EMaxC= 1.00D-01 BMatC= 1.55D-01 BMatP= 1.09D+00
 IDIUse=3 WtCom= 9.10D-01 WtEn= 9.03D-02
 Coeff-Com:  0.187D+00 0.813D+00
 Coeff-En:   0.987D-01 0.901D+00
 Coeff:      0.179D+00 0.821D+00
 Gap=     0.190 Goal=   None    Shift=    0.000
 RMSDP=9.28D-04 MaxDP=1.63D-01 DE=-2.69D-01 OVMax= 9.09D-02

 Cycle   3  Pass 1  IDiag  1:
 RMSU=  4.32D-04    CP:  7.73D-01  1.79D+00
 E= -3442.57020157742     Delta-E=       -0.330421197248 Rises=F Damp=F
 DIIS: error= 4.09D-03 at cycle   3 NSaved=   3.
 NSaved= 3 IEnMin= 3 EnMin= -3442.57020157742     IErMin= 3 ErrMin= 4.09D-03
 ErrMax= 4.09D-03  0.00D+00 EMaxC= 1.00D-01 BMatC= 2.66D-02 BMatP= 1.55D-01
 IDIUse=3 WtCom= 9.59D-01 WtEn= 4.09D-02
 Coeff-Com:  0.255D-01 0.266D+00 0.708D+00
 Coeff-En:   0.000D+00 0.000D+00 0.100D+01
 Coeff:      0.245D-01 0.255D+00 0.720D+00
 Gap=     0.175 Goal=   None    Shift=    0.000
 RMSDP=1.55D-04 MaxDP=1.56D-02 DE=-3.30D-01 OVMax= 1.54D-02

 Cycle   4  Pass 1  IDiag  1:
 RMSU=  1.26D-04    CP:  7.63D-01  1.81D+00  1.18D+00
 E= -3442.58236343535     Delta-E=       -0.012161857927 Rises=F Damp=F
 DIIS: error= 2.01D-03 at cycle   4 NSaved=   4.
 NSaved= 4 IEnMin= 4 EnMin= -3442.58236343535     IErMin= 4 ErrMin= 2.01D-03
 ErrMax= 2.01D-03  0.00D+00 EMaxC= 1.00D-01 BMatC= 6.13D-03 BMatP= 2.66D-02
 IDIUse=3 WtCom= 9.80D-01 WtEn= 2.01D-02
 Coeff-Com:  0.528D-02 0.125D-01 0.321D+00 0.661D+00
 Coeff-En:   0.000D+00 0.000D+00 0.563D-01 0.944D+00
 Coeff:      0.517D-02 0.122D-01 0.316D+00 0.667D+00
 Gap=     0.177 Goal=   None    Shift=    0.000
 RMSDP=6.36D-05 MaxDP=8.00D-03 DE=-1.22D-02 OVMax= 1.51D-02

 Cycle   5  Pass 1  IDiag  1:
 RMSU=  4.64D-05    CP:  7.57D-01  1.84D+00  1.22D+00  1.18D+00
 E= -3442.58558668922     Delta-E=       -0.003223253869 Rises=F Damp=F
 DIIS: error= 2.91D-04 at cycle   5 NSaved=   5.
 NSaved= 5 IEnMin= 5 EnMin= -3442.58558668922     IErMin= 5 ErrMin= 2.91D-04
 ErrMax= 2.91D-04  0.00D+00 EMaxC= 1.00D-01 BMatC= 1.66D-04 BMatP= 6.13D-03
 IDIUse=3 WtCom= 9.97D-01 WtEn= 2.91D-03
 Coeff-Com: -0.538D-03-0.910D-02 0.511D-01 0.199D+00 0.759D+00
 Coeff-En:   0.000D+00 0.000D+00 0.000D+00 0.000D+00 0.100D+01
 Coeff:     -0.536D-03-0.908D-02 0.509D-01 0.199D+00 0.760D+00
 Gap=     0.177 Goal=   None    Shift=    0.000
 RMSDP=2.31D-05 MaxDP=2.03D-03 DE=-3.22D-03 OVMax= 3.52D-03

 Cycle   6  Pass 1  IDiag  1:
 RMSU=  1.64D-05    CP:  7.56D-01  1.85D+00  1.23D+00  1.24D+00  1.08D+00
 E= -3442.58577892933     Delta-E=       -0.000192240106 Rises=F Damp=F
 DIIS: error= 1.99D-04 at cycle   6 NSaved=   6.
 NSaved= 6 IEnMin= 6 EnMin= -3442.58577892933     IErMin= 6 ErrMin= 1.99D-04
 ErrMax= 1.99D-04  0.00D+00 EMaxC= 1.00D-01 BMatC= 2.16D-05 BMatP= 1.66D-04
 IDIUse=3 WtCom= 9.98D-01 WtEn= 1.99D-03
 Coeff-Com: -0.676D-03-0.456D-02-0.134D-01-0.315D-02 0.243D+00 0.779D+00
 Coeff-En:   0.000D+00 0.000D+00 0.000D+00 0.000D+00 0.000D+00 0.100D+01
 Coeff:     -0.675D-03-0.455D-02-0.133D-01-0.314D-02 0.243D+00 0.779D+00
 Gap=     0.178 Goal=   None    Shift=    0.000
 RMSDP=1.15D-05 MaxDP=1.54D-03 DE=-1.92D-04 OVMax= 2.38D-03

 Cycle   7  Pass 1  IDiag  1:
 RMSU=  4.79D-06    CP:  7.55D-01  1.85D+00  1.24D+00  1.30D+00  1.20D+00
                    CP:  1.19D+00
 E= -3442.58581352003     Delta-E=       -0.000034590708 Rises=F Damp=F
 DIIS: error= 6.59D-05 at cycle   7 NSaved=   7.
 NSaved= 7 IEnMin= 7 EnMin= -3442.58581352003     IErMin= 7 ErrMin= 6.59D-05
 ErrMax= 6.59D-05  0.00D+00 EMaxC= 1.00D-01 BMatC= 4.49D-06 BMatP= 2.16D-05
 IDIUse=1 WtCom= 1.00D+00 WtEn= 0.00D+00
 Coeff-Com: -0.118D-03-0.107D-02-0.125D-01-0.293D-01-0.103D-01 0.320D+00
 Coeff-Com:  0.734D+00
 Coeff:     -0.118D-03-0.107D-02-0.125D-01-0.293D-01-0.103D-01 0.320D+00
 Coeff:      0.734D+00
 Gap=     0.178 Goal=   None    Shift=    0.000
 RMSDP=4.20D-06 MaxDP=5.50D-04 DE=-3.46D-05 OVMax= 8.15D-04

 Cycle   8  Pass 1  IDiag  1:
 RMSU=  1.83D-06    CP:  7.55D-01  1.85D+00  1.24D+00  1.31D+00  1.24D+00
                    CP:  1.29D+00  1.11D+00
 E= -3442.58582086373     Delta-E=       -0.000007343699 Rises=F Damp=F
 DIIS: error= 1.72D-05 at cycle   8 NSaved=   8.
 NSaved= 8 IEnMin= 8 EnMin= -3442.58582086373     IErMin= 8 ErrMin= 1.72D-05
 ErrMax= 1.72D-05  0.00D+00 EMaxC= 1.00D-01 BMatC= 4.89D-07 BMatP= 4.49D-06
 IDIUse=1 WtCom= 1.00D+00 WtEn= 0.00D+00
 Coeff-Com:  0.106D-03-0.106D-04-0.253D-02-0.872D-02-0.359D-01 0.695D-02
 Coeff-Com:  0.238D+00 0.802D+00
 Coeff:      0.106D-03-0.106D-04-0.253D-02-0.872D-02-0.359D-01 0.695D-02
 Coeff:      0.238D+00 0.802D+00
 Gap=     0.178 Goal=   None    Shift=    0.000
 RMSDP=1.41D-06 MaxDP=1.30D-04 DE=-7.34D-06 OVMax= 3.50D-04

 Cycle   9  Pass 1  IDiag  1:
 RMSU=  7.30D-07    CP:  7.55D-01  1.85D+00  1.24D+00  1.32D+00  1.25D+00
                    CP:  1.32D+00  1.17D+00  1.24D+00
 E= -3442.58582194641     Delta-E=       -0.000001082677 Rises=F Damp=F
 DIIS: error= 7.82D-06 at cycle   9 NSaved=   9.
 NSaved= 9 IEnMin= 9 EnMin= -3442.58582194641     IErMin= 9 ErrMin= 7.82D-06
 ErrMax= 7.82D-06  0.00D+00 EMaxC= 1.00D-01 BMatC= 1.15D-07 BMatP= 4.89D-07
 IDIUse=1 WtCom= 1.00D+00 WtEn= 0.00D+00
 Coeff-Com:  0.786D-04 0.185D-03 0.815D-03 0.102D-02-0.144D-01-0.492D-01
 Coeff-Com: -0.123D-01 0.330D+00 0.744D+00
 Coeff:      0.786D-04 0.185D-03 0.815D-03 0.102D-02-0.144D-01-0.492D-01
 Coeff:     -0.123D-01 0.330D+00 0.744D+00
 Gap=     0.178 Goal=   None    Shift=    0.000
 DSYEVD-2 returned Info=     2443153 IAlg= 4 N=  2208 NDim=  2208 NE2=     3882642 trying  DSYEV.
 RMSDP=5.48D-07 MaxDP=6.06D-05 DE=-1.08D-06 OVMax= 1.88D-04

 Cycle  10  Pass 1  IDiag  1:
 RMSU=  2.63D-07    CP:  7.55D-01  1.85D+00  1.24D+00  1.32D+00  1.25D+00
                    CP:  1.33D+00  1.21D+00  1.42D+00  1.18D+00
 E= -3442.58582219977     Delta-E=       -0.000000253363 Rises=F Damp=F
 DIIS: error= 5.32D-06 at cycle  10 NSaved=  10.
 NSaved=10 IEnMin=10 EnMin= -3442.58582219977     IErMin=10 ErrMin= 5.32D-06
 ErrMax= 5.32D-06  0.00D+00 EMaxC= 1.00D-01 BMatC= 2.49D-08 BMatP= 1.15D-07
 IDIUse=1 WtCom= 1.00D+00 WtEn= 0.00D+00
 Coeff-Com: -0.189D-05 0.962D-04 0.109D-02 0.335D-02 0.491D-02-0.217D-01
 Coeff-Com: -0.707D-01-0.102D+00 0.290D+00 0.894D+00
 Coeff:     -0.189D-05 0.962D-04 0.109D-02 0.335D-02 0.491D-02-0.217D-01
 Coeff:     -0.707D-01-0.102D+00 0.290D+00 0.894D+00
 Gap=     0.178 Goal=   None    Shift=    0.000
 RMSDP=3.43D-07 MaxDP=3.42D-05 DE=-2.53D-07 OVMax= 1.20D-04

 Cycle  11  Pass 1  IDiag  1:
 RMSU=  1.96D-07    CP:  7.55D-01  1.85D+00  1.24D+00  1.32D+00  1.26D+00
                    CP:  1.33D+00  1.22D+00  1.49D+00  1.42D+00  1.25D+00
 E= -3442.58582227270     Delta-E=       -0.000000072927 Rises=F Damp=F
 DIIS: error= 2.06D-06 at cycle  11 NSaved=  11.
 NSaved=11 IEnMin=11 EnMin= -3442.58582227270     IErMin=11 ErrMin= 2.06D-06
 ErrMax= 2.06D-06  0.00D+00 EMaxC= 1.00D-01 BMatC= 2.41D-09 BMatP= 2.49D-08
 IDIUse=1 WtCom= 1.00D+00 WtEn= 0.00D+00
 Coeff-Com: -0.174D-04 0.182D-04 0.398D-04 0.341D-03 0.187D-02 0.189D-02
 Coeff-Com: -0.688D-02-0.405D-01-0.421D-01 0.153D+00 0.932D+00
 Coeff:     -0.174D-04 0.182D-04 0.398D-04 0.341D-03 0.187D-02 0.189D-02
 Coeff:     -0.688D-02-0.405D-01-0.421D-01 0.153D+00 0.932D+00
 Gap=     0.178 Goal=   None    Shift=    0.000
 DSYEVD-2 returned Info=     2443153 IAlg= 4 N=  2208 NDim=  2208 NE2=     3882642 trying  DSYEV.
 RMSDP=1.88D-07 MaxDP=1.52D-05 DE=-7.29D-08 OVMax= 4.04D-05

 Cycle  12  Pass 1  IDiag  1:
 RMSU=  1.58D-07    CP:  7.55D-01  1.85D+00  1.24D+00  1.32D+00  1.26D+00
                    CP:  1.33D+00  1.22D+00  1.50D+00  1.46D+00  1.52D+00
                    CP:  1.31D+00
 E= -3442.58582228128     Delta-E=       -0.000000008578 Rises=F Damp=F
 DIIS: error= 9.54D-07 at cycle  12 NSaved=  12.
 NSaved=12 IEnMin=12 EnMin= -3442.58582228128     IErMin=12 ErrMin= 9.54D-07
 ErrMax= 9.54D-07  0.00D+00 EMaxC= 1.00D-01 BMatC= 7.68D-10 BMatP= 2.41D-09
 IDIUse=1 WtCom= 1.00D+00 WtEn= 0.00D+00
 Coeff-Com: -0.761D-05-0.156D-04-0.196D-03-0.519D-03-0.382D-04 0.520D-02
 Coeff-Com:  0.107D-01 0.509D-03-0.930D-01-0.131D+00 0.381D+00 0.828D+00
 Coeff:     -0.761D-05-0.156D-04-0.196D-03-0.519D-03-0.382D-04 0.520D-02
 Coeff:      0.107D-01 0.509D-03-0.930D-01-0.131D+00 0.381D+00 0.828D+00
 Gap=     0.178 Goal=   None    Shift=    0.000
 RMSDP=1.58D-07 MaxDP=7.40D-06 DE=-8.58D-09 OVMax= 2.24D-05

 Cycle  13  Pass 1  IDiag  1:
 RMSU=  1.17D-07    CP:  7.55D-01  1.85D+00  1.24D+00  1.32D+00  1.26D+00
                    CP:  1.33D+00  1.22D+00  1.50D+00  1.47D+00  1.64D+00
                    CP:  1.80D+00  1.16D+00
 E= -3442.58582228320     Delta-E=       -0.000000001924 Rises=F Damp=F
 DIIS: error= 4.84D-07 at cycle  13 NSaved=  13.
 NSaved=13 IEnMin=13 EnMin= -3442.58582228320     IErMin=13 ErrMin= 4.84D-07
 ErrMax= 4.84D-07  0.00D+00 EMaxC= 1.00D-01 BMatC= 1.27D-10 BMatP= 7.68D-10
 IDIUse=1 WtCom= 1.00D+00 WtEn= 0.00D+00
 Coeff-Com:  0.514D-05-0.113D-04-0.286D-04-0.167D-03-0.431D-03 0.131D-03
 Coeff-Com:  0.276D-02 0.120D-01-0.240D-04-0.406D-01-0.176D+00 0.135D+00
 Coeff-Com:  0.107D+01
 Coeff:      0.514D-05-0.113D-04-0.286D-04-0.167D-03-0.431D-03 0.131D-03
 Coeff:      0.276D-02 0.120D-01-0.240D-04-0.406D-01-0.176D+00 0.135D+00
 Coeff:      0.107D+01
 Gap=     0.178 Goal=   None    Shift=    0.000
 RMSDP=2.74D-07 MaxDP=2.60D-05 DE=-1.92D-09 OVMax= 9.28D-06

 Cycle  14  Pass 1  IDiag  1:
 RMSU=  1.70D-07    CP:  7.55D-01  1.85D+00  1.24D+00  1.32D+00  1.26D+00
                    CP:  1.33D+00  1.22D+00  1.49D+00  1.48D+00  1.86D+00
                    CP:  2.10D+00  2.38D+00  1.18D+00
 E= -3442.58582228244     Delta-E=        0.000000000766 Rises=F Damp=F
 DIIS: error= 1.32D-07 at cycle  14 NSaved=  14.
 NSaved=14 IEnMin=13 EnMin= -3442.58582228320     IErMin=14 ErrMin= 1.32D-07
 ErrMax= 1.32D-07  0.00D+00 EMaxC= 1.00D-01 BMatC= 2.00D-11 BMatP= 1.27D-10
 IDIUse=1 WtCom= 1.00D+00 WtEn= 0.00D+00
 Coeff-Com:  0.276D-05-0.230D-05 0.159D-04 0.836D-05-0.125D-03-0.597D-03
 Coeff-Com: -0.609D-03 0.427D-02 0.102D-01 0.286D-02-0.120D+00-0.292D-01
 Coeff-Com:  0.370D+00 0.763D+00
 Coeff:      0.276D-05-0.230D-05 0.159D-04 0.836D-05-0.125D-03-0.597D-03
 Coeff:     -0.609D-03 0.427D-02 0.102D-01 0.286D-02-0.120D+00-0.292D-01
 Coeff:      0.370D+00 0.763D+00
 Gap=     0.178 Goal=   None    Shift=    0.000
 RMSDP=2.27D-07 MaxDP=1.24D-05 DE= 7.66D-10 OVMax= 3.00D-06

 Cycle  15  Pass 1  IDiag  1:
 RMSU=  1.13D-07    CP:  7.55D-01  1.85D+00  1.24D+00  1.32D+00  1.26D+00
                    CP:  1.33D+00  1.22D+00  1.50D+00  1.48D+00  1.90D+00
                    CP:  2.45D+00  2.61D+00  2.70D+00  9.55D-01
 E= -3442.58582228112     Delta-E=        0.000000001315 Rises=F Damp=F
 DIIS: error= 2.82D-07 at cycle  15 NSaved=  15.
 NSaved=15 IEnMin=13 EnMin= -3442.58582228320     IErMin=14 ErrMin= 1.32D-07
 ErrMax= 2.82D-07  0.00D+00 EMaxC= 1.00D-01 BMatC= 9.30D-12 BMatP= 2.00D-11
 IDIUse=1 WtCom= 1.00D+00 WtEn= 0.00D+00
 Coeff-Com:  0.134D-06 0.159D-05 0.124D-04 0.340D-04 0.247D-04-0.280D-03
 Coeff-Com: -0.872D-03-0.119D-03 0.421D-02 0.964D-02-0.270D-01-0.279D-01
 Coeff-Com: -0.481D-01 0.393D+00 0.697D+00
 Coeff:      0.134D-06 0.159D-05 0.124D-04 0.340D-04 0.247D-04-0.280D-03
 Coeff:     -0.872D-03-0.119D-03 0.421D-02 0.964D-02-0.270D-01-0.279D-01
 Coeff:     -0.481D-01 0.393D+00 0.697D+00
 Gap=     0.178 Goal=   None    Shift=    0.000
 RMSDP=2.89D-07 MaxDP=2.34D-05 DE= 1.32D-09 OVMax= 1.15D-06

 Cycle  16  Pass 1  IDiag  1:
 RMSU=  1.33D-07    CP:  7.55D-01  1.85D+00  1.24D+00  1.32D+00  1.26D+00
                    CP:  1.33D+00  1.22D+00  1.50D+00  1.51D+00  2.09D+00
                    CP:  2.66D+00  3.00D+00  2.82D+00  2.15D+00  1.01D+00
 E= -3442.58582227985     Delta-E=        0.000000001270 Rises=F Damp=F
 DIIS: error= 1.06D-07 at cycle  16 NSaved=  16.
 NSaved=16 IEnMin=13 EnMin= -3442.58582228320     IErMin=16 ErrMin= 1.06D-07
 ErrMax= 1.06D-07  0.00D+00 EMaxC= 1.00D-01 BMatC= 5.11D-12 BMatP= 9.30D-12
 IDIUse=1 WtCom= 1.00D+00 WtEn= 0.00D+00
 Coeff-Com: -0.201D-06 0.138D-05 0.670D-05 0.215D-04 0.288D-04-0.126D-03
 Coeff-Com: -0.539D-03-0.455D-03 0.176D-02 0.640D-02-0.734D-02-0.134D-01
 Coeff-Com: -0.751D-01 0.204D+00 0.418D+00 0.467D+00
 Coeff:     -0.201D-06 0.138D-05 0.670D-05 0.215D-04 0.288D-04-0.126D-03
 Coeff:     -0.539D-03-0.455D-03 0.176D-02 0.640D-02-0.734D-02-0.134D-01
 Coeff:     -0.751D-01 0.204D+00 0.418D+00 0.467D+00
 Gap=     0.178 Goal=   None    Shift=    0.000
 RMSDP=1.57D-07 MaxDP=1.04D-05 DE= 1.27D-09 OVMax= 2.88D-07

 Cycle  17  Pass 1  IDiag  1:
 RMSU=  8.92D-08    CP:  7.55D-01  1.85D+00  1.24D+00  1.32D+00  1.26D+00
                    CP:  1.33D+00  1.22D+00  1.50D+00  1.51D+00  2.14D+00
                    CP:  2.89D+00  3.00D+00  3.00D+00  2.38D+00  1.75D+00
                    CP:  1.33D+00
 E= -3442.58582227924     Delta-E=        0.000000000608 Rises=F Damp=F
 DIIS: error= 1.39D-07 at cycle  17 NSaved=  17.
 NSaved=17 IEnMin=13 EnMin= -3442.58582228320     IErMin=16 ErrMin= 1.06D-07
 ErrMax= 1.39D-07  0.00D+00 EMaxC= 1.00D-01 BMatC= 5.79D-12 BMatP= 5.11D-12
 IDIUse=1 WtCom= 1.00D+00 WtEn= 0.00D+00
 Coeff-Com: -0.324D-06 0.172D-05 0.749D-05 0.255D-04 0.378D-04-0.132D-03
 Coeff-Com: -0.621D-03-0.676D-03 0.180D-02 0.751D-02-0.496D-02-0.157D-01
 Coeff-Com: -0.993D-01 0.216D+00 0.515D+00 0.559D+00-0.178D+00
 Coeff:     -0.324D-06 0.172D-05 0.749D-05 0.255D-04 0.378D-04-0.132D-03
 Coeff:     -0.621D-03-0.676D-03 0.180D-02 0.751D-02-0.496D-02-0.157D-01
 Coeff:     -0.993D-01 0.216D+00 0.515D+00 0.559D+00-0.178D+00
 Gap=     0.178 Goal=   None    Shift=    0.000
 RMSDP=4.94D-08 MaxDP=3.35D-06 DE= 6.08D-10 OVMax= 4.49D-08

 Cycle  18  Pass 1  IDiag  1:
 RMSU=  1.99D-08    CP:  7.55D-01  1.85D+00  1.24D+00  1.32D+00  1.26D+00
                    CP:  1.33D+00  1.22D+00  1.50D+00  1.51D+00  2.12D+00
                    CP:  2.84D+00  3.00D+00  3.00D+00  2.24D+00  1.64D+00
                    CP:  1.12D+00  8.09D-01
 E= -3442.58582227959     Delta-E=       -0.000000000342 Rises=F Damp=F
 DIIS: error= 1.24D-07 at cycle  18 NSaved=  18.
 NSaved=18 IEnMin=13 EnMin= -3442.58582228320     IErMin=16 ErrMin= 1.06D-07
 ErrMax= 1.24D-07  0.00D+00 EMaxC= 1.00D-01 BMatC= 5.83D-12 BMatP= 5.11D-12
 IDIUse=1 WtCom= 1.00D+00 WtEn= 0.00D+00
 Coeff-Com: -0.318D-06 0.169D-05 0.742D-05 0.252D-04 0.373D-04-0.131D-03
 Coeff-Com: -0.614D-03-0.664D-03 0.179D-02 0.743D-02-0.502D-02-0.155D-01
 Coeff-Com: -0.980D-01 0.215D+00 0.509D+00 0.552D+00-0.214D+00 0.488D-01
 Coeff:     -0.318D-06 0.169D-05 0.742D-05 0.252D-04 0.373D-04-0.131D-03
 Coeff:     -0.614D-03-0.664D-03 0.179D-02 0.743D-02-0.502D-02-0.155D-01
 Coeff:     -0.980D-01 0.215D+00 0.509D+00 0.552D+00-0.214D+00 0.488D-01
 Gap=     0.178 Goal=   None    Shift=    0.000
 RMSDP=7.49D-09 MaxDP=5.69D-07 DE=-3.42D-10 OVMax= 9.14D-09

 SCF Done:  E(RLC-B+HF-LYP) =  -3442.58582228     A.U. after   18 cycles
            NFock= 18  Conv=0.75D-08     -V/T= 2.0025
 KE= 3.433898793869D+03 PE=-1.823324026645D+04 EE= 6.306393280339D+03
 Leave Link  502 at Wed Apr 22 22:02:15 2026, MaxMem=  8589934592 cpu:     58524.7
 (Enter /opt/g09/l601.exe)
 Copying SCF densities to generalized density rwf, IOpCl= 0 IROHF=0.
 Hyperfine terms turned off by default for NAtoms > 100.

 **********************************************************************

            Population analysis using the SCF density.

 **********************************************************************

 Alpha  occ. eigenvalues -- -345.97248 -41.84097 -36.92396 -36.91551 -36.91551
 Alpha  occ. eigenvalues --  -14.20516 -14.20515 -14.20514 -14.20514 -14.19673
 Alpha  occ. eigenvalues --  -14.19672 -14.19672 -14.19672 -10.16868 -10.16866
 Alpha  occ. eigenvalues --  -10.16866 -10.16864 -10.16862 -10.16860 -10.16860
 Alpha  occ. eigenvalues --  -10.16858 -10.09954 -10.09954 -10.09954 -10.09954
 Alpha  occ. eigenvalues --  -10.09922 -10.09922 -10.09922 -10.09922 -10.09758
 Alpha  occ. eigenvalues --  -10.09758 -10.09758 -10.09758 -10.09755 -10.09755
 Alpha  occ. eigenvalues --  -10.09755 -10.09754 -10.09596 -10.09596 -10.09596
 Alpha  occ. eigenvalues --  -10.09596 -10.09560 -10.09560 -10.09560 -10.09560
 Alpha  occ. eigenvalues --   -4.78967  -3.23597  -3.22165  -3.22165  -1.13247
 Alpha  occ. eigenvalues --   -1.11787  -1.11787  -1.08979  -1.06782  -1.02635
 Alpha  occ. eigenvalues --   -1.02635  -0.99527  -0.98219  -0.98219  -0.98173
 Alpha  occ. eigenvalues --   -0.98141  -0.90132  -0.88790  -0.88574  -0.88574
 Alpha  occ. eigenvalues --   -0.88185  -0.88185  -0.88005  -0.87868  -0.84367
 Alpha  occ. eigenvalues --   -0.81722  -0.81722  -0.76272  -0.76065  -0.75239
 Alpha  occ. eigenvalues --   -0.75239  -0.74621  -0.74293  -0.71780  -0.71780
 Alpha  occ. eigenvalues --   -0.71728  -0.70620  -0.68092  -0.67144  -0.67144
 Alpha  occ. eigenvalues --   -0.65660  -0.65480  -0.65480  -0.61900  -0.61807
 Alpha  occ. eigenvalues --   -0.61644  -0.61239  -0.59870  -0.59814  -0.59814
 Alpha  occ. eigenvalues --   -0.59709  -0.59709  -0.58394  -0.58394  -0.57642
 Alpha  occ. eigenvalues --   -0.57489  -0.56974  -0.56820  -0.56713  -0.56713
 Alpha  occ. eigenvalues --   -0.55949  -0.55408  -0.55408  -0.55328  -0.54848
 Alpha  occ. eigenvalues --   -0.54298  -0.54066  -0.54066  -0.52810  -0.51811
 Alpha  occ. eigenvalues --   -0.51000  -0.48929  -0.48926  -0.48926  -0.47915
 Alpha  occ. eigenvalues --   -0.47659  -0.47659  -0.46942  -0.46862  -0.46842
 Alpha  occ. eigenvalues --   -0.46842  -0.46164  -0.44994  -0.44994  -0.44835
 Alpha  occ. eigenvalues --   -0.43262  -0.43262  -0.42136  -0.39189  -0.39189
 Alpha  occ. eigenvalues --   -0.38289  -0.37368  -0.36378  -0.36040  -0.35806
 Alpha  occ. eigenvalues --   -0.35806  -0.35274  -0.34986  -0.34986  -0.34799
 Alpha  occ. eigenvalues --   -0.34158  -0.24113
 Alpha virt. eigenvalues --   -0.06321  -0.06321   0.02245   0.02895   0.03297
 Alpha virt. eigenvalues --    0.04137   0.04231   0.04231   0.05726   0.05726
 Alpha virt. eigenvalues --    0.06952   0.07190   0.07565   0.08292   0.09311
 Alpha virt. eigenvalues --    0.09316   0.09316   0.09455   0.09455   0.09737
 Alpha virt. eigenvalues --    0.10558   0.10558   0.11340   0.11476   0.11694
 Alpha virt. eigenvalues --    0.12117   0.12117   0.12292   0.12507   0.12751
 Alpha virt. eigenvalues --    0.13117   0.13117   0.13286   0.13884   0.14308
 Alpha virt. eigenvalues --    0.14308   0.14914   0.15069   0.15069   0.15238
 Alpha virt. eigenvalues --    0.15800   0.16073   0.16610   0.16610   0.17195
 Alpha virt. eigenvalues --    0.17219   0.17807   0.17973   0.18122   0.18122
 Alpha virt. eigenvalues --    0.18463   0.18587   0.18587   0.18778   0.18925
 Alpha virt. eigenvalues --    0.18925   0.19359   0.19860   0.19861   0.19861
 Alpha virt. eigenvalues --    0.20393   0.20393   0.20523   0.21189   0.21399
 Alpha virt. eigenvalues --    0.21748   0.21748   0.22545   0.22565   0.22661
 Alpha virt. eigenvalues --    0.23217   0.23217   0.23405   0.23931   0.24240
 Alpha virt. eigenvalues --    0.24739   0.24739   0.24944   0.25144   0.25144
 Alpha virt. eigenvalues --    0.25236   0.25440   0.25498   0.25618   0.25618
 Alpha virt. eigenvalues --    0.26173   0.26173   0.26184   0.26587   0.27074
 Alpha virt. eigenvalues --    0.27074   0.27385   0.27385   0.27693   0.27694
 Alpha virt. eigenvalues --    0.27817   0.27925   0.28093   0.28093   0.28250
 Alpha virt. eigenvalues --    0.28264   0.28362   0.28533   0.28533   0.28904
 Alpha virt. eigenvalues --    0.28904   0.29140   0.29146   0.29460   0.29515
 Alpha virt. eigenvalues --    0.29865   0.29865   0.29978   0.30397   0.30500
 Alpha virt. eigenvalues --    0.30856   0.30856   0.31254   0.31254   0.32057
 Alpha virt. eigenvalues --    0.32190   0.32349   0.32519   0.32617   0.32826
 Alpha virt. eigenvalues --    0.32908   0.32908   0.33160   0.33160   0.33819
 Alpha virt. eigenvalues --    0.34119   0.34119   0.34158   0.34421   0.34529
 Alpha virt. eigenvalues --    0.34529   0.35056   0.35616   0.35795   0.35795
 Alpha virt. eigenvalues --    0.36278   0.36278   0.36408   0.36423   0.36863
 Alpha virt. eigenvalues --    0.36893   0.37214   0.37214   0.37611   0.37760
 Alpha virt. eigenvalues --    0.37760   0.37763   0.38029   0.38193   0.38193
 Alpha virt. eigenvalues --    0.38292   0.38697   0.39036   0.39036   0.39240
 Alpha virt. eigenvalues --    0.39488   0.39544   0.39602   0.39603   0.39715
 Alpha virt. eigenvalues --    0.40559   0.40559   0.40592   0.40851   0.41004
 Alpha virt. eigenvalues --    0.41086   0.41086   0.41667   0.41767   0.41994
 Alpha virt. eigenvalues --    0.42007   0.42007   0.42483   0.42552   0.42552
 Alpha virt. eigenvalues --    0.42584   0.42976   0.43257   0.43322   0.43322
 Alpha virt. eigenvalues --    0.43497   0.43580   0.43580   0.43731   0.44030
 Alpha virt. eigenvalues --    0.44293   0.44293   0.44345   0.45276   0.45276
 Alpha virt. eigenvalues --    0.45407   0.45706   0.45727   0.45728   0.46223
 Alpha virt. eigenvalues --    0.46270   0.46298   0.46474   0.46474   0.46578
 Alpha virt. eigenvalues --    0.46955   0.47155   0.47155   0.47215   0.47565
 Alpha virt. eigenvalues --    0.47844   0.47940   0.47955   0.47955   0.48149
 Alpha virt. eigenvalues --    0.48149   0.48348   0.48640   0.49092   0.49092
 Alpha virt. eigenvalues --    0.49184   0.49223   0.49321   0.49321   0.50079
 Alpha virt. eigenvalues --    0.50079   0.50334   0.50600   0.50614   0.50621
 Alpha virt. eigenvalues --    0.50621   0.50890   0.50890   0.51254   0.51311
 Alpha virt. eigenvalues --    0.51418   0.51958   0.52029   0.52413   0.52499
 Alpha virt. eigenvalues --    0.52503   0.52503   0.52519   0.52519   0.52651
 Alpha virt. eigenvalues --    0.52661   0.52973   0.52973   0.53436   0.53436
 Alpha virt. eigenvalues --    0.53622   0.53988   0.54301   0.54301   0.54891
 Alpha virt. eigenvalues --    0.54897   0.55070   0.55204   0.55204   0.55481
 Alpha virt. eigenvalues --    0.55520   0.55520   0.55701   0.56265   0.56402
 Alpha virt. eigenvalues --    0.56640   0.56640   0.57737   0.57738   0.57806
 Alpha virt. eigenvalues --    0.57977   0.58130   0.58130   0.58381   0.58824
 Alpha virt. eigenvalues --    0.58864   0.58864   0.59067   0.59461   0.60054
 Alpha virt. eigenvalues --    0.60280   0.60469   0.60469   0.60765   0.60765
 Alpha virt. eigenvalues --    0.60934   0.61147   0.61198   0.61198   0.61449
 Alpha virt. eigenvalues --    0.62059   0.62283   0.62341   0.62393   0.62597
 Alpha virt. eigenvalues --    0.62597   0.63136   0.63136   0.63547   0.63580
 Alpha virt. eigenvalues --    0.63987   0.63987   0.64037   0.64077   0.64122
 Alpha virt. eigenvalues --    0.64122   0.64522   0.65385   0.65418   0.65452
 Alpha virt. eigenvalues --    0.65452   0.65857   0.65858   0.66016   0.66040
 Alpha virt. eigenvalues --    0.66404   0.66404   0.66473   0.66800   0.67183
 Alpha virt. eigenvalues --    0.67357   0.67357   0.67638   0.67859   0.67859
 Alpha virt. eigenvalues --    0.68499   0.68846   0.69024   0.69024   0.69170
 Alpha virt. eigenvalues --    0.69231   0.69231   0.69553   0.69756   0.69874
 Alpha virt. eigenvalues --    0.69902   0.70261   0.70965   0.71124   0.71124
 Alpha virt. eigenvalues --    0.71565   0.71698   0.71766   0.71766   0.71984
 Alpha virt. eigenvalues --    0.72202   0.72908   0.72908   0.73120   0.73120
 Alpha virt. eigenvalues --    0.73341   0.73441   0.73460   0.73460   0.73745
 Alpha virt. eigenvalues --    0.73880   0.73935   0.74272   0.74272   0.74765
 Alpha virt. eigenvalues --    0.74845   0.75052   0.75469   0.75652   0.75691
 Alpha virt. eigenvalues --    0.75691   0.76518   0.76839   0.76839   0.77151
 Alpha virt. eigenvalues --    0.77368   0.77685   0.77850   0.77851   0.78316
 Alpha virt. eigenvalues --    0.78316   0.78438   0.78673   0.78717   0.78717
 Alpha virt. eigenvalues --    0.79120   0.79207   0.79229   0.79499   0.79963
 Alpha virt. eigenvalues --    0.79964   0.80333   0.80333   0.80383   0.80435
 Alpha virt. eigenvalues --    0.80435   0.80890   0.81373   0.81528   0.81528
 Alpha virt. eigenvalues --    0.81716   0.81769   0.81770   0.81781   0.82343
 Alpha virt. eigenvalues --    0.82443   0.82443   0.82548   0.82930   0.82951
 Alpha virt. eigenvalues --    0.83472   0.83472   0.83990   0.83991   0.84337
 Alpha virt. eigenvalues --    0.84560   0.84657   0.85062   0.85251   0.85279
 Alpha virt. eigenvalues --    0.85280   0.85818   0.85818   0.86059   0.86279
 Alpha virt. eigenvalues --    0.86890   0.86890   0.87021   0.87278   0.87394
 Alpha virt. eigenvalues --    0.87913   0.87914   0.87933   0.87937   0.88163
 Alpha virt. eigenvalues --    0.88164   0.88202   0.89221   0.89221   0.89587
 Alpha virt. eigenvalues --    0.89639   0.89672   0.89672   0.89969   0.90729
 Alpha virt. eigenvalues --    0.90940   0.90940   0.91125   0.91125   0.91309
 Alpha virt. eigenvalues --    0.91638   0.91661   0.91913   0.91913   0.92011
 Alpha virt. eigenvalues --    0.92625   0.92779   0.92822   0.93104   0.93245
 Alpha virt. eigenvalues --    0.93246   0.93514   0.93514   0.94014   0.94643
 Alpha virt. eigenvalues --    0.94932   0.94932   0.95093   0.95406   0.95406
 Alpha virt. eigenvalues --    0.95560   0.96184   0.96185   0.96218   0.96953
 Alpha virt. eigenvalues --    0.96956   0.97208   0.97634   0.97634   0.97695
 Alpha virt. eigenvalues --    0.97744   0.97862   0.98021   0.99136   0.99137
 Alpha virt. eigenvalues --    0.99627   0.99732   0.99772   1.00071   1.00072
 Alpha virt. eigenvalues --    1.00523   1.01808   1.01808   1.01856   1.02016
 Alpha virt. eigenvalues --    1.02027   1.02027   1.02383   1.02649   1.02748
 Alpha virt. eigenvalues --    1.02811   1.03087   1.03250   1.03251   1.03525
 Alpha virt. eigenvalues --    1.03968   1.04349   1.04349   1.04753   1.04753
 Alpha virt. eigenvalues --    1.04789   1.05096   1.05194   1.05390   1.05390
 Alpha virt. eigenvalues --    1.05402   1.05850   1.05980   1.05980   1.05992
 Alpha virt. eigenvalues --    1.06193   1.06676   1.07288   1.07288   1.07536
 Alpha virt. eigenvalues --    1.08587   1.08957   1.08958   1.09004   1.09400
 Alpha virt. eigenvalues --    1.09410   1.09410   1.09459   1.10097   1.10142
 Alpha virt. eigenvalues --    1.10286   1.10286   1.10453   1.11065   1.11195
 Alpha virt. eigenvalues --    1.11338   1.11721   1.11721   1.11721   1.12065
 Alpha virt. eigenvalues --    1.12065   1.12273   1.12512   1.12512   1.13121
 Alpha virt. eigenvalues --    1.13122   1.13427   1.13490   1.13567   1.13773
 Alpha virt. eigenvalues --    1.13907   1.13907   1.14421   1.14987   1.15079
 Alpha virt. eigenvalues --    1.15079   1.15228   1.15585   1.15729   1.16201
 Alpha virt. eigenvalues --    1.16677   1.16678   1.17047   1.17280   1.17280
 Alpha virt. eigenvalues --    1.17836   1.18042   1.18051   1.18051   1.18570
 Alpha virt. eigenvalues --    1.19121   1.19155   1.19155   1.19237   1.19956
 Alpha virt. eigenvalues --    1.20315   1.20315   1.20752   1.20917   1.20917
 Alpha virt. eigenvalues --    1.21005   1.21232   1.21248   1.21320   1.21320
 Alpha virt. eigenvalues --    1.22065   1.22575   1.22774   1.23012   1.23517
 Alpha virt. eigenvalues --    1.23527   1.23528   1.23686   1.23686   1.23951
 Alpha virt. eigenvalues --    1.23951   1.24058   1.24195   1.24511   1.25044
 Alpha virt. eigenvalues --    1.25096   1.25097   1.25651   1.25651   1.26002
 Alpha virt. eigenvalues --    1.26039   1.26210   1.26248   1.27544   1.27545
 Alpha virt. eigenvalues --    1.27723   1.27992   1.27993   1.28148   1.28203
 Alpha virt. eigenvalues --    1.28634   1.28996   1.28996   1.29522   1.29548
 Alpha virt. eigenvalues --    1.29713   1.29714   1.29727   1.29868   1.29868
 Alpha virt. eigenvalues --    1.30846   1.30846   1.30859   1.30950   1.30982
 Alpha virt. eigenvalues --    1.31226   1.31912   1.32388   1.32388   1.32581
 Alpha virt. eigenvalues --    1.32582   1.32870   1.33185   1.33185   1.33852
 Alpha virt. eigenvalues --    1.33852   1.33865   1.34082   1.34198   1.34643
 Alpha virt. eigenvalues --    1.34737   1.35218   1.35218   1.35428   1.35515
 Alpha virt. eigenvalues --    1.35515   1.35662   1.35910   1.36544   1.36544
 Alpha virt. eigenvalues --    1.36851   1.36852   1.37255   1.37605   1.37686
 Alpha virt. eigenvalues --    1.37686   1.37918   1.38158   1.38158   1.38391
 Alpha virt. eigenvalues --    1.38676   1.39065   1.39167   1.39168   1.39357
 Alpha virt. eigenvalues --    1.40004   1.40004   1.40122   1.40349   1.40516
 Alpha virt. eigenvalues --    1.40516   1.40581   1.40907   1.41003   1.41301
 Alpha virt. eigenvalues --    1.41385   1.41825   1.41943   1.41943   1.42406
 Alpha virt. eigenvalues --    1.42406   1.42495   1.43013   1.43013   1.43023
 Alpha virt. eigenvalues --    1.43236   1.43598   1.44224   1.44224   1.44604
 Alpha virt. eigenvalues --    1.45088   1.45307   1.45307   1.45386   1.46183
 Alpha virt. eigenvalues --    1.46341   1.46430   1.46686   1.46686   1.47089
 Alpha virt. eigenvalues --    1.47226   1.47226   1.47432   1.47698   1.47995
 Alpha virt. eigenvalues --    1.47996   1.48124   1.48570   1.48685   1.48863
 Alpha virt. eigenvalues --    1.48864   1.49335   1.49335   1.49748   1.49748
 Alpha virt. eigenvalues --    1.50248   1.50588   1.50619   1.50881   1.50881
 Alpha virt. eigenvalues --    1.51020   1.51052   1.51447   1.52000   1.52000
 Alpha virt. eigenvalues --    1.52187   1.52384   1.52748   1.52795   1.52893
 Alpha virt. eigenvalues --    1.52893   1.53638   1.53775   1.53775   1.53960
 Alpha virt. eigenvalues --    1.54211   1.54243   1.54243   1.54543   1.54910
 Alpha virt. eigenvalues --    1.55455   1.55455   1.55539   1.55873   1.56103
 Alpha virt. eigenvalues --    1.56103   1.56390   1.56657   1.56749   1.57322
 Alpha virt. eigenvalues --    1.57420   1.57420   1.58201   1.58204   1.58568
 Alpha virt. eigenvalues --    1.58568   1.58908   1.59208   1.59259   1.59259
 Alpha virt. eigenvalues --    1.59429   1.60081   1.60605   1.60648   1.60648
 Alpha virt. eigenvalues --    1.61291   1.61291   1.61322   1.61408   1.61408
 Alpha virt. eigenvalues --    1.62002   1.62519   1.62519   1.62889   1.62889
 Alpha virt. eigenvalues --    1.63069   1.63320   1.63781   1.64145   1.64357
 Alpha virt. eigenvalues --    1.64553   1.64578   1.64578   1.65374   1.65374
 Alpha virt. eigenvalues --    1.65729   1.65849   1.66788   1.66838   1.66838
 Alpha virt. eigenvalues --    1.67122   1.67241   1.67556   1.67556   1.67853
 Alpha virt. eigenvalues --    1.67853   1.67943   1.68329   1.68788   1.69168
 Alpha virt. eigenvalues --    1.69168   1.69887   1.70738   1.70916   1.70916
 Alpha virt. eigenvalues --    1.71357   1.71435   1.71435   1.71455   1.71730
 Alpha virt. eigenvalues --    1.71758   1.72040   1.72307   1.72772   1.73213
 Alpha virt. eigenvalues --    1.73330   1.73331   1.74228   1.74228   1.74743
 Alpha virt. eigenvalues --    1.74753   1.74852   1.74852   1.74859   1.75536
 Alpha virt. eigenvalues --    1.75751   1.75751   1.76527   1.76527   1.76565
 Alpha virt. eigenvalues --    1.76752   1.77144   1.77404   1.77629   1.77629
 Alpha virt. eigenvalues --    1.77814   1.78445   1.78621   1.78622   1.78723
 Alpha virt. eigenvalues --    1.78917   1.78979   1.79463   1.79581   1.79581
 Alpha virt. eigenvalues --    1.79658   1.79730   1.79730   1.80285   1.80358
 Alpha virt. eigenvalues --    1.80828   1.81328   1.81409   1.81409   1.81644
 Alpha virt. eigenvalues --    1.81644   1.81968   1.82206   1.82206   1.82788
 Alpha virt. eigenvalues --    1.82838   1.83140   1.83141   1.83391   1.83851
 Alpha virt. eigenvalues --    1.83913   1.84165   1.84165   1.84786   1.84786
 Alpha virt. eigenvalues --    1.84789   1.84968   1.84982   1.84983   1.85979
 Alpha virt. eigenvalues --    1.86183   1.86524   1.86728   1.86994   1.86994
 Alpha virt. eigenvalues --    1.87133   1.87179   1.87180   1.87218   1.87331
 Alpha virt. eigenvalues --    1.87806   1.87806   1.88074   1.88138   1.88496
 Alpha virt. eigenvalues --    1.88496   1.88727   1.88795   1.89361   1.89547
 Alpha virt. eigenvalues --    1.89786   1.89786   1.90040   1.90316   1.90317
 Alpha virt. eigenvalues --    1.91034   1.91154   1.91372   1.91372   1.91712
 Alpha virt. eigenvalues --    1.92497   1.92526   1.92526   1.92615   1.94053
 Alpha virt. eigenvalues --    1.94182   1.94375   1.94376   1.94479   1.94588
 Alpha virt. eigenvalues --    1.94588   1.95472   1.95670   1.95920   1.96249
 Alpha virt. eigenvalues --    1.96250   1.97429   1.97429   1.97452   1.97507
 Alpha virt. eigenvalues --    1.97532   1.98250   1.98250   1.98943   1.99075
 Alpha virt. eigenvalues --    1.99414   2.00165   2.00165   2.00814   2.00814
 Alpha virt. eigenvalues --    2.00978   2.02275   2.02472   2.02473   2.02646
 Alpha virt. eigenvalues --    2.02646   2.02863   2.03169   2.03559   2.04703
 Alpha virt. eigenvalues --    2.04703   2.05085   2.05115   2.05115   2.05397
 Alpha virt. eigenvalues --    2.05534   2.05534   2.05575   2.05689   2.06980
 Alpha virt. eigenvalues --    2.06980   2.07225   2.08153   2.08169   2.08230
 Alpha virt. eigenvalues --    2.08429   2.08613   2.08738   2.08739   2.08965
 Alpha virt. eigenvalues --    2.09246   2.10042   2.10043   2.10496   2.10741
 Alpha virt. eigenvalues --    2.11012   2.11012   2.11104   2.12220   2.12361
 Alpha virt. eigenvalues --    2.12362   2.13903   2.14293   2.14581   2.14581
 Alpha virt. eigenvalues --    2.15497   2.15497   2.15570   2.15926   2.16848
 Alpha virt. eigenvalues --    2.16848   2.17290   2.17291   2.17387   2.18613
 Alpha virt. eigenvalues --    2.19014   2.19532   2.19584   2.19584   2.19632
 Alpha virt. eigenvalues --    2.19864   2.20121   2.20122   2.20245   2.20559
 Alpha virt. eigenvalues --    2.21025   2.21025   2.21564   2.22549   2.22549
 Alpha virt. eigenvalues --    2.23083   2.23113   2.23554   2.23884   2.23884
 Alpha virt. eigenvalues --    2.24528   2.24896   2.25300   2.25724   2.25857
 Alpha virt. eigenvalues --    2.25857   2.27225   2.27884   2.27984   2.27986
 Alpha virt. eigenvalues --    2.27986   2.28200   2.28200   2.29190   2.29482
 Alpha virt. eigenvalues --    2.29482   2.30071   2.30105   2.30105   2.30541
 Alpha virt. eigenvalues --    2.31229   2.31269   2.31560   2.31831   2.32211
 Alpha virt. eigenvalues --    2.32212   2.33155   2.33477   2.33477   2.33497
 Alpha virt. eigenvalues --    2.34504   2.34658   2.34658   2.34879   2.35873
 Alpha virt. eigenvalues --    2.35874   2.36742   2.36955   2.37199   2.37199
 Alpha virt. eigenvalues --    2.37483   2.37536   2.38295   2.38480   2.38480
 Alpha virt. eigenvalues --    2.38777   2.38780   2.38780   2.39859   2.40439
 Alpha virt. eigenvalues --    2.40519   2.40520   2.40703   2.40925   2.40970
 Alpha virt. eigenvalues --    2.42002   2.42002   2.42605   2.43167   2.43260
 Alpha virt. eigenvalues --    2.43866   2.43867   2.44091   2.44559   2.45439
 Alpha virt. eigenvalues --    2.45931   2.45931   2.46445   2.46623   2.46623
 Alpha virt. eigenvalues --    2.47505   2.47642   2.47790   2.47790   2.48998
 Alpha virt. eigenvalues --    2.49105   2.49199   2.49730   2.49730   2.50619
 Alpha virt. eigenvalues --    2.51073   2.51154   2.51154   2.51509   2.51586
 Alpha virt. eigenvalues --    2.51756   2.51756   2.52015   2.52365   2.52781
 Alpha virt. eigenvalues --    2.52781   2.53003   2.53029   2.53029   2.53247
 Alpha virt. eigenvalues --    2.53364   2.53364   2.54379   2.54614   2.55091
 Alpha virt. eigenvalues --    2.55091   2.55140   2.55492   2.55671   2.56292
 Alpha virt. eigenvalues --    2.56806   2.56898   2.56898   2.57470   2.57470
 Alpha virt. eigenvalues --    2.58318   2.58318   2.58348   2.58710   2.58710
 Alpha virt. eigenvalues --    2.58741   2.59741   2.60416   2.60697   2.60908
 Alpha virt. eigenvalues --    2.60908   2.60948   2.62331   2.62331   2.63435
 Alpha virt. eigenvalues --    2.63828   2.63828   2.64356   2.65219   2.65219
 Alpha virt. eigenvalues --    2.65352   2.65444   2.65640   2.66032   2.66032
 Alpha virt. eigenvalues --    2.67029   2.67072   2.67454   2.67928   2.68814
 Alpha virt. eigenvalues --    2.68814   2.69650   2.69985   2.70083   2.71792
 Alpha virt. eigenvalues --    2.71808   2.71928   2.71928   2.72216   2.72216
 Alpha virt. eigenvalues --    2.72531   2.72879   2.73681   2.74259   2.74259
 Alpha virt. eigenvalues --    2.74464   2.75052   2.75052   2.75864   2.76136
 Alpha virt. eigenvalues --    2.76136   2.76159   2.76871   2.77195   2.77195
 Alpha virt. eigenvalues --    2.77390   2.77443   2.77607   2.77628   2.77819
 Alpha virt. eigenvalues --    2.77819   2.78314   2.79094   2.79094   2.79100
 Alpha virt. eigenvalues --    2.79416   2.80157   2.80157   2.80587   2.81160
 Alpha virt. eigenvalues --    2.81244   2.82025   2.82025   2.82813   2.82850
 Alpha virt. eigenvalues --    2.83547   2.83547   2.84420   2.84628   2.84628
 Alpha virt. eigenvalues --    2.85116   2.86428   2.88151   2.88151   2.88335
 Alpha virt. eigenvalues --    2.89480   2.90201   2.90201   2.90356   2.91528
 Alpha virt. eigenvalues --    2.91774   2.92663   2.92663   2.93264   2.93373
 Alpha virt. eigenvalues --    2.93373   2.93752   2.94250   2.94250   2.94751
 Alpha virt. eigenvalues --    2.95173   2.95173   2.95348   2.95702   2.96275
 Alpha virt. eigenvalues --    2.96665   2.96665   2.96898   2.97332   2.97786
 Alpha virt. eigenvalues --    2.98157   2.98175   2.98825   2.98825   2.99002
 Alpha virt. eigenvalues --    2.99995   2.99995   3.01429   3.01476   3.01476
 Alpha virt. eigenvalues --    3.01601   3.02880   3.03663   3.03663   3.04059
 Alpha virt. eigenvalues --    3.04847   3.04886   3.04888   3.04888   3.05871
 Alpha virt. eigenvalues --    3.05871   3.06599   3.06606   3.06837   3.06837
 Alpha virt. eigenvalues --    3.07217   3.07793   3.07793   3.09348   3.09728
 Alpha virt. eigenvalues --    3.09864   3.09864   3.10325   3.10753   3.10753
 Alpha virt. eigenvalues --    3.10918   3.10918   3.11047   3.11217   3.11658
 Alpha virt. eigenvalues --    3.12535   3.12701   3.13394   3.13415   3.13415
 Alpha virt. eigenvalues --    3.13633   3.13704   3.14164   3.14164   3.14501
 Alpha virt. eigenvalues --    3.14893   3.15375   3.15375   3.18198   3.18601
 Alpha virt. eigenvalues --    3.19093   3.19566   3.19616   3.19618   3.19619
 Alpha virt. eigenvalues --    3.19778   3.20107   3.20107   3.21023   3.21880
 Alpha virt. eigenvalues --    3.21880   3.22252   3.22590   3.22827   3.22867
 Alpha virt. eigenvalues --    3.22867   3.23170   3.23542   3.23542   3.23925
 Alpha virt. eigenvalues --    3.24116   3.24116   3.25077   3.25474   3.25487
 Alpha virt. eigenvalues --    3.26612   3.26612   3.26819   3.27575   3.27575
 Alpha virt. eigenvalues --    3.28353   3.28549   3.28647   3.28926   3.28926
 Alpha virt. eigenvalues --    3.29157   3.30304   3.32247   3.32332   3.32332
 Alpha virt. eigenvalues --    3.32866   3.33278   3.33278   3.33414   3.34282
 Alpha virt. eigenvalues --    3.34282   3.34458   3.34745   3.35242   3.35490
 Alpha virt. eigenvalues --    3.35669   3.35669   3.36657   3.37219   3.37219
 Alpha virt. eigenvalues --    3.37683   3.38055   3.38055   3.38302   3.38722
 Alpha virt. eigenvalues --    3.38722   3.39017   3.39025   3.39236   3.41553
 Alpha virt. eigenvalues --    3.41719   3.41719   3.41881   3.41928   3.41928
 Alpha virt. eigenvalues --    3.42098   3.42829   3.42958   3.42958   3.43570
 Alpha virt. eigenvalues --    3.44022   3.44230   3.44230   3.44550   3.45626
 Alpha virt. eigenvalues --    3.45868   3.46130   3.46130   3.46474   3.46900
 Alpha virt. eigenvalues --    3.47308   3.47308   3.47437   3.47437   3.47643
 Alpha virt. eigenvalues --    3.47763   3.49227   3.49549   3.50776   3.50914
 Alpha virt. eigenvalues --    3.50914   3.50946   3.51410   3.51410   3.51628
 Alpha virt. eigenvalues --    3.51991   3.52338   3.52338   3.53231   3.54593
 Alpha virt. eigenvalues --    3.55292   3.55558   3.55558   3.55712   3.55769
 Alpha virt. eigenvalues --    3.55769   3.56034   3.56332   3.56332   3.57073
 Alpha virt. eigenvalues --    3.57682   3.57682   3.57968   3.58247   3.58473
 Alpha virt. eigenvalues --    3.58473   3.58519   3.59955   3.60944   3.60944
 Alpha virt. eigenvalues --    3.61467   3.61931   3.62119   3.62610   3.62726
 Alpha virt. eigenvalues --    3.63142   3.63771   3.63771   3.65940   3.66038
 Alpha virt. eigenvalues --    3.66038   3.66668   3.66669   3.67659   3.68843
 Alpha virt. eigenvalues --    3.69043   3.69043   3.69649   3.71119   3.71446
 Alpha virt. eigenvalues --    3.71446   3.71461   3.71512   3.72237   3.72237
 Alpha virt. eigenvalues --    3.73122   3.74729   3.75094   3.75094   3.75429
 Alpha virt. eigenvalues --    3.76049   3.76279   3.76279   3.76890   3.78498
 Alpha virt. eigenvalues --    3.79107   3.79107   3.79682   3.80430   3.80430
 Alpha virt. eigenvalues --    3.80835   3.82690   3.82690   3.83507   3.83727
 Alpha virt. eigenvalues --    3.83727   3.84144   3.84781   3.84914   3.84914
 Alpha virt. eigenvalues --    3.86380   3.87099   3.87253   3.87848   3.88544
 Alpha virt. eigenvalues --    3.91294   3.94211   3.94211   3.95320   3.98073
 Alpha virt. eigenvalues --    3.98074   3.98465   4.01211   4.01427   4.01427
 Alpha virt. eigenvalues --    4.01735   4.01838   4.02079   4.02872   4.02872
 Alpha virt. eigenvalues --    4.05220   4.06298   4.07628   4.07628   4.08746
 Alpha virt. eigenvalues --    4.08747   4.09391   4.10051   4.11789   4.11789
 Alpha virt. eigenvalues --    4.11965   4.14448   4.14645   4.17386   4.21674
 Alpha virt. eigenvalues --    4.21674   4.24272   4.25325   4.25377   4.25526
 Alpha virt. eigenvalues --    4.25813   4.25813   4.26702   4.26702   4.28249
 Alpha virt. eigenvalues --    4.30882   4.32997   4.32998   4.33566   4.34312
 Alpha virt. eigenvalues --    4.34312   4.35657   4.35711   4.36786   4.37289
 Alpha virt. eigenvalues --    4.37289   4.37430   4.37639   4.37695   4.37695
 Alpha virt. eigenvalues --    4.38329   4.38461   4.40943   4.41684   4.41685
 Alpha virt. eigenvalues --    4.42727   4.42727   4.43015   4.44755   4.47558
 Alpha virt. eigenvalues --    4.47808   4.47931   4.47931   4.48513   4.48621
 Alpha virt. eigenvalues --    4.48626   4.48626   4.48722   4.48997   4.49744
 Alpha virt. eigenvalues --    4.49744   4.50629   4.50629   4.51214   4.52403
 Alpha virt. eigenvalues --    4.54377   4.54494   4.54494   4.55508   4.58622
 Alpha virt. eigenvalues --    4.58804   4.59451   4.59451   4.60619   4.60997
 Alpha virt. eigenvalues --    4.61305   4.61305   4.61689   4.62587   4.63009
 Alpha virt. eigenvalues --    4.63009   4.63416   4.64024   4.64024   4.65623
 Alpha virt. eigenvalues --    4.66700   4.68843   4.69014   4.69131   4.69251
 Alpha virt. eigenvalues --    4.69251   4.70416   4.70416   4.71795   4.72042
 Alpha virt. eigenvalues --    4.73282   4.73346   4.73547   4.73645   4.73645
 Alpha virt. eigenvalues --    4.75219   4.75219   4.76503   4.76943   4.76943
 Alpha virt. eigenvalues --    4.76995   4.77165   4.77370   4.77370   4.77537
 Alpha virt. eigenvalues --    4.79547   4.79787   4.80226   4.80226   4.80362
 Alpha virt. eigenvalues --    4.80734   4.80734   4.80748   4.82275   4.82275
 Alpha virt. eigenvalues --    4.82419   4.82989   4.82989   4.83131   4.83415
 Alpha virt. eigenvalues --    4.83688   4.85021   4.85658   4.85659   4.86337
 Alpha virt. eigenvalues --    4.86764   4.87075   4.87075   4.87178   4.87210
 Alpha virt. eigenvalues --    4.89549   4.90039   4.90039   4.90710   4.91413
 Alpha virt. eigenvalues --    4.91658   4.91658   4.92954   4.93841   4.93956
 Alpha virt. eigenvalues --    4.93956   4.95161   4.95708   4.95708   4.96620
 Alpha virt. eigenvalues --    4.96620   4.97144   4.97700   4.97715   4.97715
 Alpha virt. eigenvalues --    4.98119   4.99367   4.99367   5.00086   5.00593
 Alpha virt. eigenvalues --    5.01444   5.01987   5.02354   5.02354   5.02561
 Alpha virt. eigenvalues --    5.03163   5.04545   5.05314   5.05581   5.05581
 Alpha virt. eigenvalues --    5.06576   5.07299   5.07299   5.07563   5.07563
 Alpha virt. eigenvalues --    5.07708   5.07983   5.08373   5.09258   5.09258
 Alpha virt. eigenvalues --    5.09800   5.10366   5.11065   5.11065   5.11296
 Alpha virt. eigenvalues --    5.12026   5.12026   5.12305   5.12869   5.13455
 Alpha virt. eigenvalues --    5.13544   5.14655   5.15759   5.15821   5.15821
 Alpha virt. eigenvalues --    5.16893   5.17937   5.17937   5.18079   5.18719
 Alpha virt. eigenvalues --    5.19112   5.19112   5.19393   5.20256   5.20256
 Alpha virt. eigenvalues --    5.20792   5.21143   5.21143   5.21170   5.21786
 Alpha virt. eigenvalues --    5.23400   5.23538   5.23753   5.23753   5.24479
 Alpha virt. eigenvalues --    5.24479   5.24746   5.26266   5.26266   5.26437
 Alpha virt. eigenvalues --    5.26945   5.27271   5.27271   5.27277   5.27519
 Alpha virt. eigenvalues --    5.27519   5.28659   5.28659   5.28762   5.29322
 Alpha virt. eigenvalues --    5.29322   5.30063   5.30115   5.30704   5.30704
 Alpha virt. eigenvalues --    5.31573   5.32287   5.32386   5.35304   5.35882
 Alpha virt. eigenvalues --    5.35882   5.39694   5.40183   5.40183   5.41926
 Alpha virt. eigenvalues --    5.41926   5.43280   5.43762   5.44548   5.44952
 Alpha virt. eigenvalues --    5.44952   5.45544   5.46515   5.46515   5.46808
 Alpha virt. eigenvalues --    5.48826   5.48826   5.51174   5.51271   5.51451
 Alpha virt. eigenvalues --    5.51451   5.53122   5.53122   5.53917   5.54676
 Alpha virt. eigenvalues --    5.54676   5.54899   5.57082   5.59256   5.59256
 Alpha virt. eigenvalues --    5.59384   5.59856   5.60590   5.62970   5.66227
 Alpha virt. eigenvalues --    5.67944   5.68545   5.68545   5.68812   5.69744
 Alpha virt. eigenvalues --    5.69987   5.69987   5.70235   5.70504   5.70754
 Alpha virt. eigenvalues --    5.70754   5.70910   5.71293   5.74182   5.74182
 Alpha virt. eigenvalues --    5.78822   5.81434   5.81746   5.82930   5.82930
 Alpha virt. eigenvalues --    5.82984   5.85580   5.85580   5.85742   5.86752
 Alpha virt. eigenvalues --    5.87640   5.89212   5.89212   5.89287   5.91294
 Alpha virt. eigenvalues --    5.91294   5.92130   5.92200   5.95708   5.95777
 Alpha virt. eigenvalues --    5.95777   5.97400   5.98591   6.02333   6.02333
 Alpha virt. eigenvalues --    6.02766   6.02952   6.02958   6.03979   6.04620
 Alpha virt. eigenvalues --    6.05115   6.05115   6.05786   6.05786   6.05935
 Alpha virt. eigenvalues --    6.07717   6.07717   6.07923   6.08095   6.10715
 Alpha virt. eigenvalues --    6.11819   6.12012   6.12017   6.12018   6.14542
 Alpha virt. eigenvalues --    6.16327   6.16328   6.17219   6.18334   6.23319
 Alpha virt. eigenvalues --    6.24406   6.24718   6.24718   6.25849   6.27588
 Alpha virt. eigenvalues --    6.27588   6.29127   6.31932   6.33618   6.33618
 Alpha virt. eigenvalues --    6.34033   6.34484   6.35601   6.35601   6.37239
 Alpha virt. eigenvalues --    6.38314   6.56695   6.56695   6.57274   6.58739
 Alpha virt. eigenvalues --    6.59026   6.59517   6.60486   6.61981   6.61981
 Alpha virt. eigenvalues --    6.73171   6.73171   6.73727   6.74999   6.75411
 Alpha virt. eigenvalues --    6.75411   6.96889   6.98092   6.99263   6.99263
 Alpha virt. eigenvalues --    7.02493   7.04041   7.04865   7.04865   7.11961
 Alpha virt. eigenvalues --    7.12003   7.12003   7.12280   7.12858   7.14214
 Alpha virt. eigenvalues --    7.15568   7.16152   7.16152   7.18840   7.18840
 Alpha virt. eigenvalues --    7.19870   7.26284   7.26961   7.26961   7.27288
 Alpha virt. eigenvalues --    7.29345   7.29345   7.32726   7.34749   7.36329
 Alpha virt. eigenvalues --    7.40439   7.40439   7.41560   7.44685   7.44685
 Alpha virt. eigenvalues --    7.47067   7.56047   7.56047   7.59147   7.59692
 Alpha virt. eigenvalues --    7.60804   7.60804   7.63620   7.63696   7.77501
 Alpha virt. eigenvalues --    7.78596   7.78596   7.88097   8.08411   8.25665
 Alpha virt. eigenvalues --    8.26594   8.31389   8.31389   8.39947   8.43975
 Alpha virt. eigenvalues --    8.43975   8.56669   8.79809   8.93953   8.93953
 Alpha virt. eigenvalues --    8.95560   9.02288   9.03081   9.15543   9.15543
 Alpha virt. eigenvalues --    9.41740   9.91699   9.95994   9.95994   9.96795
 Alpha virt. eigenvalues --   10.08108  10.18371  10.19079  10.19079  10.20068
 Alpha virt. eigenvalues --   10.20240  10.20240  10.20385  10.20989  10.28594
 Alpha virt. eigenvalues --   10.28594  10.37448  10.37448  10.37546  10.37967
 Alpha virt. eigenvalues --   10.45231  10.49525  10.49601  10.49601  10.53975
 Alpha virt. eigenvalues --   10.58948  10.65620  10.65620  10.69576  10.92729
 Alpha virt. eigenvalues --   10.94700  10.94700  10.99407  11.03990  11.39359
 Alpha virt. eigenvalues --   11.39359  11.76172  11.77049  11.77343  11.79317
 Alpha virt. eigenvalues --   11.79317  11.87963  11.87963  14.46854  14.47389
 Alpha virt. eigenvalues --   14.47389  14.68869  14.77291  14.79264  14.79264
 Alpha virt. eigenvalues --   14.86646  21.78781  21.85495  21.85495  21.87898
 Alpha virt. eigenvalues --   22.01059  22.09433  22.09433  22.16339  22.22501
 Alpha virt. eigenvalues --   22.24015  22.24015  22.24730  22.25795  22.26189
 Alpha virt. eigenvalues --   22.26189  22.31532  22.50563  22.50563  22.50905
 Alpha virt. eigenvalues --   22.51811  22.58730  22.61160  22.61160  22.62821
 Alpha virt. eigenvalues --   22.68757  22.74848  22.74848  22.80344  23.31906
 Alpha virt. eigenvalues --   23.34652  23.34653  23.40739  26.46261  26.46261
 Alpha virt. eigenvalues --   26.63675  26.80446  27.19458  32.18350  32.18350
 Alpha virt. eigenvalues --   32.19546  32.50973  32.57950  32.59213  32.59213
 Alpha virt. eigenvalues --   32.69011  34.21789  65.48199  65.54508  65.54508
 Alpha virt. eigenvalues --   65.56871  65.75737  65.83960  65.83960  65.89097
 Alpha virt. eigenvalues --   65.96013  65.97085  65.97085  65.97485  65.98735
 Alpha virt. eigenvalues --   66.00756  66.00756  66.07471  66.26510  66.26510
 Alpha virt. eigenvalues --   66.26742  66.27976  66.40990  66.41041  66.41041
 Alpha virt. eigenvalues --   66.42611  66.49991  66.57749  66.57749  66.64512
 Alpha virt. eigenvalues --   67.16923  67.20314  67.20314  67.27229  94.08013
 Alpha virt. eigenvalues --   94.08013  94.09447  94.43501  94.50191  94.51468
 Alpha virt. eigenvalues --   94.51468  94.61685 100.26413 100.72234 100.72234
 Alpha virt. eigenvalues --  518.43409
          Condensed to atoms (all electrons):
 Mulliken charges:
               1
     1  C   -0.085725
     2  C   -0.085732
     3  C   -0.249046
     4  C    0.102039
     5  C    0.102040
     6  C   -0.249040
     7  C    0.409638
     8  C    0.409631
     9  N   -0.274755
    10  N   -0.567106
    11  N   -0.567106
    12  H    0.120856
    13  H    0.120856
    14  H    0.133767
    15  H    0.133767
    16  C   -0.085727
    17  C   -0.085727
    18  C   -0.249054
    19  C    0.102053
    20  C    0.102051
    21  C   -0.249050
    22  C    0.409634
    23  C    0.409628
    24  N   -0.274752
    25  N   -0.567106
    26  H    0.120856
    27  H    0.120856
    28  H    0.133767
    29  H    0.133767
    30  C   -0.085725
    31  C   -0.085732
    32  C   -0.249050
    33  C    0.102045
    34  C    0.102043
    35  C   -0.249041
    36  C    0.409635
    37  C    0.409629
    38  N   -0.274754
    39  N   -0.567106
    40  H    0.120857
    41  H    0.120856
    42  H    0.133767
    43  H    0.133767
    44  C   -0.085725
    45  C   -0.085731
    46  C   -0.249056
    47  C    0.102062
    48  C    0.102054
    49  C   -0.249048
    50  C    0.409625
    51  C    0.409625
    52  N   -0.274752
    53  H    0.120856
    54  H    0.120856
    55  H    0.133767
    56  H    0.133767
    57  Zn  -0.160413
    58  C   -0.000369
    59  C   -0.000370
    60  C    0.029388
    61  C   -0.028711
    62  C   -0.028711
    63  C    0.029388
    64  C   -0.001887
    65  C   -0.001887
    66  N   -0.000418
    67  N    0.001667
    68  N    0.001667
    69  H   -0.001226
    70  H   -0.001226
    71  H   -0.000237
    72  H   -0.000237
    73  C   -0.000370
    74  C   -0.000369
    75  C    0.029390
    76  C   -0.028710
    77  C   -0.028711
    78  C    0.029389
    79  C   -0.001888
    80  C   -0.001887
    81  N   -0.000418
    82  N    0.001667
    83  H   -0.001226
    84  H   -0.001226
    85  H   -0.000237
    86  H   -0.000237
    87  C   -0.000371
    88  C   -0.000369
    89  C    0.029390
    90  C   -0.028713
    91  C   -0.028709
    92  C    0.029388
    93  C   -0.001886
    94  C   -0.001888
    95  N   -0.000418
    96  N    0.001667
    97  H   -0.001226
    98  H   -0.001226
    99  H   -0.000237
   100  H   -0.000237
   101  C   -0.000370
   102  C   -0.000369
   103  C    0.029390
   104  C   -0.028713
   105  C   -0.028710
   106  C    0.029388
   107  C   -0.001887
   108  C   -0.001887
   109  N   -0.000418
   110  H   -0.001226
   111  H   -0.001226
   112  H   -0.000237
   113  H   -0.000237
   114  Zn   0.094986
 Sum of Mulliken charges =  -0.00000
 Mulliken charges with hydrogens summed into heavy atoms:
               1
     1  C    0.035131
     2  C    0.035123
     3  C   -0.115280
     4  C    0.102039
     5  C    0.102040
     6  C   -0.115272
     7  C    0.409638
     8  C    0.409631
     9  N   -0.274755
    10  N   -0.567106
    11  N   -0.567106
    16  C    0.035129
    17  C    0.035129
    18  C   -0.115287
    19  C    0.102053
    20  C    0.102051
    21  C   -0.115283
    22  C    0.409634
    23  C    0.409628
    24  N   -0.274752
    25  N   -0.567106
    30  C    0.035131
    31  C    0.035124
    32  C   -0.115283
    33  C    0.102045
    34  C    0.102043
    35  C   -0.115274
    36  C    0.409635
    37  C    0.409629
    38  N   -0.274754
    39  N   -0.567106
    44  C    0.035131
    45  C    0.035126
    46  C   -0.115289
    47  C    0.102062
    48  C    0.102054
    49  C   -0.115281
    50  C    0.409625
    51  C    0.409625
    52  N   -0.274752
    57  Zn  -0.160413
    58  C   -0.001595
    59  C   -0.001596
    60  C    0.029151
    61  C   -0.028711
    62  C   -0.028711
    63  C    0.029151
    64  C   -0.001887
    65  C   -0.001887
    66  N   -0.000418
    67  N    0.001667
    68  N    0.001667
    73  C   -0.001597
    74  C   -0.001595
    75  C    0.029153
    76  C   -0.028710
    77  C   -0.028711
    78  C    0.029152
    79  C   -0.001888
    80  C   -0.001887
    81  N   -0.000418
    82  N    0.001667
    87  C   -0.001597
    88  C   -0.001595
    89  C    0.029152
    90  C   -0.028713
    91  C   -0.028709
    92  C    0.029151
    93  C   -0.001886
    94  C   -0.001888
    95  N   -0.000418
    96  N    0.001667
   101  C   -0.001596
   102  C   -0.001595
   103  C    0.029153
   104  C   -0.028713
   105  C   -0.028710
   106  C    0.029151
   107  C   -0.001887
   108  C   -0.001887
   109  N   -0.000418
   114  Zn   0.094986
         Mulliken charges condensed to fragments:
      1     -0.075642
      2      0.075642
 Electronic spatial extent (au):  <R**2>=          25242.6076
 Charge=              0.0000 electrons
 Dipole moment (field-independent basis, Debye):
    X=             -0.0000    Y=             -0.0000    Z=              0.0379  Tot=              0.0379
 Quadrupole moment (field-independent basis, Debye-Ang):
   XX=           -210.2636   YY=           -210.2636   ZZ=           -248.9297
   XY=              0.0000   XZ=             -0.0000   YZ=             -0.0000
 Traceless Quadrupole moment (field-independent basis, Debye-Ang):
   XX=             12.8887   YY=             12.8887   ZZ=            -25.7774
   XY=              0.0000   XZ=             -0.0000   YZ=             -0.0000
 Octapole moment (field-independent basis, Debye-Ang**2):
  XXX=             -0.0000  YYY=             -0.0000  ZZZ=          -1306.7916  XYY=              0.0000
  XXY=             -0.0000  XXZ=           -367.2810  XZZ=             -0.0000  YZZ=             -0.0000
  YYZ=           -367.2810  XYZ=              0.0000
 Hexadecapole moment (field-independent basis, Debye-Ang**3):
 XXXX=         -13345.2057 YYYY=         -13345.2057 ZZZZ=          -4853.6943 XXXY=              0.0000
 XXXZ=             -0.0000 YYYX=              0.0000 YYYZ=             -0.0000 ZZZX=             -0.0000
 ZZZY=             -0.0000 XXYY=          -4830.3537 XXZZ=          -3539.9807 YYZZ=          -3539.9807
 XXYZ=             -0.0000 YYXZ=              0.0000 ZZXY=             -0.0000
 N-N= 5.050362369963D+03 E-N=-1.823324026650D+04  KE= 3.433898793869D+03
 Leave Link  601 at Wed Apr 22 22:02:16 2026, MaxMem=  8589934592 cpu:         4.7
 (Enter /opt/g09/l122.exe)
 CPIOFr:  IOpCl= 0 IRwI=-1 IRwCP=  731 ICalc=  1 LCPTot=     7389475 Len1MO=    19550682 IndFrg=    46490839
 Counterpoise: doing DCBS calculation for fragment   2 NewBq=T
 Leave Link  122 at Wed Apr 22 22:02:16 2026, MaxMem=  8589934592 cpu:         0.9
 (Enter /opt/g09/l301.exe)
 Basis read from rwf:  (5D, 7F)
 No pseudopotential information found on rwf file.
  2208 basis functions,  3746 primitive gaussians,  2382 cartesian basis functions
   147 alpha electrons      147 beta electrons
       nuclear repulsion energy      5050.3623699626 Hartrees.
 IExCor=10402 DFT=T Ex=LC-B+HF Corr=LYP ExCW=0 ScaHFX=  1.000000
 ScaDFX=  1.000000  1.000000  1.000000  1.000000 ScalE2=  1.000000  1.000000
 IRadAn=      0 IRanWt=     -1 IRanGd=            0 ICorTp=0 IEmpDi=  4
  HFx wShort=  0.000000 wLong=  0.350000 cFull=  0.000000 cShort=  0.000000 cLong=  1.000000
  DFx wShort=  0.000000 wLong=  0.350000 cFull=  0.000000 cShort=  0.000000 cLong=  1.000000
 NAtoms=  114 NActive=  114 NUniq=  114 SFac= 1.00D+00 NAtFMM=   60 NAOKFM=T Big=T
 Integral buffers will be    131072 words long.
 Raffenetti 2 integral format.
 Two-electron integral symmetry is turned off.
 No density basis found on file   718.
 Leave Link  301 at Wed Apr 22 22:02:16 2026, MaxMem=  8589934592 cpu:         0.2
 (Enter /opt/g09/l302.exe)
 NPDir=0 NMtPBC=     1 NCelOv=     1 NCel=       1 NClECP=     1 NCelD=      1
         NCelK=      1 NCelE2=     1 NClLst=     1 CellRange=     0.0.
 One-electron integrals computed using PRISM.
 NBasis=  2208 RedAO= T EigKep=  1.27D-06  NBF=  2208
 NBsUse=  2208 1.00D-06 EigRej= -1.00D+00 NBFU=  2208
 Precomputing XC quadrature grid using
 IXCGrd= 4 IRadAn=           0 IRanWt=          -1 IRanGd=           0 AccXCQ= 0.00D+00.
 Generated NRdTot=       0 NPtTot=           0 NUsed=           0 NTot=          32
 NSgBfM=  1912  1912  1912  1912  1912 MxSgAt=   114 MxSgA2=   114.
 Leave Link  302 at Wed Apr 22 22:02:23 2026, MaxMem=  8589934592 cpu:        58.9
 (Enter /opt/g09/l303.exe)
 DipDrv:  MaxL=1.
 Leave Link  303 at Wed Apr 22 22:02:24 2026, MaxMem=  8589934592 cpu:         4.5
 (Enter /opt/g09/l401.exe)
 ExpMin= 4.78D-02 ExpMax= 4.06D+05 ExpMxC= 3.92D+03 IAcc=2 IRadAn=         4 AccDes= 0.00D+00
 Harris functional with IExCor=10402 and IRadAn=       4 diagonalized for initial guess.
 HarFok:  IExCor=10402 AccDes= 0.00D+00 IRadAn=         4 IDoV= 1 UseB2=F ITyADJ=14
 ICtDFT=  3500011 ScaDFX=  1.000000  1.000000  1.000000  1.000000
 FoFCou: FMM=F IPFlag=           0 FMFlag=      100000 FMFlg1=        2001
         NFxFlg=           0 DoJE=T BraDBF=F KetDBF=T FulRan=T
         wScrn=  0.000000 ICntrl=     500 IOpCl=  0 I1Cent=   200000004 NGrid=           0
         NMat0=    1 NMatS0=      1 NMatT0=    0 NMatD0=    1 NMtDS0=    0 NMtDT0=    0
 Symmetry not used in FoFCou.
 Harris En= -3390.30085045307    
 JPrj=0 DoOrth=F DoCkMO=F.
 Leave Link  401 at Wed Apr 22 22:02:41 2026, MaxMem=  8589934592 cpu:       135.7
 (Enter /opt/g09/l502.exe)
 Closed shell SCF:
 Using DIIS extrapolation, IDIIS=  1040.
 Two-electron integral symmetry not used.
 IVT=    17073898 IEndB=    17073898 NGot=  8589934592 MDV=  8578553641
 LenX=  8578553641 LenY=  8572877335
 Requested convergence on RMS density matrix=1.00D-08 within 128 cycles.
 Requested convergence on MAX density matrix=1.00D-06.
 Requested convergence on             energy=1.00D-06.
 No special actions if energy rises.
 Fock matrices will be formed incrementally for  20 cycles.

 Cycle   1  Pass 1  IDiag  1:
 FoFJK:  IHMeth= 1 ICntrl=       0 DoSepK=T KAlg= 0 I1Cent=   0 FoldK=F
 IRaf=         1 NMat=   1 IRICut=       1 DoRegI=T DoRafI=F ISym2E= 0.
 FoFCou: FMM=T IPFlag=           0 FMFlag=      100000 FMFlg1=        2001
         NFxFlg=           0 DoJE=T BraDBF=F KetDBF=F FulRan=T
         wScrn=  0.000000 ICntrl=     500 IOpCl=  0 I1Cent=           0 NGrid=           0
         NMat0=    1 NMatS0=      1 NMatT0=    0 NMatD0=    1 NMtDS0=    0 NMtDT0=    0
 Symmetry not used in FoFCou.
 FMM levels:  10  Number of levels for PrismC:   9
 E= -3441.97113380400    
 DIIS: error= 2.44D-02 at cycle   1 NSaved=   1.
 NSaved= 1 IEnMin= 1 EnMin= -3441.97113380400     IErMin= 1 ErrMin= 2.44D-02
 ErrMax= 2.44D-02  0.00D+00 EMaxC= 1.00D-01 BMatC= 1.09D+00 BMatP= 1.09D+00
 IDIUse=3 WtCom= 7.56D-01 WtEn= 2.44D-01
 Coeff-Com:  0.100D+01
 Coeff-En:   0.100D+01
 Coeff:      0.100D+01
 Gap=     0.621 Goal=   None    Shift=    0.000
 DSYEVD-2 returned Info=     3662521 IAlg= 4 N=  2208 NDim=  2208 NE2=     3882642 trying  DSYEV.
 GapD=    0.621 DampG=2.000 DampE=0.250 DampFc=0.5000 IDamp=-1.
 Damping current iteration by 5.00D-01
 RMSDP=1.75D-03 MaxDP=2.33D-01              OVMax= 1.78D-01

 Cycle   2  Pass 1  IDiag  1:
 RMSU=  7.60D-04    CP:  9.01D-01
 E= -3442.23978038012     Delta-E=       -0.268646576118 Rises=F Damp=T
 DIIS: error= 9.03D-03 at cycle   2 NSaved=   2.
 NSaved= 2 IEnMin= 2 EnMin= -3442.23978038012     IErMin= 2 ErrMin= 9.03D-03
 ErrMax= 9.03D-03  0.00D+00 EMaxC= 1.00D-01 BMatC= 1.55D-01 BMatP= 1.09D+00
 IDIUse=3 WtCom= 9.10D-01 WtEn= 9.03D-02
 Coeff-Com:  0.187D+00 0.813D+00
 Coeff-En:   0.987D-01 0.901D+00
 Coeff:      0.179D+00 0.821D+00
 Gap=     0.190 Goal=   None    Shift=    0.000
 DSYEVD-2 returned Info=        4417 IAlg= 4 N=  2208 NDim=  2208 NE2=     3882642 trying  DSYEV.
 RMSDP=9.28D-04 MaxDP=1.63D-01 DE=-2.69D-01 OVMax= 9.09D-02

 Cycle   3  Pass 1  IDiag  1:
 RMSU=  4.32D-04    CP:  7.73D-01  1.79D+00
 E= -3442.57020157751     Delta-E=       -0.330421197388 Rises=F Damp=F
 DIIS: error= 4.09D-03 at cycle   3 NSaved=   3.
 NSaved= 3 IEnMin= 3 EnMin= -3442.57020157751     IErMin= 3 ErrMin= 4.09D-03
 ErrMax= 4.09D-03  0.00D+00 EMaxC= 1.00D-01 BMatC= 2.66D-02 BMatP= 1.55D-01
 IDIUse=3 WtCom= 9.59D-01 WtEn= 4.09D-02
 Coeff-Com:  0.255D-01 0.266D+00 0.708D+00
 Coeff-En:   0.000D+00 0.000D+00 0.100D+01
 Coeff:      0.245D-01 0.255D+00 0.720D+00
 Gap=     0.175 Goal=   None    Shift=    0.000
 RMSDP=1.55D-04 MaxDP=1.56D-02 DE=-3.30D-01 OVMax= 1.54D-02

 Cycle   4  Pass 1  IDiag  1:
 RMSU=  1.26D-04    CP:  7.63D-01  1.81D+00  1.18D+00
 E= -3442.58236343482     Delta-E=       -0.012161857312 Rises=F Damp=F
 DIIS: error= 2.01D-03 at cycle   4 NSaved=   4.
 NSaved= 4 IEnMin= 4 EnMin= -3442.58236343482     IErMin= 4 ErrMin= 2.01D-03
 ErrMax= 2.01D-03  0.00D+00 EMaxC= 1.00D-01 BMatC= 6.13D-03 BMatP= 2.66D-02
 IDIUse=3 WtCom= 9.80D-01 WtEn= 2.01D-02
 Coeff-Com:  0.528D-02 0.125D-01 0.321D+00 0.661D+00
 Coeff-En:   0.000D+00 0.000D+00 0.563D-01 0.944D+00
 Coeff:      0.517D-02 0.122D-01 0.316D+00 0.667D+00
 Gap=     0.177 Goal=   None    Shift=    0.000
 RMSDP=6.36D-05 MaxDP=8.00D-03 DE=-1.22D-02 OVMax= 1.51D-02

 Cycle   5  Pass 1  IDiag  1:
 RMSU=  4.64D-05    CP:  7.57D-01  1.84D+00  1.22D+00  1.18D+00
 E= -3442.58558668871     Delta-E=       -0.003223253885 Rises=F Damp=F
 DIIS: error= 2.91D-04 at cycle   5 NSaved=   5.
 NSaved= 5 IEnMin= 5 EnMin= -3442.58558668871     IErMin= 5 ErrMin= 2.91D-04
 ErrMax= 2.91D-04  0.00D+00 EMaxC= 1.00D-01 BMatC= 1.66D-04 BMatP= 6.13D-03
 IDIUse=3 WtCom= 9.97D-01 WtEn= 2.91D-03
 Coeff-Com: -0.538D-03-0.910D-02 0.511D-01 0.199D+00 0.759D+00
 Coeff-En:   0.000D+00 0.000D+00 0.000D+00 0.000D+00 0.100D+01
 Coeff:     -0.536D-03-0.908D-02 0.509D-01 0.199D+00 0.760D+00
 Gap=     0.177 Goal=   None    Shift=    0.000
 RMSDP=2.31D-05 MaxDP=2.03D-03 DE=-3.22D-03 OVMax= 3.52D-03

 Cycle   6  Pass 1  IDiag  1:
 RMSU=  1.64D-05    CP:  7.56D-01  1.85D+00  1.23D+00  1.24D+00  1.08D+00
 E= -3442.58577892866     Delta-E=       -0.000192239952 Rises=F Damp=F
 DIIS: error= 1.99D-04 at cycle   6 NSaved=   6.
 NSaved= 6 IEnMin= 6 EnMin= -3442.58577892866     IErMin= 6 ErrMin= 1.99D-04
 ErrMax= 1.99D-04  0.00D+00 EMaxC= 1.00D-01 BMatC= 2.16D-05 BMatP= 1.66D-04
 IDIUse=3 WtCom= 9.98D-01 WtEn= 1.99D-03
 Coeff-Com: -0.676D-03-0.456D-02-0.134D-01-0.315D-02 0.243D+00 0.779D+00
 Coeff-En:   0.000D+00 0.000D+00 0.000D+00 0.000D+00 0.000D+00 0.100D+01
 Coeff:     -0.675D-03-0.455D-02-0.133D-01-0.314D-02 0.243D+00 0.779D+00
 Gap=     0.178 Goal=   None    Shift=    0.000
 RMSDP=1.15D-05 MaxDP=1.54D-03 DE=-1.92D-04 OVMax= 2.38D-03

 Cycle   7  Pass 1  IDiag  1:
 RMSU=  4.79D-06    CP:  7.55D-01  1.85D+00  1.24D+00  1.30D+00  1.20D+00
                    CP:  1.19D+00
 E= -3442.58581351894     Delta-E=       -0.000034590286 Rises=F Damp=F
 DIIS: error= 6.59D-05 at cycle   7 NSaved=   7.
 NSaved= 7 IEnMin= 7 EnMin= -3442.58581351894     IErMin= 7 ErrMin= 6.59D-05
 ErrMax= 6.59D-05  0.00D+00 EMaxC= 1.00D-01 BMatC= 4.49D-06 BMatP= 2.16D-05
 IDIUse=1 WtCom= 1.00D+00 WtEn= 0.00D+00
 Coeff-Com: -0.118D-03-0.107D-02-0.125D-01-0.293D-01-0.103D-01 0.320D+00
 Coeff-Com:  0.734D+00
 Coeff:     -0.118D-03-0.107D-02-0.125D-01-0.293D-01-0.103D-01 0.320D+00
 Coeff:      0.734D+00
 Gap=     0.178 Goal=   None    Shift=    0.000
 RMSDP=4.20D-06 MaxDP=5.50D-04 DE=-3.46D-05 OVMax= 8.15D-04

 Cycle   8  Pass 1  IDiag  1:
 RMSU=  1.83D-06    CP:  7.55D-01  1.85D+00  1.24D+00  1.31D+00  1.24D+00
                    CP:  1.29D+00  1.11D+00
 E= -3442.58582086306     Delta-E=       -0.000007344113 Rises=F Damp=F
 DIIS: error= 1.72D-05 at cycle   8 NSaved=   8.
 NSaved= 8 IEnMin= 8 EnMin= -3442.58582086306     IErMin= 8 ErrMin= 1.72D-05
 ErrMax= 1.72D-05  0.00D+00 EMaxC= 1.00D-01 BMatC= 4.89D-07 BMatP= 4.49D-06
 IDIUse=1 WtCom= 1.00D+00 WtEn= 0.00D+00
 Coeff-Com:  0.106D-03-0.106D-04-0.253D-02-0.872D-02-0.359D-01 0.695D-02
 Coeff-Com:  0.238D+00 0.802D+00
 Coeff:      0.106D-03-0.106D-04-0.253D-02-0.872D-02-0.359D-01 0.695D-02
 Coeff:      0.238D+00 0.802D+00
 Gap=     0.178 Goal=   None    Shift=    0.000
 DSYEVD-2 returned Info=     4729468 IAlg= 4 N=  2208 NDim=  2208 NE2=     3882642 trying  DSYEV.
 RMSDP=1.41D-06 MaxDP=1.30D-04 DE=-7.34D-06 OVMax= 3.50D-04

 Cycle   9  Pass 1  IDiag  1:
 RMSU=  7.30D-07    CP:  7.55D-01  1.85D+00  1.24D+00  1.32D+00  1.25D+00
                    CP:  1.32D+00  1.17D+00  1.24D+00
 E= -3442.58582194587     Delta-E=       -0.000001082813 Rises=F Damp=F
 DIIS: error= 7.82D-06 at cycle   9 NSaved=   9.
 NSaved= 9 IEnMin= 9 EnMin= -3442.58582194587     IErMin= 9 ErrMin= 7.82D-06
 ErrMax= 7.82D-06  0.00D+00 EMaxC= 1.00D-01 BMatC= 1.15D-07 BMatP= 4.89D-07
 IDIUse=1 WtCom= 1.00D+00 WtEn= 0.00D+00
 Coeff-Com:  0.786D-04 0.185D-03 0.815D-03 0.102D-02-0.144D-01-0.492D-01
 Coeff-Com: -0.123D-01 0.330D+00 0.744D+00
 Coeff:      0.786D-04 0.185D-03 0.815D-03 0.102D-02-0.144D-01-0.492D-01
 Coeff:     -0.123D-01 0.330D+00 0.744D+00
 Gap=     0.178 Goal=   None    Shift=    0.000
 DSYEVD-2 returned Info=     4729468 IAlg= 4 N=  2208 NDim=  2208 NE2=     3882642 trying  DSYEV.
 RMSDP=5.48D-07 MaxDP=6.04D-05 DE=-1.08D-06 OVMax= 1.88D-04

 Cycle  10  Pass 1  IDiag  1:
 RMSU=  2.63D-07    CP:  7.55D-01  1.85D+00  1.24D+00  1.32D+00  1.25D+00
                    CP:  1.33D+00  1.21D+00  1.42D+00  1.18D+00
 E= -3442.58582219925     Delta-E=       -0.000000253374 Rises=F Damp=F
 DIIS: error= 5.32D-06 at cycle  10 NSaved=  10.
 NSaved=10 IEnMin=10 EnMin= -3442.58582219925     IErMin=10 ErrMin= 5.32D-06
 ErrMax= 5.32D-06  0.00D+00 EMaxC= 1.00D-01 BMatC= 2.49D-08 BMatP= 1.15D-07
 IDIUse=1 WtCom= 1.00D+00 WtEn= 0.00D+00
 Coeff-Com: -0.189D-05 0.962D-04 0.109D-02 0.335D-02 0.491D-02-0.217D-01
 Coeff-Com: -0.707D-01-0.102D+00 0.290D+00 0.894D+00
 Coeff:     -0.189D-05 0.962D-04 0.109D-02 0.335D-02 0.491D-02-0.217D-01
 Coeff:     -0.707D-01-0.102D+00 0.290D+00 0.894D+00
 Gap=     0.178 Goal=   None    Shift=    0.000
 RMSDP=3.45D-07 MaxDP=3.40D-05 DE=-2.53D-07 OVMax= 1.20D-04

 Cycle  11  Pass 1  IDiag  1:
 RMSU=  2.00D-07    CP:  7.55D-01  1.85D+00  1.24D+00  1.32D+00  1.26D+00
                    CP:  1.33D+00  1.22D+00  1.49D+00  1.42D+00  1.24D+00
 E= -3442.58582227207     Delta-E=       -0.000000072829 Rises=F Damp=F
 DIIS: error= 2.06D-06 at cycle  11 NSaved=  11.
 NSaved=11 IEnMin=11 EnMin= -3442.58582227207     IErMin=11 ErrMin= 2.06D-06
 ErrMax= 2.06D-06  0.00D+00 EMaxC= 1.00D-01 BMatC= 2.41D-09 BMatP= 2.49D-08
 IDIUse=1 WtCom= 1.00D+00 WtEn= 0.00D+00
 Coeff-Com: -0.174D-04 0.182D-04 0.398D-04 0.341D-03 0.187D-02 0.189D-02
 Coeff-Com: -0.688D-02-0.405D-01-0.421D-01 0.153D+00 0.932D+00
 Coeff:     -0.174D-04 0.182D-04 0.398D-04 0.341D-03 0.187D-02 0.189D-02
 Coeff:     -0.688D-02-0.405D-01-0.421D-01 0.153D+00 0.932D+00
 Gap=     0.178 Goal=   None    Shift=    0.000
 DSYEVD-2 returned Info=     3662521 IAlg= 4 N=  2208 NDim=  2208 NE2=     3882642 trying  DSYEV.
 RMSDP=1.99D-07 MaxDP=1.48D-05 DE=-7.28D-08 OVMax= 4.04D-05

 Cycle  12  Pass 1  IDiag  1:
 RMSU=  1.71D-07    CP:  7.55D-01  1.85D+00  1.24D+00  1.32D+00  1.26D+00
                    CP:  1.33D+00  1.22D+00  1.50D+00  1.46D+00  1.53D+00
                    CP:  1.26D+00
 E= -3442.58582228006     Delta-E=       -0.000000007985 Rises=F Damp=F
 DIIS: error= 9.54D-07 at cycle  12 NSaved=  12.
 NSaved=12 IEnMin=12 EnMin= -3442.58582228006     IErMin=12 ErrMin= 9.54D-07
 ErrMax= 9.54D-07  0.00D+00 EMaxC= 1.00D-01 BMatC= 7.68D-10 BMatP= 2.41D-09
 IDIUse=1 WtCom= 1.00D+00 WtEn= 0.00D+00
 Coeff-Com: -0.761D-05-0.156D-04-0.196D-03-0.519D-03-0.381D-04 0.520D-02
 Coeff-Com:  0.107D-01 0.506D-03-0.930D-01-0.131D+00 0.381D+00 0.827D+00
 Coeff:     -0.761D-05-0.156D-04-0.196D-03-0.519D-03-0.381D-04 0.520D-02
 Coeff:      0.107D-01 0.506D-03-0.930D-01-0.131D+00 0.381D+00 0.827D+00
 Gap=     0.178 Goal=   None    Shift=    0.000
 RMSDP=1.75D-07 MaxDP=1.16D-05 DE=-7.99D-09 OVMax= 2.24D-05

 Cycle  13  Pass 1  IDiag  1:
 RMSU=  1.24D-07    CP:  7.55D-01  1.85D+00  1.24D+00  1.32D+00  1.26D+00
                    CP:  1.33D+00  1.22D+00  1.50D+00  1.48D+00  1.66D+00
                    CP:  1.77D+00  1.32D+00
 E= -3442.58582228247     Delta-E=       -0.000000002408 Rises=F Damp=F
 DIIS: error= 4.84D-07 at cycle  13 NSaved=  13.
 NSaved=13 IEnMin=13 EnMin= -3442.58582228247     IErMin=13 ErrMin= 4.84D-07
 ErrMax= 4.84D-07  0.00D+00 EMaxC= 1.00D-01 BMatC= 1.27D-10 BMatP= 7.68D-10
 IDIUse=1 WtCom= 1.00D+00 WtEn= 0.00D+00
 Coeff-Com:  0.514D-05-0.113D-04-0.285D-04-0.166D-03-0.431D-03 0.127D-03
 Coeff-Com:  0.275D-02 0.120D-01 0.352D-04-0.405D-01-0.176D+00 0.135D+00
 Coeff-Com:  0.107D+01
 Coeff:      0.514D-05-0.113D-04-0.285D-04-0.166D-03-0.431D-03 0.127D-03
 Coeff:      0.275D-02 0.120D-01 0.352D-04-0.405D-01-0.176D+00 0.135D+00
 Coeff:      0.107D+01
 Gap=     0.178 Goal=   None    Shift=    0.000
 RMSDP=2.69D-07 MaxDP=2.56D-05 DE=-2.41D-09 OVMax= 9.28D-06

 Cycle  14  Pass 1  IDiag  1:
 RMSU=  1.82D-07    CP:  7.55D-01  1.85D+00  1.24D+00  1.32D+00  1.26D+00
                    CP:  1.33D+00  1.22D+00  1.50D+00  1.50D+00  1.85D+00
                    CP:  2.08D+00  2.34D+00  1.22D+00
 E= -3442.58582228164     Delta-E=        0.000000000826 Rises=F Damp=F
 DIIS: error= 1.31D-07 at cycle  14 NSaved=  14.
 NSaved=14 IEnMin=13 EnMin= -3442.58582228247     IErMin=14 ErrMin= 1.31D-07
 ErrMax= 1.31D-07  0.00D+00 EMaxC= 1.00D-01 BMatC= 1.95D-11 BMatP= 1.27D-10
 IDIUse=1 WtCom= 1.00D+00 WtEn= 0.00D+00
 Coeff-Com:  0.271D-05-0.220D-05 0.162D-04 0.101D-04-0.120D-03-0.598D-03
 Coeff-Com: -0.640D-03 0.415D-02 0.102D-01 0.327D-02-0.119D+00-0.303D-01
 Coeff-Com:  0.360D+00 0.773D+00
 Coeff:      0.271D-05-0.220D-05 0.162D-04 0.101D-04-0.120D-03-0.598D-03
 Coeff:     -0.640D-03 0.415D-02 0.102D-01 0.327D-02-0.119D+00-0.303D-01
 Coeff:      0.360D+00 0.773D+00
 Gap=     0.178 Goal=   None    Shift=    0.000
 RMSDP=2.34D-07 MaxDP=1.37D-05 DE= 8.26D-10 OVMax= 3.03D-06

 Cycle  15  Pass 1  IDiag  1:
 RMSU=  1.21D-07    CP:  7.55D-01  1.85D+00  1.24D+00  1.32D+00  1.26D+00
                    CP:  1.33D+00  1.22D+00  1.50D+00  1.51D+00  1.94D+00
                    CP:  2.35D+00  3.00D+00  2.44D+00  9.38D-01
 E= -3442.58582228101     Delta-E=        0.000000000637 Rises=F Damp=F
 DIIS: error= 1.19D-07 at cycle  15 NSaved=  15.
 NSaved=15 IEnMin=13 EnMin= -3442.58582228247     IErMin=15 ErrMin= 1.19D-07
 ErrMax= 1.19D-07  0.00D+00 EMaxC= 1.00D-01 BMatC= 8.35D-12 BMatP= 1.95D-11
 IDIUse=1 WtCom= 1.00D+00 WtEn= 0.00D+00
 Coeff-Com: -0.346D-07 0.181D-05 0.118D-04 0.345D-04 0.326D-04-0.253D-03
 Coeff-Com: -0.864D-03-0.367D-03 0.374D-02 0.984D-02-0.208D-01-0.271D-01
 Coeff-Com: -0.722D-01 0.360D+00 0.747D+00
 Coeff:     -0.346D-07 0.181D-05 0.118D-04 0.345D-04 0.326D-04-0.253D-03
 Coeff:     -0.864D-03-0.367D-03 0.374D-02 0.984D-02-0.208D-01-0.271D-01
 Coeff:     -0.722D-01 0.360D+00 0.747D+00
 Gap=     0.178 Goal=   None    Shift=    0.000
 RMSDP=2.60D-07 MaxDP=2.44D-05 DE= 6.37D-10 OVMax= 1.19D-06

 Cycle  16  Pass 1  IDiag  1:
 RMSU=  1.23D-07    CP:  7.55D-01  1.85D+00  1.24D+00  1.32D+00  1.26D+00
                    CP:  1.33D+00  1.22D+00  1.50D+00  1.53D+00  2.06D+00
                    CP:  2.66D+00  3.00D+00  2.81D+00  2.08D+00  9.17D-01
 E= -3442.58582227997     Delta-E=        0.000000001037 Rises=F Damp=F
 DIIS: error= 1.12D-07 at cycle  16 NSaved=  16.
 NSaved=16 IEnMin=13 EnMin= -3442.58582228247     IErMin=16 ErrMin= 1.12D-07
 ErrMax= 1.12D-07  0.00D+00 EMaxC= 1.00D-01 BMatC= 4.75D-12 BMatP= 8.35D-12
 IDIUse=1 WtCom= 1.00D+00 WtEn= 0.00D+00
 Coeff-Com: -0.285D-06 0.144D-05 0.617D-05 0.211D-04 0.326D-04-0.106D-03
 Coeff-Com: -0.518D-03-0.584D-03 0.142D-02 0.627D-02-0.357D-02-0.124D-01
 Coeff-Com: -0.861D-01 0.184D+00 0.432D+00 0.480D+00
 Coeff:     -0.285D-06 0.144D-05 0.617D-05 0.211D-04 0.326D-04-0.106D-03
 Coeff:     -0.518D-03-0.584D-03 0.142D-02 0.627D-02-0.357D-02-0.124D-01
 Coeff:     -0.861D-01 0.184D+00 0.432D+00 0.480D+00
 Gap=     0.178 Goal=   None    Shift=    0.000
 RMSDP=1.60D-07 MaxDP=8.46D-06 DE= 1.04D-09 OVMax= 2.77D-07

 Cycle  17  Pass 1  IDiag  1:
 RMSU=  8.13D-08    CP:  7.55D-01  1.85D+00  1.24D+00  1.32D+00  1.26D+00
                    CP:  1.33D+00  1.22D+00  1.50D+00  1.54D+00  2.13D+00
                    CP:  2.77D+00  3.00D+00  3.00D+00  2.30D+00  1.76D+00
                    CP:  1.45D+00
 E= -3442.58582227917     Delta-E=        0.000000000797 Rises=F Damp=F
 DIIS: error= 1.29D-07 at cycle  17 NSaved=  17.
 NSaved=17 IEnMin=13 EnMin= -3442.58582228247     IErMin=16 ErrMin= 1.12D-07
 ErrMax= 1.29D-07  0.00D+00 EMaxC= 1.00D-01 BMatC= 4.97D-12 BMatP= 4.75D-12
 IDIUse=1 WtCom= 1.00D+00 WtEn= 0.00D+00
 Coeff-Com: -0.282D-06 0.143D-05 0.615D-05 0.210D-04 0.324D-04-0.106D-03
 Coeff-Com: -0.516D-03-0.578D-03 0.142D-02 0.625D-02-0.363D-02-0.124D-01
 Coeff-Com: -0.855D-01 0.183D+00 0.430D+00 0.478D+00 0.427D-02
 Coeff:     -0.282D-06 0.143D-05 0.615D-05 0.210D-04 0.324D-04-0.106D-03
 Coeff:     -0.516D-03-0.578D-03 0.142D-02 0.625D-02-0.363D-02-0.124D-01
 Coeff:     -0.855D-01 0.183D+00 0.430D+00 0.478D+00 0.427D-02
 Gap=     0.178 Goal=   None    Shift=    0.000
 RMSDP=1.13D-09 MaxDP=6.86D-08 DE= 7.97D-10 OVMax= 1.19D-09

 SCF Done:  E(RLC-B+HF-LYP) =  -3442.58582228     A.U. after   17 cycles
            NFock= 17  Conv=0.11D-08     -V/T= 2.0025
 KE= 3.433898793884D+03 PE=-1.823324026696D+04 EE= 6.306393280834D+03
 Leave Link  502 at Thu Apr 23 00:00:55 2026, MaxMem=  8589934592 cpu:     56384.8
 (Enter /opt/g09/l601.exe)
 Copying SCF densities to generalized density rwf, IOpCl= 0 IROHF=0.
 Hyperfine terms turned off by default for NAtoms > 100.

 **********************************************************************

            Population analysis using the SCF density.

 **********************************************************************

 Alpha  occ. eigenvalues -- -345.97248 -41.84097 -36.92396 -36.91551 -36.91551
 Alpha  occ. eigenvalues --  -14.20516 -14.20515 -14.20514 -14.20514 -14.19673
 Alpha  occ. eigenvalues --  -14.19672 -14.19672 -14.19672 -10.16868 -10.16866
 Alpha  occ. eigenvalues --  -10.16866 -10.16864 -10.16862 -10.16860 -10.16860
 Alpha  occ. eigenvalues --  -10.16858 -10.09954 -10.09954 -10.09954 -10.09954
 Alpha  occ. eigenvalues --  -10.09922 -10.09922 -10.09922 -10.09922 -10.09758
 Alpha  occ. eigenvalues --  -10.09758 -10.09758 -10.09758 -10.09755 -10.09755
 Alpha  occ. eigenvalues --  -10.09755 -10.09754 -10.09596 -10.09596 -10.09596
 Alpha  occ. eigenvalues --  -10.09596 -10.09560 -10.09560 -10.09560 -10.09560
 Alpha  occ. eigenvalues --   -4.78967  -3.23597  -3.22165  -3.22165  -1.13247
 Alpha  occ. eigenvalues --   -1.11787  -1.11787  -1.08979  -1.06782  -1.02635
 Alpha  occ. eigenvalues --   -1.02635  -0.99527  -0.98219  -0.98219  -0.98173
 Alpha  occ. eigenvalues --   -0.98141  -0.90132  -0.88790  -0.88574  -0.88574
 Alpha  occ. eigenvalues --   -0.88185  -0.88185  -0.88005  -0.87868  -0.84367
 Alpha  occ. eigenvalues --   -0.81722  -0.81722  -0.76272  -0.76065  -0.75239
 Alpha  occ. eigenvalues --   -0.75239  -0.74621  -0.74293  -0.71780  -0.71780
 Alpha  occ. eigenvalues --   -0.71728  -0.70620  -0.68092  -0.67144  -0.67144
 Alpha  occ. eigenvalues --   -0.65660  -0.65480  -0.65480  -0.61900  -0.61807
 Alpha  occ. eigenvalues --   -0.61644  -0.61239  -0.59870  -0.59814  -0.59814
 Alpha  occ. eigenvalues --   -0.59709  -0.59709  -0.58394  -0.58394  -0.57642
 Alpha  occ. eigenvalues --   -0.57489  -0.56974  -0.56820  -0.56713  -0.56713
 Alpha  occ. eigenvalues --   -0.55949  -0.55408  -0.55408  -0.55328  -0.54848
 Alpha  occ. eigenvalues --   -0.54298  -0.54066  -0.54066  -0.52810  -0.51811
 Alpha  occ. eigenvalues --   -0.51000  -0.48929  -0.48926  -0.48926  -0.47915
 Alpha  occ. eigenvalues --   -0.47659  -0.47659  -0.46942  -0.46862  -0.46842
 Alpha  occ. eigenvalues --   -0.46842  -0.46164  -0.44994  -0.44994  -0.44835
 Alpha  occ. eigenvalues --   -0.43262  -0.43262  -0.42136  -0.39189  -0.39189
 Alpha  occ. eigenvalues --   -0.38289  -0.37368  -0.36378  -0.36040  -0.35806
 Alpha  occ. eigenvalues --   -0.35806  -0.35274  -0.34986  -0.34986  -0.34799
 Alpha  occ. eigenvalues --   -0.34158  -0.24113
 Alpha virt. eigenvalues --   -0.06321  -0.06321   0.02245   0.02895   0.03297
 Alpha virt. eigenvalues --    0.04137   0.04231   0.04231   0.05726   0.05726
 Alpha virt. eigenvalues --    0.06952   0.07190   0.07565   0.08292   0.09311
 Alpha virt. eigenvalues --    0.09316   0.09316   0.09455   0.09455   0.09737
 Alpha virt. eigenvalues --    0.10558   0.10558   0.11340   0.11476   0.11694
 Alpha virt. eigenvalues --    0.12117   0.12117   0.12292   0.12507   0.12751
 Alpha virt. eigenvalues --    0.13117   0.13117   0.13287   0.13884   0.14308
 Alpha virt. eigenvalues --    0.14308   0.14914   0.15069   0.15069   0.15238
 Alpha virt. eigenvalues --    0.15800   0.16073   0.16610   0.16610   0.17195
 Alpha virt. eigenvalues --    0.17219   0.17807   0.17973   0.18122   0.18122
 Alpha virt. eigenvalues --    0.18463   0.18587   0.18587   0.18778   0.18925
 Alpha virt. eigenvalues --    0.18925   0.19359   0.19860   0.19861   0.19861
 Alpha virt. eigenvalues --    0.20393   0.20393   0.20523   0.21189   0.21399
 Alpha virt. eigenvalues --    0.21748   0.21748   0.22545   0.22565   0.22661
 Alpha virt. eigenvalues --    0.23217   0.23217   0.23405   0.23931   0.24240
 Alpha virt. eigenvalues --    0.24739   0.24740   0.24944   0.25144   0.25144
 Alpha virt. eigenvalues --    0.25236   0.25440   0.25497   0.25618   0.25618
 Alpha virt. eigenvalues --    0.26173   0.26173   0.26184   0.26587   0.27074
 Alpha virt. eigenvalues --    0.27075   0.27385   0.27385   0.27693   0.27694
 Alpha virt. eigenvalues --    0.27817   0.27925   0.28093   0.28093   0.28250
 Alpha virt. eigenvalues --    0.28263   0.28362   0.28533   0.28533   0.28904
 Alpha virt. eigenvalues --    0.28904   0.29140   0.29146   0.29460   0.29515
 Alpha virt. eigenvalues --    0.29865   0.29865   0.29978   0.30397   0.30500
 Alpha virt. eigenvalues --    0.30856   0.30856   0.31254   0.31254   0.32057
 Alpha virt. eigenvalues --    0.32190   0.32349   0.32519   0.32617   0.32826
 Alpha virt. eigenvalues --    0.32908   0.32908   0.33160   0.33160   0.33819
 Alpha virt. eigenvalues --    0.34119   0.34119   0.34158   0.34421   0.34529
 Alpha virt. eigenvalues --    0.34529   0.35056   0.35616   0.35795   0.35795
 Alpha virt. eigenvalues --    0.36278   0.36278   0.36408   0.36423   0.36863
 Alpha virt. eigenvalues --    0.36893   0.37214   0.37214   0.37611   0.37760
 Alpha virt. eigenvalues --    0.37760   0.37763   0.38029   0.38193   0.38193
 Alpha virt. eigenvalues --    0.38292   0.38697   0.39036   0.39036   0.39240
 Alpha virt. eigenvalues --    0.39488   0.39544   0.39603   0.39603   0.39715
 Alpha virt. eigenvalues --    0.40559   0.40559   0.40592   0.40851   0.41004
 Alpha virt. eigenvalues --    0.41086   0.41086   0.41667   0.41767   0.41994
 Alpha virt. eigenvalues --    0.42007   0.42007   0.42482   0.42552   0.42552
 Alpha virt. eigenvalues --    0.42584   0.42976   0.43257   0.43322   0.43322
 Alpha virt. eigenvalues --    0.43497   0.43580   0.43580   0.43731   0.44030
 Alpha virt. eigenvalues --    0.44293   0.44293   0.44345   0.45276   0.45276
 Alpha virt. eigenvalues --    0.45407   0.45706   0.45727   0.45728   0.46223
 Alpha virt. eigenvalues --    0.46270   0.46298   0.46474   0.46474   0.46578
 Alpha virt. eigenvalues --    0.46955   0.47155   0.47155   0.47215   0.47565
 Alpha virt. eigenvalues --    0.47844   0.47940   0.47955   0.47955   0.48149
 Alpha virt. eigenvalues --    0.48149   0.48349   0.48640   0.49092   0.49092
 Alpha virt. eigenvalues --    0.49184   0.49223   0.49321   0.49321   0.50079
 Alpha virt. eigenvalues --    0.50079   0.50334   0.50600   0.50614   0.50621
 Alpha virt. eigenvalues --    0.50621   0.50890   0.50890   0.51254   0.51311
 Alpha virt. eigenvalues --    0.51418   0.51958   0.52029   0.52413   0.52499
 Alpha virt. eigenvalues --    0.52503   0.52503   0.52519   0.52519   0.52652
 Alpha virt. eigenvalues --    0.52661   0.52973   0.52973   0.53436   0.53436
 Alpha virt. eigenvalues --    0.53622   0.53988   0.54301   0.54301   0.54892
 Alpha virt. eigenvalues --    0.54897   0.55070   0.55204   0.55204   0.55481
 Alpha virt. eigenvalues --    0.55520   0.55520   0.55701   0.56265   0.56402
 Alpha virt. eigenvalues --    0.56640   0.56640   0.57737   0.57737   0.57806
 Alpha virt. eigenvalues --    0.57977   0.58130   0.58130   0.58381   0.58825
 Alpha virt. eigenvalues --    0.58864   0.58864   0.59067   0.59461   0.60054
 Alpha virt. eigenvalues --    0.60280   0.60469   0.60469   0.60765   0.60766
 Alpha virt. eigenvalues --    0.60934   0.61147   0.61198   0.61198   0.61449
 Alpha virt. eigenvalues --    0.62059   0.62283   0.62340   0.62393   0.62597
 Alpha virt. eigenvalues --    0.62597   0.63136   0.63136   0.63547   0.63580
 Alpha virt. eigenvalues --    0.63987   0.63987   0.64037   0.64077   0.64122
 Alpha virt. eigenvalues --    0.64122   0.64523   0.65385   0.65418   0.65452
 Alpha virt. eigenvalues --    0.65452   0.65858   0.65858   0.66016   0.66040
 Alpha virt. eigenvalues --    0.66404   0.66404   0.66473   0.66800   0.67183
 Alpha virt. eigenvalues --    0.67357   0.67357   0.67638   0.67859   0.67859
 Alpha virt. eigenvalues --    0.68499   0.68846   0.69024   0.69024   0.69170
 Alpha virt. eigenvalues --    0.69231   0.69231   0.69553   0.69756   0.69874
 Alpha virt. eigenvalues --    0.69902   0.70261   0.70965   0.71124   0.71124
 Alpha virt. eigenvalues --    0.71565   0.71698   0.71766   0.71766   0.71984
 Alpha virt. eigenvalues --    0.72202   0.72908   0.72908   0.73120   0.73120
 Alpha virt. eigenvalues --    0.73341   0.73441   0.73460   0.73460   0.73745
 Alpha virt. eigenvalues --    0.73880   0.73935   0.74272   0.74272   0.74765
 Alpha virt. eigenvalues --    0.74846   0.75052   0.75470   0.75652   0.75691
 Alpha virt. eigenvalues --    0.75691   0.76517   0.76839   0.76839   0.77151
 Alpha virt. eigenvalues --    0.77368   0.77685   0.77850   0.77850   0.78316
 Alpha virt. eigenvalues --    0.78316   0.78438   0.78673   0.78717   0.78717
 Alpha virt. eigenvalues --    0.79120   0.79207   0.79229   0.79499   0.79963
 Alpha virt. eigenvalues --    0.79964   0.80333   0.80333   0.80383   0.80435
 Alpha virt. eigenvalues --    0.80435   0.80890   0.81373   0.81528   0.81528
 Alpha virt. eigenvalues --    0.81716   0.81769   0.81770   0.81781   0.82343
 Alpha virt. eigenvalues --    0.82443   0.82443   0.82548   0.82930   0.82951
 Alpha virt. eigenvalues --    0.83472   0.83472   0.83990   0.83991   0.84338
 Alpha virt. eigenvalues --    0.84559   0.84657   0.85062   0.85251   0.85279
 Alpha virt. eigenvalues --    0.85280   0.85818   0.85819   0.86059   0.86279
 Alpha virt. eigenvalues --    0.86890   0.86890   0.87021   0.87278   0.87394
 Alpha virt. eigenvalues --    0.87914   0.87914   0.87933   0.87937   0.88163
 Alpha virt. eigenvalues --    0.88164   0.88202   0.89221   0.89221   0.89587
 Alpha virt. eigenvalues --    0.89639   0.89672   0.89672   0.89969   0.90729
 Alpha virt. eigenvalues --    0.90940   0.90940   0.91125   0.91125   0.91309
 Alpha virt. eigenvalues --    0.91638   0.91661   0.91913   0.91913   0.92010
 Alpha virt. eigenvalues --    0.92625   0.92779   0.92824   0.93104   0.93245
 Alpha virt. eigenvalues --    0.93246   0.93514   0.93514   0.94013   0.94643
 Alpha virt. eigenvalues --    0.94932   0.94932   0.95093   0.95406   0.95406
 Alpha virt. eigenvalues --    0.95560   0.96184   0.96184   0.96219   0.96955
 Alpha virt. eigenvalues --    0.96955   0.97204   0.97634   0.97634   0.97695
 Alpha virt. eigenvalues --    0.97744   0.97862   0.98021   0.99136   0.99137
 Alpha virt. eigenvalues --    0.99627   0.99732   0.99774   1.00072   1.00072
 Alpha virt. eigenvalues --    1.00524   1.01808   1.01808   1.01856   1.02016
 Alpha virt. eigenvalues --    1.02027   1.02028   1.02383   1.02649   1.02748
 Alpha virt. eigenvalues --    1.02811   1.03087   1.03251   1.03251   1.03525
 Alpha virt. eigenvalues --    1.03968   1.04349   1.04350   1.04753   1.04753
 Alpha virt. eigenvalues --    1.04789   1.05095   1.05194   1.05390   1.05390
 Alpha virt. eigenvalues --    1.05402   1.05850   1.05980   1.05980   1.05992
 Alpha virt. eigenvalues --    1.06193   1.06676   1.07288   1.07288   1.07536
 Alpha virt. eigenvalues --    1.08587   1.08957   1.08958   1.09004   1.09400
 Alpha virt. eigenvalues --    1.09410   1.09410   1.09455   1.10097   1.10142
 Alpha virt. eigenvalues --    1.10286   1.10286   1.10453   1.11065   1.11195
 Alpha virt. eigenvalues --    1.11338   1.11720   1.11721   1.11721   1.12065
 Alpha virt. eigenvalues --    1.12065   1.12273   1.12512   1.12512   1.13122
 Alpha virt. eigenvalues --    1.13122   1.13428   1.13490   1.13566   1.13773
 Alpha virt. eigenvalues --    1.13907   1.13908   1.14422   1.14987   1.15079
 Alpha virt. eigenvalues --    1.15079   1.15228   1.15585   1.15729   1.16201
 Alpha virt. eigenvalues --    1.16678   1.16678   1.17047   1.17280   1.17280
 Alpha virt. eigenvalues --    1.17836   1.18042   1.18051   1.18051   1.18570
 Alpha virt. eigenvalues --    1.19120   1.19155   1.19155   1.19237   1.19956
 Alpha virt. eigenvalues --    1.20315   1.20315   1.20752   1.20917   1.20917
 Alpha virt. eigenvalues --    1.21005   1.21232   1.21248   1.21320   1.21320
 Alpha virt. eigenvalues --    1.22065   1.22575   1.22774   1.23012   1.23516
 Alpha virt. eigenvalues --    1.23528   1.23528   1.23686   1.23686   1.23951
 Alpha virt. eigenvalues --    1.23951   1.24058   1.24195   1.24511   1.25044
 Alpha virt. eigenvalues --    1.25096   1.25096   1.25651   1.25651   1.26002
 Alpha virt. eigenvalues --    1.26039   1.26210   1.26248   1.27545   1.27545
 Alpha virt. eigenvalues --    1.27723   1.27992   1.27993   1.28148   1.28203
 Alpha virt. eigenvalues --    1.28634   1.28996   1.28996   1.29522   1.29548
 Alpha virt. eigenvalues --    1.29713   1.29714   1.29727   1.29868   1.29868
 Alpha virt. eigenvalues --    1.30846   1.30846   1.30859   1.30949   1.30982
 Alpha virt. eigenvalues --    1.31226   1.31912   1.32388   1.32388   1.32582
 Alpha virt. eigenvalues --    1.32582   1.32870   1.33185   1.33185   1.33852
 Alpha virt. eigenvalues --    1.33852   1.33865   1.34082   1.34198   1.34643
 Alpha virt. eigenvalues --    1.34737   1.35218   1.35218   1.35428   1.35515
 Alpha virt. eigenvalues --    1.35515   1.35660   1.35910   1.36544   1.36544
 Alpha virt. eigenvalues --    1.36851   1.36852   1.37256   1.37605   1.37686
 Alpha virt. eigenvalues --    1.37686   1.37918   1.38158   1.38158   1.38391
 Alpha virt. eigenvalues --    1.38676   1.39065   1.39167   1.39168   1.39357
 Alpha virt. eigenvalues --    1.40004   1.40004   1.40122   1.40348   1.40516
 Alpha virt. eigenvalues --    1.40516   1.40581   1.40907   1.41004   1.41301
 Alpha virt. eigenvalues --    1.41385   1.41825   1.41943   1.41943   1.42406
 Alpha virt. eigenvalues --    1.42406   1.42495   1.43013   1.43013   1.43023
 Alpha virt. eigenvalues --    1.43236   1.43597   1.44224   1.44224   1.44604
 Alpha virt. eigenvalues --    1.45088   1.45307   1.45308   1.45386   1.46183
 Alpha virt. eigenvalues --    1.46341   1.46430   1.46686   1.46686   1.47089
 Alpha virt. eigenvalues --    1.47226   1.47226   1.47432   1.47697   1.47995
 Alpha virt. eigenvalues --    1.47996   1.48124   1.48570   1.48685   1.48863
 Alpha virt. eigenvalues --    1.48863   1.49335   1.49335   1.49748   1.49748
 Alpha virt. eigenvalues --    1.50248   1.50588   1.50619   1.50881   1.50881
 Alpha virt. eigenvalues --    1.51020   1.51052   1.51447   1.52000   1.52000
 Alpha virt. eigenvalues --    1.52187   1.52384   1.52748   1.52795   1.52893
 Alpha virt. eigenvalues --    1.52893   1.53637   1.53775   1.53775   1.53960
 Alpha virt. eigenvalues --    1.54211   1.54243   1.54243   1.54543   1.54910
 Alpha virt. eigenvalues --    1.55455   1.55455   1.55539   1.55873   1.56103
 Alpha virt. eigenvalues --    1.56103   1.56390   1.56657   1.56746   1.57322
 Alpha virt. eigenvalues --    1.57420   1.57420   1.58201   1.58204   1.58568
 Alpha virt. eigenvalues --    1.58569   1.58908   1.59208   1.59259   1.59259
 Alpha virt. eigenvalues --    1.59430   1.60081   1.60605   1.60648   1.60648
 Alpha virt. eigenvalues --    1.61291   1.61291   1.61322   1.61408   1.61408
 Alpha virt. eigenvalues --    1.62000   1.62519   1.62519   1.62889   1.62889
 Alpha virt. eigenvalues --    1.63069   1.63319   1.63781   1.64145   1.64357
 Alpha virt. eigenvalues --    1.64553   1.64578   1.64578   1.65374   1.65374
 Alpha virt. eigenvalues --    1.65729   1.65849   1.66788   1.66838   1.66838
 Alpha virt. eigenvalues --    1.67122   1.67240   1.67556   1.67556   1.67853
 Alpha virt. eigenvalues --    1.67853   1.67943   1.68329   1.68788   1.69168
 Alpha virt. eigenvalues --    1.69168   1.69887   1.70738   1.70916   1.70916
 Alpha virt. eigenvalues --    1.71357   1.71435   1.71435   1.71455   1.71730
 Alpha virt. eigenvalues --    1.71758   1.72040   1.72306   1.72772   1.73213
 Alpha virt. eigenvalues --    1.73331   1.73331   1.74228   1.74228   1.74743
 Alpha virt. eigenvalues --    1.74753   1.74852   1.74852   1.74859   1.75536
 Alpha virt. eigenvalues --    1.75751   1.75751   1.76527   1.76527   1.76565
 Alpha virt. eigenvalues --    1.76752   1.77144   1.77404   1.77629   1.77629
 Alpha virt. eigenvalues --    1.77814   1.78445   1.78621   1.78622   1.78723
 Alpha virt. eigenvalues --    1.78916   1.78979   1.79463   1.79581   1.79581
 Alpha virt. eigenvalues --    1.79658   1.79730   1.79730   1.80285   1.80357
 Alpha virt. eigenvalues --    1.80828   1.81328   1.81409   1.81409   1.81644
 Alpha virt. eigenvalues --    1.81644   1.81968   1.82206   1.82206   1.82788
 Alpha virt. eigenvalues --    1.82838   1.83141   1.83141   1.83389   1.83851
 Alpha virt. eigenvalues --    1.83912   1.84165   1.84165   1.84786   1.84786
 Alpha virt. eigenvalues --    1.84789   1.84968   1.84982   1.84983   1.85977
 Alpha virt. eigenvalues --    1.86183   1.86524   1.86728   1.86994   1.86994
 Alpha virt. eigenvalues --    1.87133   1.87179   1.87180   1.87218   1.87331
 Alpha virt. eigenvalues --    1.87806   1.87806   1.88074   1.88138   1.88496
 Alpha virt. eigenvalues --    1.88496   1.88728   1.88794   1.89361   1.89547
 Alpha virt. eigenvalues --    1.89786   1.89786   1.90040   1.90316   1.90317
 Alpha virt. eigenvalues --    1.91034   1.91154   1.91372   1.91372   1.91712
 Alpha virt. eigenvalues --    1.92497   1.92526   1.92526   1.92615   1.94053
 Alpha virt. eigenvalues --    1.94182   1.94376   1.94376   1.94479   1.94588
 Alpha virt. eigenvalues --    1.94588   1.95472   1.95670   1.95920   1.96250
 Alpha virt. eigenvalues --    1.96250   1.97429   1.97429   1.97452   1.97507
 Alpha virt. eigenvalues --    1.97532   1.98250   1.98250   1.98944   1.99075
 Alpha virt. eigenvalues --    1.99414   2.00165   2.00165   2.00814   2.00814
 Alpha virt. eigenvalues --    2.00978   2.02274   2.02472   2.02473   2.02646
 Alpha virt. eigenvalues --    2.02646   2.02863   2.03169   2.03559   2.04703
 Alpha virt. eigenvalues --    2.04703   2.05085   2.05115   2.05115   2.05397
 Alpha virt. eigenvalues --    2.05534   2.05534   2.05575   2.05689   2.06980
 Alpha virt. eigenvalues --    2.06981   2.07224   2.08153   2.08169   2.08230
 Alpha virt. eigenvalues --    2.08429   2.08613   2.08738   2.08739   2.08965
 Alpha virt. eigenvalues --    2.09246   2.10042   2.10043   2.10497   2.10741
 Alpha virt. eigenvalues --    2.11012   2.11012   2.11104   2.12220   2.12362
 Alpha virt. eigenvalues --    2.12362   2.13903   2.14293   2.14581   2.14581
 Alpha virt. eigenvalues --    2.15497   2.15497   2.15570   2.15926   2.16848
 Alpha virt. eigenvalues --    2.16848   2.17291   2.17291   2.17387   2.18613
 Alpha virt. eigenvalues --    2.19014   2.19532   2.19584   2.19584   2.19632
 Alpha virt. eigenvalues --    2.19864   2.20121   2.20121   2.20245   2.20559
 Alpha virt. eigenvalues --    2.21025   2.21025   2.21564   2.22549   2.22549
 Alpha virt. eigenvalues --    2.23083   2.23113   2.23554   2.23884   2.23884
 Alpha virt. eigenvalues --    2.24528   2.24895   2.25300   2.25724   2.25857
 Alpha virt. eigenvalues --    2.25857   2.27225   2.27884   2.27984   2.27986
 Alpha virt. eigenvalues --    2.27986   2.28200   2.28200   2.29190   2.29482
 Alpha virt. eigenvalues --    2.29482   2.30068   2.30105   2.30105   2.30542
 Alpha virt. eigenvalues --    2.31229   2.31269   2.31560   2.31831   2.32212
 Alpha virt. eigenvalues --    2.32212   2.33155   2.33477   2.33477   2.33497
 Alpha virt. eigenvalues --    2.34504   2.34658   2.34658   2.34879   2.35873
 Alpha virt. eigenvalues --    2.35873   2.36742   2.36956   2.37199   2.37199
 Alpha virt. eigenvalues --    2.37483   2.37536   2.38295   2.38480   2.38480
 Alpha virt. eigenvalues --    2.38777   2.38780   2.38780   2.39859   2.40439
 Alpha virt. eigenvalues --    2.40519   2.40520   2.40703   2.40925   2.40970
 Alpha virt. eigenvalues --    2.42002   2.42002   2.42605   2.43167   2.43260
 Alpha virt. eigenvalues --    2.43867   2.43867   2.44091   2.44559   2.45439
 Alpha virt. eigenvalues --    2.45931   2.45931   2.46445   2.46623   2.46623
 Alpha virt. eigenvalues --    2.47505   2.47642   2.47790   2.47790   2.48997
 Alpha virt. eigenvalues --    2.49105   2.49199   2.49730   2.49730   2.50619
 Alpha virt. eigenvalues --    2.51073   2.51154   2.51154   2.51509   2.51586
 Alpha virt. eigenvalues --    2.51756   2.51756   2.52015   2.52365   2.52781
 Alpha virt. eigenvalues --    2.52781   2.53003   2.53029   2.53029   2.53247
 Alpha virt. eigenvalues --    2.53363   2.53364   2.54379   2.54614   2.55091
 Alpha virt. eigenvalues --    2.55091   2.55140   2.55492   2.55671   2.56292
 Alpha virt. eigenvalues --    2.56806   2.56898   2.56898   2.57470   2.57470
 Alpha virt. eigenvalues --    2.58318   2.58318   2.58348   2.58710   2.58710
 Alpha virt. eigenvalues --    2.58741   2.59741   2.60416   2.60698   2.60908
 Alpha virt. eigenvalues --    2.60908   2.60948   2.62331   2.62331   2.63435
 Alpha virt. eigenvalues --    2.63828   2.63828   2.64356   2.65219   2.65219
 Alpha virt. eigenvalues --    2.65352   2.65444   2.65640   2.66032   2.66032
 Alpha virt. eigenvalues --    2.67028   2.67072   2.67454   2.67928   2.68814
 Alpha virt. eigenvalues --    2.68814   2.69650   2.69985   2.70083   2.71792
 Alpha virt. eigenvalues --    2.71808   2.71928   2.71928   2.72216   2.72216
 Alpha virt. eigenvalues --    2.72531   2.72879   2.73681   2.74259   2.74259
 Alpha virt. eigenvalues --    2.74464   2.75052   2.75052   2.75864   2.76136
 Alpha virt. eigenvalues --    2.76136   2.76159   2.76871   2.77195   2.77196
 Alpha virt. eigenvalues --    2.77390   2.77443   2.77607   2.77628   2.77819
 Alpha virt. eigenvalues --    2.77819   2.78314   2.79094   2.79094   2.79100
 Alpha virt. eigenvalues --    2.79416   2.80157   2.80157   2.80587   2.81160
 Alpha virt. eigenvalues --    2.81244   2.82025   2.82025   2.82813   2.82850
 Alpha virt. eigenvalues --    2.83546   2.83546   2.84420   2.84628   2.84628
 Alpha virt. eigenvalues --    2.85116   2.86428   2.88151   2.88151   2.88335
 Alpha virt. eigenvalues --    2.89480   2.90201   2.90201   2.90356   2.91528
 Alpha virt. eigenvalues --    2.91774   2.92663   2.92663   2.93264   2.93373
 Alpha virt. eigenvalues --    2.93374   2.93752   2.94250   2.94250   2.94751
 Alpha virt. eigenvalues --    2.95173   2.95173   2.95348   2.95702   2.96275
 Alpha virt. eigenvalues --    2.96665   2.96665   2.96898   2.97332   2.97786
 Alpha virt. eigenvalues --    2.98157   2.98175   2.98825   2.98825   2.99002
 Alpha virt. eigenvalues --    2.99995   2.99995   3.01429   3.01476   3.01476
 Alpha virt. eigenvalues --    3.01601   3.02880   3.03663   3.03663   3.04059
 Alpha virt. eigenvalues --    3.04847   3.04886   3.04888   3.04888   3.05871
 Alpha virt. eigenvalues --    3.05871   3.06599   3.06607   3.06837   3.06837
 Alpha virt. eigenvalues --    3.07217   3.07793   3.07793   3.09348   3.09728
 Alpha virt. eigenvalues --    3.09864   3.09864   3.10325   3.10753   3.10753
 Alpha virt. eigenvalues --    3.10918   3.10918   3.11047   3.11217   3.11658
 Alpha virt. eigenvalues --    3.12535   3.12701   3.13394   3.13415   3.13415
 Alpha virt. eigenvalues --    3.13633   3.13704   3.14164   3.14164   3.14501
 Alpha virt. eigenvalues --    3.14893   3.15375   3.15375   3.18198   3.18601
 Alpha virt. eigenvalues --    3.19093   3.19566   3.19616   3.19618   3.19619
 Alpha virt. eigenvalues --    3.19778   3.20107   3.20107   3.21023   3.21880
 Alpha virt. eigenvalues --    3.21880   3.22252   3.22590   3.22827   3.22867
 Alpha virt. eigenvalues --    3.22867   3.23171   3.23542   3.23542   3.23925
 Alpha virt. eigenvalues --    3.24116   3.24116   3.25077   3.25474   3.25487
 Alpha virt. eigenvalues --    3.26612   3.26612   3.26819   3.27575   3.27575
 Alpha virt. eigenvalues --    3.28353   3.28549   3.28647   3.28926   3.28926
 Alpha virt. eigenvalues --    3.29157   3.30304   3.32247   3.32332   3.32332
 Alpha virt. eigenvalues --    3.32866   3.33278   3.33278   3.33414   3.34282
 Alpha virt. eigenvalues --    3.34282   3.34458   3.34745   3.35242   3.35490
 Alpha virt. eigenvalues --    3.35669   3.35669   3.36657   3.37219   3.37219
 Alpha virt. eigenvalues --    3.37683   3.38055   3.38055   3.38302   3.38722
 Alpha virt. eigenvalues --    3.38722   3.39017   3.39025   3.39236   3.41553
 Alpha virt. eigenvalues --    3.41719   3.41719   3.41881   3.41928   3.41928
 Alpha virt. eigenvalues --    3.42098   3.42829   3.42958   3.42958   3.43570
 Alpha virt. eigenvalues --    3.44022   3.44230   3.44230   3.44549   3.45626
 Alpha virt. eigenvalues --    3.45868   3.46130   3.46130   3.46474   3.46900
 Alpha virt. eigenvalues --    3.47308   3.47308   3.47437   3.47437   3.47643
 Alpha virt. eigenvalues --    3.47763   3.49227   3.49548   3.50776   3.50914
 Alpha virt. eigenvalues --    3.50914   3.50946   3.51410   3.51410   3.51628
 Alpha virt. eigenvalues --    3.51991   3.52338   3.52338   3.53231   3.54593
 Alpha virt. eigenvalues --    3.55292   3.55558   3.55558   3.55712   3.55769
 Alpha virt. eigenvalues --    3.55769   3.56034   3.56332   3.56332   3.57073
 Alpha virt. eigenvalues --    3.57682   3.57682   3.57968   3.58247   3.58473
 Alpha virt. eigenvalues --    3.58473   3.58519   3.59955   3.60944   3.60944
 Alpha virt. eigenvalues --    3.61467   3.61930   3.62119   3.62610   3.62726
 Alpha virt. eigenvalues --    3.63142   3.63771   3.63771   3.65940   3.66038
 Alpha virt. eigenvalues --    3.66038   3.66668   3.66668   3.67659   3.68842
 Alpha virt. eigenvalues --    3.69043   3.69043   3.69649   3.71119   3.71446
 Alpha virt. eigenvalues --    3.71446   3.71461   3.71512   3.72237   3.72238
 Alpha virt. eigenvalues --    3.73122   3.74729   3.75094   3.75094   3.75429
 Alpha virt. eigenvalues --    3.76049   3.76279   3.76279   3.76890   3.78499
 Alpha virt. eigenvalues --    3.79107   3.79107   3.79682   3.80430   3.80430
 Alpha virt. eigenvalues --    3.80835   3.82690   3.82690   3.83508   3.83726
 Alpha virt. eigenvalues --    3.83727   3.84144   3.84781   3.84914   3.84914
 Alpha virt. eigenvalues --    3.86380   3.87099   3.87253   3.87848   3.88544
 Alpha virt. eigenvalues --    3.91294   3.94211   3.94211   3.95320   3.98073
 Alpha virt. eigenvalues --    3.98074   3.98465   4.01211   4.01427   4.01427
 Alpha virt. eigenvalues --    4.01735   4.01838   4.02079   4.02872   4.02872
 Alpha virt. eigenvalues --    4.05219   4.06298   4.07628   4.07628   4.08746
 Alpha virt. eigenvalues --    4.08747   4.09391   4.10051   4.11789   4.11789
 Alpha virt. eigenvalues --    4.11965   4.14448   4.14645   4.17386   4.21674
 Alpha virt. eigenvalues --    4.21674   4.24272   4.25325   4.25377   4.25526
 Alpha virt. eigenvalues --    4.25813   4.25813   4.26702   4.26702   4.28249
 Alpha virt. eigenvalues --    4.30882   4.32997   4.32997   4.33566   4.34312
 Alpha virt. eigenvalues --    4.34312   4.35657   4.35711   4.36786   4.37289
 Alpha virt. eigenvalues --    4.37289   4.37430   4.37639   4.37695   4.37695
 Alpha virt. eigenvalues --    4.38329   4.38461   4.40943   4.41685   4.41685
 Alpha virt. eigenvalues --    4.42727   4.42727   4.43015   4.44755   4.47558
 Alpha virt. eigenvalues --    4.47808   4.47931   4.47931   4.48513   4.48621
 Alpha virt. eigenvalues --    4.48626   4.48626   4.48721   4.48997   4.49744
 Alpha virt. eigenvalues --    4.49744   4.50629   4.50629   4.51214   4.52403
 Alpha virt. eigenvalues --    4.54377   4.54494   4.54494   4.55508   4.58622
 Alpha virt. eigenvalues --    4.58804   4.59451   4.59451   4.60619   4.60997
 Alpha virt. eigenvalues --    4.61305   4.61305   4.61689   4.62587   4.63009
 Alpha virt. eigenvalues --    4.63009   4.63416   4.64024   4.64024   4.65623
 Alpha virt. eigenvalues --    4.66700   4.68843   4.69014   4.69131   4.69251
 Alpha virt. eigenvalues --    4.69251   4.70416   4.70416   4.71795   4.72042
 Alpha virt. eigenvalues --    4.73282   4.73346   4.73547   4.73645   4.73645
 Alpha virt. eigenvalues --    4.75219   4.75219   4.76503   4.76943   4.76943
 Alpha virt. eigenvalues --    4.76995   4.77165   4.77370   4.77370   4.77537
 Alpha virt. eigenvalues --    4.79547   4.79787   4.80226   4.80226   4.80362
 Alpha virt. eigenvalues --    4.80734   4.80734   4.80748   4.82275   4.82275
 Alpha virt. eigenvalues --    4.82419   4.82989   4.82989   4.83131   4.83415
 Alpha virt. eigenvalues --    4.83688   4.85021   4.85659   4.85659   4.86337
 Alpha virt. eigenvalues --    4.86764   4.87075   4.87075   4.87178   4.87210
 Alpha virt. eigenvalues --    4.89548   4.90039   4.90039   4.90710   4.91413
 Alpha virt. eigenvalues --    4.91658   4.91658   4.92954   4.93841   4.93956
 Alpha virt. eigenvalues --    4.93956   4.95161   4.95708   4.95708   4.96620
 Alpha virt. eigenvalues --    4.96620   4.97144   4.97700   4.97715   4.97715
 Alpha virt. eigenvalues --    4.98119   4.99367   4.99367   5.00086   5.00593
 Alpha virt. eigenvalues --    5.01444   5.01987   5.02354   5.02354   5.02561
 Alpha virt. eigenvalues --    5.03163   5.04545   5.05314   5.05581   5.05581
 Alpha virt. eigenvalues --    5.06576   5.07299   5.07299   5.07563   5.07563
 Alpha virt. eigenvalues --    5.07708   5.07983   5.08373   5.09258   5.09258
 Alpha virt. eigenvalues --    5.09800   5.10366   5.11065   5.11065   5.11296
 Alpha virt. eigenvalues --    5.12026   5.12026   5.12304   5.12869   5.13455
 Alpha virt. eigenvalues --    5.13544   5.14655   5.15759   5.15821   5.15821
 Alpha virt. eigenvalues --    5.16893   5.17937   5.17937   5.18079   5.18719
 Alpha virt. eigenvalues --    5.19112   5.19112   5.19393   5.20256   5.20256
 Alpha virt. eigenvalues --    5.20792   5.21143   5.21143   5.21170   5.21786
 Alpha virt. eigenvalues --    5.23400   5.23538   5.23753   5.23753   5.24479
 Alpha virt. eigenvalues --    5.24479   5.24746   5.26266   5.26266   5.26437
 Alpha virt. eigenvalues --    5.26945   5.27271   5.27271   5.27278   5.27519
 Alpha virt. eigenvalues --    5.27519   5.28659   5.28659   5.28762   5.29322
 Alpha virt. eigenvalues --    5.29322   5.30063   5.30115   5.30704   5.30704
 Alpha virt. eigenvalues --    5.31573   5.32287   5.32386   5.35304   5.35882
 Alpha virt. eigenvalues --    5.35882   5.39694   5.40183   5.40183   5.41926
 Alpha virt. eigenvalues --    5.41926   5.43280   5.43762   5.44548   5.44952
 Alpha virt. eigenvalues --    5.44952   5.45544   5.46515   5.46515   5.46808
 Alpha virt. eigenvalues --    5.48826   5.48826   5.51174   5.51271   5.51451
 Alpha virt. eigenvalues --    5.51451   5.53122   5.53122   5.53917   5.54676
 Alpha virt. eigenvalues --    5.54676   5.54899   5.57082   5.59256   5.59256
 Alpha virt. eigenvalues --    5.59384   5.59856   5.60590   5.62970   5.66227
 Alpha virt. eigenvalues --    5.67944   5.68545   5.68545   5.68811   5.69744
 Alpha virt. eigenvalues --    5.69987   5.69987   5.70235   5.70504   5.70754
 Alpha virt. eigenvalues --    5.70754   5.70910   5.71293   5.74182   5.74182
 Alpha virt. eigenvalues --    5.78821   5.81434   5.81746   5.82930   5.82930
 Alpha virt. eigenvalues --    5.82984   5.85580   5.85581   5.85742   5.86752
 Alpha virt. eigenvalues --    5.87640   5.89212   5.89213   5.89287   5.91294
 Alpha virt. eigenvalues --    5.91294   5.92130   5.92199   5.95708   5.95777
 Alpha virt. eigenvalues --    5.95777   5.97400   5.98591   6.02333   6.02333
 Alpha virt. eigenvalues --    6.02766   6.02952   6.02958   6.03979   6.04620
 Alpha virt. eigenvalues --    6.05115   6.05115   6.05786   6.05786   6.05935
 Alpha virt. eigenvalues --    6.07717   6.07717   6.07923   6.08095   6.10715
 Alpha virt. eigenvalues --    6.11819   6.12012   6.12018   6.12018   6.14542
 Alpha virt. eigenvalues --    6.16327   6.16328   6.17219   6.18333   6.23319
 Alpha virt. eigenvalues --    6.24406   6.24718   6.24718   6.25849   6.27588
 Alpha virt. eigenvalues --    6.27588   6.29127   6.31932   6.33618   6.33618
 Alpha virt. eigenvalues --    6.34033   6.34484   6.35601   6.35601   6.37239
 Alpha virt. eigenvalues --    6.38314   6.56695   6.56695   6.57274   6.58739
 Alpha virt. eigenvalues --    6.59026   6.59517   6.60486   6.61981   6.61981
 Alpha virt. eigenvalues --    6.73171   6.73171   6.73727   6.74999   6.75411
 Alpha virt. eigenvalues --    6.75411   6.96889   6.98092   6.99263   6.99263
 Alpha virt. eigenvalues --    7.02493   7.04041   7.04865   7.04865   7.11961
 Alpha virt. eigenvalues --    7.12003   7.12003   7.12280   7.12858   7.14214
 Alpha virt. eigenvalues --    7.15568   7.16152   7.16152   7.18840   7.18840
 Alpha virt. eigenvalues --    7.19870   7.26284   7.26961   7.26961   7.27288
 Alpha virt. eigenvalues --    7.29345   7.29345   7.32726   7.34749   7.36329
 Alpha virt. eigenvalues --    7.40439   7.40439   7.41560   7.44685   7.44685
 Alpha virt. eigenvalues --    7.47067   7.56047   7.56047   7.59147   7.59692
 Alpha virt. eigenvalues --    7.60804   7.60804   7.63620   7.63696   7.77501
 Alpha virt. eigenvalues --    7.78596   7.78596   7.88097   8.08411   8.25665
 Alpha virt. eigenvalues --    8.26594   8.31389   8.31389   8.39947   8.43975
 Alpha virt. eigenvalues --    8.43975   8.56669   8.79809   8.93953   8.93953
 Alpha virt. eigenvalues --    8.95560   9.02288   9.03081   9.15543   9.15543
 Alpha virt. eigenvalues --    9.41740   9.91699   9.95994   9.95994   9.96795
 Alpha virt. eigenvalues --   10.08108  10.18371  10.19079  10.19079  10.20068
 Alpha virt. eigenvalues --   10.20240  10.20240  10.20385  10.20989  10.28594
 Alpha virt. eigenvalues --   10.28594  10.37448  10.37448  10.37545  10.37967
 Alpha virt. eigenvalues --   10.45231  10.49525  10.49601  10.49601  10.53975
 Alpha virt. eigenvalues --   10.58948  10.65620  10.65620  10.69576  10.92729
 Alpha virt. eigenvalues --   10.94700  10.94700  10.99407  11.03990  11.39359
 Alpha virt. eigenvalues --   11.39359  11.76172  11.77049  11.77343  11.79317
 Alpha virt. eigenvalues --   11.79317  11.87963  11.87963  14.46854  14.47389
 Alpha virt. eigenvalues --   14.47389  14.68869  14.77291  14.79264  14.79264
 Alpha virt. eigenvalues --   14.86646  21.78781  21.85495  21.85495  21.87898
 Alpha virt. eigenvalues --   22.01059  22.09433  22.09433  22.16339  22.22501
 Alpha virt. eigenvalues --   22.24015  22.24015  22.24730  22.25795  22.26189
 Alpha virt. eigenvalues --   22.26189  22.31532  22.50563  22.50563  22.50905
 Alpha virt. eigenvalues --   22.51811  22.58730  22.61160  22.61160  22.62821
 Alpha virt. eigenvalues --   22.68757  22.74848  22.74848  22.80344  23.31906
 Alpha virt. eigenvalues --   23.34652  23.34653  23.40739  26.46261  26.46261
 Alpha virt. eigenvalues --   26.63675  26.80446  27.19458  32.18350  32.18350
 Alpha virt. eigenvalues --   32.19546  32.50973  32.57950  32.59213  32.59213
 Alpha virt. eigenvalues --   32.69011  34.21789  65.48199  65.54508  65.54508
 Alpha virt. eigenvalues --   65.56871  65.75737  65.83960  65.83960  65.89097
 Alpha virt. eigenvalues --   65.96013  65.97085  65.97085  65.97485  65.98735
 Alpha virt. eigenvalues --   66.00756  66.00756  66.07471  66.26510  66.26510
 Alpha virt. eigenvalues --   66.26742  66.27976  66.40990  66.41041  66.41041
 Alpha virt. eigenvalues --   66.42611  66.49991  66.57749  66.57749  66.64512
 Alpha virt. eigenvalues --   67.16923  67.20314  67.20314  67.27229  94.08013
 Alpha virt. eigenvalues --   94.08013  94.09447  94.43501  94.50191  94.51468
 Alpha virt. eigenvalues --   94.51468  94.61685 100.26413 100.72234 100.72234
 Alpha virt. eigenvalues --  518.43409
          Condensed to atoms (all electrons):
 Mulliken charges:
               1
     1  C   -0.000369
     2  C   -0.000369
     3  C    0.029388
     4  C   -0.028711
     5  C   -0.028712
     6  C    0.029388
     7  C   -0.001886
     8  C   -0.001886
     9  N   -0.000418
    10  N    0.001667
    11  N    0.001667
    12  H   -0.001226
    13  H   -0.001226
    14  H   -0.000237
    15  H   -0.000237
    16  C   -0.000370
    17  C   -0.000369
    18  C    0.029389
    19  C   -0.028711
    20  C   -0.028711
    21  C    0.029389
    22  C   -0.001887
    23  C   -0.001887
    24  N   -0.000418
    25  N    0.001667
    26  H   -0.001226
    27  H   -0.001226
    28  H   -0.000237
    29  H   -0.000237
    30  C   -0.000369
    31  C   -0.000369
    32  C    0.029388
    33  C   -0.028711
    34  C   -0.028713
    35  C    0.029388
    36  C   -0.001886
    37  C   -0.001886
    38  N   -0.000418
    39  N    0.001667
    40  H   -0.001226
    41  H   -0.001226
    42  H   -0.000237
    43  H   -0.000237
    44  C   -0.000369
    45  C   -0.000369
    46  C    0.029389
    47  C   -0.028711
    48  C   -0.028710
    49  C    0.029389
    50  C   -0.001888
    51  C   -0.001888
    52  N   -0.000418
    53  H   -0.001226
    54  H   -0.001226
    55  H   -0.000237
    56  H   -0.000237
    57  Zn   0.094986
    58  C   -0.085725
    59  C   -0.085734
    60  C   -0.249043
    61  C    0.102041
    62  C    0.102052
    63  C   -0.249036
    64  C    0.409629
    65  C    0.409620
    66  N   -0.274754
    67  N   -0.567107
    68  N   -0.567106
    69  H    0.120857
    70  H    0.120856
    71  H    0.133768
    72  H    0.133767
    73  C   -0.085725
    74  C   -0.085732
    75  C   -0.249050
    76  C    0.102054
    77  C    0.102060
    78  C   -0.249047
    79  C    0.409627
    80  C    0.409623
    81  N   -0.274754
    82  N   -0.567108
    83  H    0.120856
    84  H    0.120856
    85  H    0.133767
    86  H    0.133767
    87  C   -0.085729
    88  C   -0.085730
    89  C   -0.249039
    90  C    0.102049
    91  C    0.102029
    92  C   -0.249043
    93  C    0.409623
    94  C    0.409636
    95  N   -0.274751
    96  N   -0.567106
    97  H    0.120856
    98  H    0.120856
    99  H    0.133767
   100  H    0.133768
   101  C   -0.085725
   102  C   -0.085732
   103  C   -0.249052
   104  C    0.102059
   105  C    0.102049
   106  C   -0.249051
   107  C    0.409630
   108  C    0.409631
   109  N   -0.274755
   110  H    0.120857
   111  H    0.120856
   112  H    0.133767
   113  H    0.133768
   114  Zn  -0.160410
 Sum of Mulliken charges =  -0.00000
 Mulliken charges with hydrogens summed into heavy atoms:
               1
     1  C   -0.001596
     2  C   -0.001595
     3  C    0.029151
     4  C   -0.028711
     5  C   -0.028712
     6  C    0.029150
     7  C   -0.001886
     8  C   -0.001886
     9  N   -0.000418
    10  N    0.001667
    11  N    0.001667
    16  C   -0.001596
    17  C   -0.001596
    18  C    0.029151
    19  C   -0.028711
    20  C   -0.028711
    21  C    0.029152
    22  C   -0.001887
    23  C   -0.001887
    24  N   -0.000418
    25  N    0.001667
    30  C   -0.001596
    31  C   -0.001595
    32  C    0.029151
    33  C   -0.028711
    34  C   -0.028713
    35  C    0.029151
    36  C   -0.001886
    37  C   -0.001886
    38  N   -0.000418
    39  N    0.001667
    44  C   -0.001596
    45  C   -0.001596
    46  C    0.029152
    47  C   -0.028711
    48  C   -0.028710
    49  C    0.029151
    50  C   -0.001888
    51  C   -0.001888
    52  N   -0.000418
    57  Zn   0.094986
    58  C    0.035132
    59  C    0.035122
    60  C   -0.115276
    61  C    0.102041
    62  C    0.102052
    63  C   -0.115269
    64  C    0.409629
    65  C    0.409620
    66  N   -0.274754
    67  N   -0.567107
    68  N   -0.567106
    73  C    0.035131
    74  C    0.035124
    75  C   -0.115283
    76  C    0.102054
    77  C    0.102060
    78  C   -0.115280
    79  C    0.409627
    80  C    0.409623
    81  N   -0.274754
    82  N   -0.567108
    87  C    0.035127
    88  C    0.035126
    89  C   -0.115272
    90  C    0.102049
    91  C    0.102029
    92  C   -0.115274
    93  C    0.409623
    94  C    0.409636
    95  N   -0.274751
    96  N   -0.567106
   101  C    0.035131
   102  C    0.035125
   103  C   -0.115285
   104  C    0.102059
   105  C    0.102049
   106  C   -0.115283
   107  C    0.409630
   108  C    0.409631
   109  N   -0.274755
   114  Zn  -0.160410
         Mulliken charges condensed to fragments:
      1      0.075642
      2     -0.075642
 Electronic spatial extent (au):  <R**2>=          25242.6076
 Charge=             -0.0000 electrons
 Dipole moment (field-independent basis, Debye):
    X=             -0.0000    Y=             -0.0000    Z=             -0.0379  Tot=              0.0379
 Quadrupole moment (field-independent basis, Debye-Ang):
   XX=           -210.2636   YY=           -210.2636   ZZ=           -248.9297
   XY=              0.0000   XZ=              0.0000   YZ=              0.0000
 Traceless Quadrupole moment (field-independent basis, Debye-Ang):
   XX=             12.8887   YY=             12.8887   ZZ=            -25.7774
   XY=              0.0000   XZ=              0.0000   YZ=              0.0000
 Octapole moment (field-independent basis, Debye-Ang**2):
  XXX=             -0.0000  YYY=             -0.0000  ZZZ=           1306.7916  XYY=             -0.0000
  XXY=             -0.0000  XXZ=            367.2810  XZZ=             -0.0000  YZZ=             -0.0000
  YYZ=            367.2810  XYZ=             -0.0000
 Hexadecapole moment (field-independent basis, Debye-Ang**3):
 XXXX=         -13345.2055 YYYY=         -13345.2055 ZZZZ=          -4853.6943 XXXY=              0.0000
 XXXZ=              0.0000 YYYX=              0.0000 YYYZ=              0.0000 ZZZX=              0.0000
 ZZZY=              0.0000 XXYY=          -4830.3537 XXZZ=          -3539.9807 YYZZ=          -3539.9807
 XXYZ=              0.0000 YYXZ=              0.0000 ZZXY=             -0.0000
 N-N= 5.050362369963D+03 E-N=-1.823324026697D+04  KE= 3.433898793884D+03
 Leave Link  601 at Thu Apr 23 00:00:56 2026, MaxMem=  8589934592 cpu:         4.6
 (Enter /opt/g09/l122.exe)
 CPIOFr:  IOpCl= 0 IRwI=-1 IRwCP=  731 ICalc=  2 LCPTot=     7389475 Len1MO=    19550682 IndFrg=    66041521
 Counterpoise: doing MCBS calculation for fragment   1
 Leave Link  122 at Thu Apr 23 00:00:56 2026, MaxMem=  8589934592 cpu:         0.9
 (Enter /opt/g09/l301.exe)
 Basis read from rwf:  (5D, 7F)
 No pseudopotential information found on rwf file.
  1104 basis functions,  1873 primitive gaussians,  1191 cartesian basis functions
   147 alpha electrons      147 beta electrons
       nuclear repulsion energy      5050.3623699626 Hartrees.
 IExCor=10402 DFT=T Ex=LC-B+HF Corr=LYP ExCW=0 ScaHFX=  1.000000
 ScaDFX=  1.000000  1.000000  1.000000  1.000000 ScalE2=  1.000000  1.000000
 IRadAn=      0 IRanWt=     -1 IRanGd=            0 ICorTp=0 IEmpDi=  4
  HFx wShort=  0.000000 wLong=  0.350000 cFull=  0.000000 cShort=  0.000000 cLong=  1.000000
  DFx wShort=  0.000000 wLong=  0.350000 cFull=  0.000000 cShort=  0.000000 cLong=  1.000000
 NAtoms=  114 NActive=   57 NUniq=   57 SFac= 1.00D+00 NAtFMM=   60 NAOKFM=F Big=F
 Integral buffers will be    131072 words long.
 Raffenetti 2 integral format.
 Two-electron integral symmetry is turned off.
 No density basis found on file   718.
 Leave Link  301 at Thu Apr 23 00:00:57 2026, MaxMem=  8589934592 cpu:         0.2
 (Enter /opt/g09/l302.exe)
 NPDir=0 NMtPBC=     1 NCelOv=     1 NCel=       1 NClECP=     1 NCelD=      1
         NCelK=      1 NCelE2=     1 NClLst=     1 CellRange=     0.0.
 One-electron integrals computed using PRISM.
 GSVD:  received Info=                   1 from GESDD.
 NBasis=  1104 RedAO= T EigKep=  2.50D-06  NBF=  1104
 NBsUse=  1104 1.00D-06 EigRej= -1.00D+00 NBFU=  1104
 Precomputing XC quadrature grid using
 IXCGrd= 4 IRadAn=           0 IRanWt=          -1 IRanGd=           0 AccXCQ= 0.00D+00.
 Generated NRdTot=       0 NPtTot=           0 NUsed=           0 NTot=          32
 NSgBfM=  1128  1128  1128  1128  1128 MxSgAt=    57 MxSgA2=    57.
 Leave Link  302 at Thu Apr 23 00:00:59 2026, MaxMem=  8589934592 cpu:        17.4
 (Enter /opt/g09/l303.exe)
 DipDrv:  MaxL=1.
 Leave Link  303 at Thu Apr 23 00:00:59 2026, MaxMem=  8589934592 cpu:         1.3
 (Enter /opt/g09/l401.exe)
 ExpMin= 4.78D-02 ExpMax= 4.06D+05 ExpMxC= 3.92D+03 IAcc=2 IRadAn=         4 AccDes= 0.00D+00
 Harris functional with IExCor=10402 and IRadAn=       4 diagonalized for initial guess.
 HarFok:  IExCor=10402 AccDes= 0.00D+00 IRadAn=         4 IDoV= 1 UseB2=F ITyADJ=14
 ICtDFT=  3500011 ScaDFX=  1.000000  1.000000  1.000000  1.000000
 FoFCou: FMM=F IPFlag=           0 FMFlag=      100000 FMFlg1=           0
         NFxFlg=           0 DoJE=T BraDBF=F KetDBF=T FulRan=T
         wScrn=  0.000000 ICntrl=     500 IOpCl=  0 I1Cent=   200000004 NGrid=           0
         NMat0=    1 NMatS0=      1 NMatT0=    0 NMatD0=    1 NMtDS0=    0 NMtDT0=    0
 Symmetry not used in FoFCou.
 Harris En= -3390.29828258862    
 JPrj=0 DoOrth=F DoCkMO=F.
 Leave Link  401 at Thu Apr 23 00:01:03 2026, MaxMem=  8589934592 cpu:        31.9
 (Enter /opt/g09/l502.exe)
 Closed shell SCF:
 Using DIIS extrapolation, IDIIS=  1040.
 Two-electron integral symmetry not used.
 IVT=     4290895 IEndB=     4290895 NGot=  8589934592 MDV=  8587080010
 LenX=  8587080010 LenY=  8585660338
 Requested convergence on RMS density matrix=1.00D-08 within 128 cycles.
 Requested convergence on MAX density matrix=1.00D-06.
 Requested convergence on             energy=1.00D-06.
 No special actions if energy rises.
 Fock matrices will be formed incrementally for  20 cycles.

 Cycle   1  Pass 1  IDiag  1:
 FoFJK:  IHMeth= 1 ICntrl=       0 DoSepK=T KAlg= 0 I1Cent=   0 FoldK=F
 IRaf=         1 NMat=   1 IRICut=       1 DoRegI=T DoRafI=F ISym2E= 0.
 FoFCou: FMM=F IPFlag=           0 FMFlag=      100000 FMFlg1=           0
         NFxFlg=           0 DoJE=T BraDBF=F KetDBF=F FulRan=T
         wScrn=  0.000000 ICntrl=     500 IOpCl=  0 I1Cent=           0 NGrid=           0
         NMat0=    1 NMatS0=      1 NMatT0=    0 NMatD0=    1 NMtDS0=    0 NMtDT0=    0
 Symmetry not used in FoFCou.
 E= -3441.96892469410    
 DIIS: error= 5.92D-02 at cycle   1 NSaved=   1.
 NSaved= 1 IEnMin= 1 EnMin= -3441.96892469410     IErMin= 1 ErrMin= 5.92D-02
 ErrMax= 5.92D-02  0.00D+00 EMaxC= 1.00D-01 BMatC= 1.09D+00 BMatP= 1.09D+00
 IDIUse=3 WtCom= 4.08D-01 WtEn= 5.92D-01
 Coeff-Com:  0.100D+01
 Coeff-En:   0.100D+01
 Coeff:      0.100D+01
 Gap=     0.621 Goal=   None    Shift=    0.000
 DSYEVD-2 returned Info=     1069639 IAlg= 4 N=  1104 NDim=  1104 NE2=     7776865 trying  DSYEV.
 GapD=    0.621 DampG=2.000 DampE=0.250 DampFc=0.5000 IDamp=-1.
 Damping current iteration by 5.00D-01
 RMSDP=2.59D-03 MaxDP=2.25D-01              OVMax= 1.78D-01

 Cycle   2  Pass 1  IDiag  1:
 RMSU=  1.22D-03    CP:  9.42D-01
 E= -3442.23798890716     Delta-E=       -0.269064213056 Rises=F Damp=T
 DIIS: error= 1.74D-02 at cycle   2 NSaved=   2.
 NSaved= 2 IEnMin= 2 EnMin= -3442.23798890716     IErMin= 2 ErrMin= 1.74D-02
 ErrMax= 1.74D-02  0.00D+00 EMaxC= 1.00D-01 BMatC= 1.55D-01 BMatP= 1.09D+00
 IDIUse=3 WtCom= 8.26D-01 WtEn= 1.74D-01
 Coeff-Com:  0.187D+00 0.813D+00
 Coeff-En:   0.979D-01 0.902D+00
 Coeff:      0.172D+00 0.828D+00
 Gap=     0.190 Goal=   None    Shift=    0.000
 RMSDP=1.23D-03 MaxDP=9.26D-02 DE=-2.69D-01 OVMax= 8.96D-02

 Cycle   3  Pass 1  IDiag  1:
 RMSU=  6.53D-04    CP:  8.66D-01  1.71D+00
 E= -3442.56801412031     Delta-E=       -0.330025213156 Rises=F Damp=F
 DIIS: error= 8.61D-03 at cycle   3 NSaved=   3.
 NSaved= 3 IEnMin= 3 EnMin= -3442.56801412031     IErMin= 3 ErrMin= 8.61D-03
 ErrMax= 8.61D-03  0.00D+00 EMaxC= 1.00D-01 BMatC= 2.97D-02 BMatP= 1.55D-01
 IDIUse=3 WtCom= 9.14D-01 WtEn= 8.61D-02
 Coeff-Com:  0.187D-01 0.282D+00 0.700D+00
 Coeff-En:   0.000D+00 0.000D+00 0.100D+01
 Coeff:      0.171D-01 0.257D+00 0.726D+00
 Gap=     0.175 Goal=   None    Shift=    0.000
 RMSDP=2.52D-04 MaxDP=1.23D-02 DE=-3.30D-01 OVMax= 1.55D-02

 Cycle   4  Pass 1  IDiag  1:
 RMSU=  2.17D-04    CP:  8.57D-01  1.74D+00  1.16D+00
 E= -3442.57994019595     Delta-E=       -0.011926075633 Rises=F Damp=F
 DIIS: error= 4.36D-03 at cycle   4 NSaved=   4.
 NSaved= 4 IEnMin= 4 EnMin= -3442.57994019595     IErMin= 4 ErrMin= 4.36D-03
 ErrMax= 4.36D-03  0.00D+00 EMaxC= 1.00D-01 BMatC= 7.53D-03 BMatP= 2.97D-02
 IDIUse=3 WtCom= 9.56D-01 WtEn= 4.36D-02
 Coeff-Com:  0.466D-02 0.143D-01 0.334D+00 0.647D+00
 Coeff-En:   0.000D+00 0.000D+00 0.980D-01 0.902D+00
 Coeff:      0.446D-02 0.137D-01 0.324D+00 0.658D+00
 Gap=     0.177 Goal=   None    Shift=    0.000
 RMSDP=1.09D-04 MaxDP=8.66D-03 DE=-1.19D-02 OVMax= 1.52D-02

 Cycle   5  Pass 1  IDiag  1:
 RMSU=  7.87D-05    CP:  8.52D-01  1.77D+00  1.22D+00  1.17D+00
 E= -3442.58355276132     Delta-E=       -0.003612565377 Rises=F Damp=F
 DIIS: error= 6.14D-04 at cycle   5 NSaved=   5.
 NSaved= 5 IEnMin= 5 EnMin= -3442.58355276132     IErMin= 5 ErrMin= 6.14D-04
 ErrMax= 6.14D-04  0.00D+00 EMaxC= 1.00D-01 BMatC= 1.93D-04 BMatP= 7.53D-03
 IDIUse=3 WtCom= 9.94D-01 WtEn= 6.14D-03
 Coeff-Com: -0.609D-03-0.875D-02 0.541D-01 0.205D+00 0.751D+00
 Coeff-En:   0.000D+00 0.000D+00 0.000D+00 0.000D+00 0.100D+01
 Coeff:     -0.605D-03-0.870D-02 0.538D-01 0.203D+00 0.752D+00
 Gap=     0.177 Goal=   None    Shift=    0.000
 RMSDP=3.03D-05 MaxDP=2.00D-03 DE=-3.61D-03 OVMax= 3.55D-03

 Cycle   6  Pass 1  IDiag  1:
 RMSU=  2.06D-05    CP:  8.51D-01  1.79D+00  1.24D+00  1.21D+00  1.02D+00
 E= -3442.58375737783     Delta-E=       -0.000204616510 Rises=F Damp=F
 DIIS: error= 4.20D-04 at cycle   6 NSaved=   6.
 NSaved= 6 IEnMin= 6 EnMin= -3442.58375737783     IErMin= 6 ErrMin= 4.20D-04
 ErrMax= 4.20D-04  0.00D+00 EMaxC= 1.00D-01 BMatC= 2.21D-05 BMatP= 1.93D-04
 IDIUse=3 WtCom= 9.96D-01 WtEn= 4.20D-03
 Coeff-Com: -0.641D-03-0.461D-02-0.135D-01 0.295D-03 0.243D+00 0.775D+00
 Coeff-En:   0.000D+00 0.000D+00 0.000D+00 0.000D+00 0.000D+00 0.100D+01
 Coeff:     -0.638D-03-0.459D-02-0.134D-01 0.294D-03 0.242D+00 0.776D+00
 Gap=     0.178 Goal=   None    Shift=    0.000
 RMSDP=1.88D-05 MaxDP=9.53D-04 DE=-2.05D-04 OVMax= 2.39D-03

 Cycle   7  Pass 1  IDiag  1:
 RMSU=  7.41D-06    CP:  8.50D-01  1.79D+00  1.24D+00  1.26D+00  1.13D+00
                    CP:  1.11D+00
 E= -3442.58379213405     Delta-E=       -0.000034756220 Rises=F Damp=F
 DIIS: error= 1.28D-04 at cycle   7 NSaved=   7.
 NSaved= 7 IEnMin= 7 EnMin= -3442.58379213405     IErMin= 7 ErrMin= 1.28D-04
 ErrMax= 1.28D-04  0.00D+00 EMaxC= 1.00D-01 BMatC= 4.59D-06 BMatP= 2.21D-05
 IDIUse=3 WtCom= 9.99D-01 WtEn= 1.28D-03
 Coeff-Com: -0.942D-04-0.113D-02-0.131D-01-0.290D-01-0.947D-02 0.321D+00
 Coeff-Com:  0.732D+00
 Coeff-En:   0.000D+00 0.000D+00 0.000D+00 0.000D+00 0.000D+00 0.000D+00
 Coeff-En:   0.100D+01
 Coeff:     -0.940D-04-0.113D-02-0.131D-01-0.290D-01-0.946D-02 0.321D+00
 Coeff:      0.732D+00
 Gap=     0.178 Goal=   None    Shift=    0.000
 RMSDP=6.99D-06 MaxDP=3.53D-04 DE=-3.48D-05 OVMax= 8.16D-04

 Cycle   8  Pass 1  IDiag  1:
 RMSU=  2.83D-06    CP:  8.50D-01  1.79D+00  1.25D+00  1.28D+00  1.18D+00
                    CP:  1.20D+00  1.14D+00
 E= -3442.58379956544     Delta-E=       -0.000007431383 Rises=F Damp=F
 DIIS: error= 3.50D-05 at cycle   8 NSaved=   8.
 NSaved= 8 IEnMin= 8 EnMin= -3442.58379956544     IErMin= 8 ErrMin= 3.50D-05
 ErrMax= 3.50D-05  0.00D+00 EMaxC= 1.00D-01 BMatC= 5.09D-07 BMatP= 4.59D-06
 IDIUse=1 WtCom= 1.00D+00 WtEn= 0.00D+00
 Coeff-Com:  0.113D-03-0.404D-04-0.276D-02-0.925D-02-0.356D-01 0.903D-02
 Coeff-Com:  0.243D+00 0.795D+00
 Coeff:      0.113D-03-0.404D-04-0.276D-02-0.925D-02-0.356D-01 0.903D-02
 Coeff:      0.243D+00 0.795D+00
 Gap=     0.178 Goal=   None    Shift=    0.000
 RMSDP=1.97D-06 MaxDP=9.14D-05 DE=-7.43D-06 OVMax= 3.51D-04

 Cycle   9  Pass 1  IDiag  1:
 RMSU=  1.04D-06    CP:  8.50D-01  1.79D+00  1.25D+00  1.28D+00  1.19D+00
                    CP:  1.22D+00  1.22D+00  1.19D+00
 E= -3442.58380066188     Delta-E=       -0.000001096443 Rises=F Damp=F
 DIIS: error= 1.69D-05 at cycle   9 NSaved=   9.
 NSaved= 9 IEnMin= 9 EnMin= -3442.58380066188     IErMin= 9 ErrMin= 1.69D-05
 ErrMax= 1.69D-05  0.00D+00 EMaxC= 1.00D-01 BMatC= 1.20D-07 BMatP= 5.09D-07
 IDIUse=1 WtCom= 1.00D+00 WtEn= 0.00D+00
 Coeff-Com:  0.813D-04 0.181D-03 0.829D-03 0.732D-03-0.146D-01-0.494D-01
 Coeff-Com: -0.989D-02 0.332D+00 0.740D+00
 Coeff:      0.813D-04 0.181D-03 0.829D-03 0.732D-03-0.146D-01-0.494D-01
 Coeff:     -0.989D-02 0.332D+00 0.740D+00
 Gap=     0.178 Goal=   None    Shift=    0.000
 RMSDP=8.83D-07 MaxDP=2.81D-05 DE=-1.10D-06 OVMax= 1.90D-04

 Cycle  10  Pass 1  IDiag  1:
 RMSU=  3.96D-07    CP:  8.50D-01  1.79D+00  1.25D+00  1.28D+00  1.19D+00
                    CP:  1.23D+00  1.27D+00  1.36D+00  1.17D+00
 E= -3442.58380092396     Delta-E=       -0.000000262080 Rises=F Damp=F
 DIIS: error= 1.07D-05 at cycle  10 NSaved=  10.
 NSaved=10 IEnMin=10 EnMin= -3442.58380092396     IErMin=10 ErrMin= 1.07D-05
 ErrMax= 1.07D-05  0.00D+00 EMaxC= 1.00D-01 BMatC= 2.42D-08 BMatP= 1.20D-07
 IDIUse=1 WtCom= 1.00D+00 WtEn= 0.00D+00
 Coeff-Com: -0.305D-05 0.972D-04 0.114D-02 0.333D-02 0.487D-02-0.214D-01
 Coeff-Com: -0.697D-01-0.103D+00 0.274D+00 0.910D+00
 Coeff:     -0.305D-05 0.972D-04 0.114D-02 0.333D-02 0.487D-02-0.214D-01
 Coeff:     -0.697D-01-0.103D+00 0.274D+00 0.910D+00
 Gap=     0.178 Goal=   None    Shift=    0.000
 DSYEVD-2 returned Info=        1657 IAlg= 4 N=  1104 NDim=  1104 NE2=     7776865 trying  DSYEV.
 RMSDP=4.36D-07 MaxDP=1.50D-05 DE=-2.62D-07 OVMax= 1.22D-04

 Cycle  11  Pass 1  IDiag  1:
 RMSU=  2.41D-07    CP:  8.50D-01  1.79D+00  1.25D+00  1.29D+00  1.19D+00
                    CP:  1.23D+00  1.29D+00  1.42D+00  1.38D+00  1.17D+00
 E= -3442.58380099838     Delta-E=       -0.000000074418 Rises=F Damp=F
 DIIS: error= 4.22D-06 at cycle  11 NSaved=  11.
 NSaved=11 IEnMin=11 EnMin= -3442.58380099838     IErMin=11 ErrMin= 4.22D-06
 ErrMax= 4.22D-06  0.00D+00 EMaxC= 1.00D-01 BMatC= 2.43D-09 BMatP= 2.42D-08
 IDIUse=1 WtCom= 1.00D+00 WtEn= 0.00D+00
 Coeff-Com: -0.178D-04 0.189D-04 0.454D-04 0.362D-03 0.187D-02 0.194D-02
 Coeff-Com: -0.694D-02-0.404D-01-0.432D-01 0.153D+00 0.933D+00
 Coeff:     -0.178D-04 0.189D-04 0.454D-04 0.362D-03 0.187D-02 0.194D-02
 Coeff:     -0.694D-02-0.404D-01-0.432D-01 0.153D+00 0.933D+00
 Gap=     0.178 Goal=   None    Shift=    0.000
 RMSDP=1.16D-07 MaxDP=6.82D-06 DE=-7.44D-08 OVMax= 4.06D-05

 Cycle  12  Pass 1  IDiag  1:
 RMSU=  7.87D-08    CP:  8.50D-01  1.79D+00  1.25D+00  1.28D+00  1.19D+00
                    CP:  1.23D+00  1.29D+00  1.42D+00  1.39D+00  1.29D+00
                    CP:  1.22D+00
 E= -3442.58380100721     Delta-E=       -0.000000008835 Rises=F Damp=F
 DIIS: error= 1.99D-06 at cycle  12 NSaved=  12.
 NSaved=12 IEnMin=12 EnMin= -3442.58380100721     IErMin=12 ErrMin= 1.99D-06
 ErrMax= 1.99D-06  0.00D+00 EMaxC= 1.00D-01 BMatC= 7.72D-10 BMatP= 2.43D-09
 IDIUse=1 WtCom= 1.00D+00 WtEn= 0.00D+00
 Coeff-Com: -0.774D-05-0.154D-04-0.206D-03-0.510D-03-0.393D-04 0.523D-02
 Coeff-Com:  0.106D-01 0.115D-02-0.906D-01-0.137D+00 0.381D+00 0.831D+00
 Coeff:     -0.774D-05-0.154D-04-0.206D-03-0.510D-03-0.393D-04 0.523D-02
 Coeff:      0.106D-01 0.115D-02-0.906D-01-0.137D+00 0.381D+00 0.831D+00
 Gap=     0.178 Goal=   None    Shift=    0.000
 DSYEVD-2 returned Info=      917149 IAlg= 4 N=  1104 NDim=  1104 NE2=     7776865 trying  DSYEV.
 RMSDP=7.63D-08 MaxDP=2.66D-06 DE=-8.83D-09 OVMax= 2.27D-05

 Cycle  13  Pass 1  IDiag  1:
 RMSU=  3.36D-08    CP:  8.50D-01  1.79D+00  1.25D+00  1.29D+00  1.19D+00
                    CP:  1.23D+00  1.29D+00  1.42D+00  1.40D+00  1.36D+00
                    CP:  1.39D+00  1.34D+00
 E= -3442.58380101009     Delta-E=       -0.000000002879 Rises=F Damp=F
 DIIS: error= 9.66D-07 at cycle  13 NSaved=  13.
 NSaved=13 IEnMin=13 EnMin= -3442.58380101009     IErMin=13 ErrMin= 9.66D-07
 ErrMax= 9.66D-07  0.00D+00 EMaxC= 1.00D-01 BMatC= 1.26D-10 BMatP= 7.72D-10
 IDIUse=1 WtCom= 1.00D+00 WtEn= 0.00D+00
 Coeff-Com:  0.521D-05-0.111D-04-0.295D-04-0.164D-03-0.428D-03 0.672D-04
 Coeff-Com:  0.260D-02 0.120D-01 0.134D-02-0.396D-01-0.179D+00 0.128D+00
 Coeff-Com:  0.108D+01
 Coeff:      0.521D-05-0.111D-04-0.295D-04-0.164D-03-0.428D-03 0.672D-04
 Coeff:      0.260D-02 0.120D-01 0.134D-02-0.396D-01-0.179D+00 0.128D+00
 Coeff:      0.108D+01
 Gap=     0.178 Goal=   None    Shift=    0.000
 RMSDP=3.35D-08 MaxDP=1.75D-06 DE=-2.88D-09 OVMax= 9.32D-06

 Cycle  14  Pass 1  IDiag  1:
 RMSU=  1.64D-08    CP:  8.50D-01  1.79D+00  1.25D+00  1.29D+00  1.19D+00
                    CP:  1.23D+00  1.29D+00  1.41D+00  1.39D+00  1.37D+00
                    CP:  1.43D+00  1.58D+00  1.30D+00
 E= -3442.58380101065     Delta-E=       -0.000000000557 Rises=F Damp=F
 DIIS: error= 2.68D-07 at cycle  14 NSaved=  14.
 NSaved=14 IEnMin=14 EnMin= -3442.58380101065     IErMin=14 ErrMin= 2.68D-07
 ErrMax= 2.68D-07  0.00D+00 EMaxC= 1.00D-01 BMatC= 1.65D-11 BMatP= 1.26D-10
 IDIUse=1 WtCom= 1.00D+00 WtEn= 0.00D+00
 Coeff-Com:  0.267D-05-0.197D-05 0.178D-04 0.131D-04-0.110D-03-0.622D-03
 Coeff-Com: -0.747D-03 0.387D-02 0.104D-01 0.508D-02-0.117D+00-0.359D-01
 Coeff-Com:  0.344D+00 0.790D+00
 Coeff:      0.267D-05-0.197D-05 0.178D-04 0.131D-04-0.110D-03-0.622D-03
 Coeff:     -0.747D-03 0.387D-02 0.104D-01 0.508D-02-0.117D+00-0.359D-01
 Coeff:      0.344D+00 0.790D+00
 Gap=     0.178 Goal=   None    Shift=    0.000
 RMSDP=9.86D-09 MaxDP=3.61D-07 DE=-5.57D-10 OVMax= 3.06D-06

 SCF Done:  E(RLC-B+HF-LYP) =  -3442.58380101     A.U. after   14 cycles
            NFock= 14  Conv=0.99D-08     -V/T= 2.0025
 KE= 3.433932621987D+03 PE=-1.823330905328D+04 EE= 6.306430260323D+03
 Leave Link  502 at Thu Apr 23 00:19:51 2026, MaxMem=  8589934592 cpu:      9023.5
 (Enter /opt/g09/l601.exe)
 Copying SCF densities to generalized density rwf, IOpCl= 0 IROHF=0.
 Hyperfine terms turned off by default for NAtoms > 100.

 **********************************************************************

            Population analysis using the SCF density.

 **********************************************************************

 Alpha  occ. eigenvalues -- -345.97236 -41.84108 -36.92404 -36.91560 -36.91560
 Alpha  occ. eigenvalues --  -14.20498 -14.20496 -14.20495 -14.20495 -14.19647
 Alpha  occ. eigenvalues --  -14.19647 -14.19647 -14.19646 -10.16845 -10.16843
 Alpha  occ. eigenvalues --  -10.16843 -10.16841 -10.16839 -10.16837 -10.16837
 Alpha  occ. eigenvalues --  -10.16834 -10.09931 -10.09931 -10.09930 -10.09930
 Alpha  occ. eigenvalues --  -10.09900 -10.09899 -10.09899 -10.09899 -10.09739
 Alpha  occ. eigenvalues --  -10.09739 -10.09739 -10.09739 -10.09736 -10.09735
 Alpha  occ. eigenvalues --  -10.09735 -10.09735 -10.09575 -10.09575 -10.09575
 Alpha  occ. eigenvalues --  -10.09575 -10.09539 -10.09539 -10.09539 -10.09539
 Alpha  occ. eigenvalues --   -4.78978  -3.23605  -3.22177  -3.22177  -1.13232
 Alpha  occ. eigenvalues --   -1.11772  -1.11772  -1.08965  -1.06765  -1.02619
 Alpha  occ. eigenvalues --   -1.02619  -0.99511  -0.98204  -0.98204  -0.98158
 Alpha  occ. eigenvalues --   -0.98126  -0.90117  -0.88776  -0.88560  -0.88560
 Alpha  occ. eigenvalues --   -0.88171  -0.88171  -0.87991  -0.87854  -0.84353
 Alpha  occ. eigenvalues --   -0.81707  -0.81707  -0.76257  -0.76053  -0.75227
 Alpha  occ. eigenvalues --   -0.75227  -0.74608  -0.74279  -0.71766  -0.71766
 Alpha  occ. eigenvalues --   -0.71714  -0.70606  -0.68081  -0.67131  -0.67131
 Alpha  occ. eigenvalues --   -0.65651  -0.65465  -0.65465  -0.61884  -0.61797
 Alpha  occ. eigenvalues --   -0.61641  -0.61239  -0.59853  -0.59813  -0.59813
 Alpha  occ. eigenvalues --   -0.59698  -0.59698  -0.58381  -0.58381  -0.57638
 Alpha  occ. eigenvalues --   -0.57478  -0.56963  -0.56831  -0.56709  -0.56709
 Alpha  occ. eigenvalues --   -0.55938  -0.55397  -0.55397  -0.55318  -0.54832
 Alpha  occ. eigenvalues --   -0.54286  -0.54053  -0.54053  -0.52799  -0.51801
 Alpha  occ. eigenvalues --   -0.50984  -0.48913  -0.48910  -0.48910  -0.47903
 Alpha  occ. eigenvalues --   -0.47648  -0.47648  -0.46927  -0.46850  -0.46830
 Alpha  occ. eigenvalues --   -0.46830  -0.46152  -0.44982  -0.44982  -0.44823
 Alpha  occ. eigenvalues --   -0.43247  -0.43247  -0.42119  -0.39172  -0.39172
 Alpha  occ. eigenvalues --   -0.38274  -0.37351  -0.36360  -0.36025  -0.35791
 Alpha  occ. eigenvalues --   -0.35791  -0.35267  -0.34970  -0.34970  -0.34784
 Alpha  occ. eigenvalues --   -0.34138  -0.24099
 Alpha virt. eigenvalues --   -0.06289  -0.06289   0.02287   0.03333   0.03344
 Alpha virt. eigenvalues --    0.04345   0.04345   0.07764   0.08114   0.09443
 Alpha virt. eigenvalues --    0.09611   0.09611   0.11113   0.11113   0.11409
 Alpha virt. eigenvalues --    0.12349   0.12349   0.12358   0.12408   0.12476
 Alpha virt. eigenvalues --    0.13377   0.13940   0.13940   0.14517   0.15695
 Alpha virt. eigenvalues --    0.16579   0.16579   0.16618   0.17284   0.17392
 Alpha virt. eigenvalues --    0.18723   0.19194   0.19194   0.19695   0.20028
 Alpha virt. eigenvalues --    0.20028   0.20231   0.20952   0.20952   0.21541
 Alpha virt. eigenvalues --    0.21941   0.23636   0.23636   0.23978   0.23978
 Alpha virt. eigenvalues --    0.24409   0.24519   0.25043   0.25421   0.25478
 Alpha virt. eigenvalues --    0.26882   0.26882   0.26930   0.26930   0.27035
 Alpha virt. eigenvalues --    0.27262   0.27406   0.27842   0.27906   0.27906
 Alpha virt. eigenvalues --    0.28408   0.28433   0.28975   0.29193   0.29193
 Alpha virt. eigenvalues --    0.29434   0.29559   0.29647   0.29647   0.30080
 Alpha virt. eigenvalues --    0.30080   0.30446   0.30461   0.30850   0.30850
 Alpha virt. eigenvalues --    0.31150   0.31776   0.31776   0.32250   0.32473
 Alpha virt. eigenvalues --    0.32806   0.32935   0.33084   0.33271   0.33271
 Alpha virt. eigenvalues --    0.34698   0.34722   0.34722   0.35223   0.35260
 Alpha virt. eigenvalues --    0.35503   0.35503   0.36344   0.36628   0.36628
 Alpha virt. eigenvalues --    0.37671   0.37822   0.37955   0.37955   0.38266
 Alpha virt. eigenvalues --    0.39070   0.39661   0.39661   0.39680   0.39683
 Alpha virt. eigenvalues --    0.40539   0.40687   0.40687   0.40749   0.41398
 Alpha virt. eigenvalues --    0.41398   0.41865   0.41866   0.42322   0.42352
 Alpha virt. eigenvalues --    0.42434   0.42434   0.42894   0.42894   0.43033
 Alpha virt. eigenvalues --    0.44069   0.44096   0.44202   0.44986   0.45097
 Alpha virt. eigenvalues --    0.45097   0.45660   0.45660   0.46558   0.46671
 Alpha virt. eigenvalues --    0.46870   0.46980   0.46980   0.47594   0.47594
 Alpha virt. eigenvalues --    0.47994   0.48338   0.48714   0.48714   0.48810
 Alpha virt. eigenvalues --    0.49129   0.49129   0.49543   0.49543   0.49678
 Alpha virt. eigenvalues --    0.50497   0.50537   0.50537   0.50617   0.51656
 Alpha virt. eigenvalues --    0.51699   0.51773   0.51849   0.52842   0.52842
 Alpha virt. eigenvalues --    0.53392   0.54018   0.54018   0.54529   0.54868
 Alpha virt. eigenvalues --    0.55119   0.55427   0.55733   0.56523   0.56523
 Alpha virt. eigenvalues --    0.57433   0.57433   0.57639   0.57639   0.58167
 Alpha virt. eigenvalues --    0.58341   0.58567   0.58567   0.59046   0.59218
 Alpha virt. eigenvalues --    0.59218   0.59613   0.60096   0.60122   0.60122
 Alpha virt. eigenvalues --    0.60637   0.61457   0.61948   0.62218   0.64386
 Alpha virt. eigenvalues --    0.64472   0.64663   0.64663   0.65620   0.66177
 Alpha virt. eigenvalues --    0.66177   0.66545   0.66683   0.66683   0.66779
 Alpha virt. eigenvalues --    0.66868   0.66868   0.67326   0.67410   0.68562
 Alpha virt. eigenvalues --    0.68615   0.68615   0.70065   0.70099   0.70118
 Alpha virt. eigenvalues --    0.70118   0.70722   0.71463   0.71463   0.71575
 Alpha virt. eigenvalues --    0.72246   0.72348   0.73441   0.73441   0.73688
 Alpha virt. eigenvalues --    0.74459   0.74528   0.74985   0.75731   0.76976
 Alpha virt. eigenvalues --    0.77045   0.77045   0.77084   0.77410   0.78016
 Alpha virt. eigenvalues --    0.78263   0.78263   0.78447   0.78627   0.78726
 Alpha virt. eigenvalues --    0.78726   0.79763   0.79765   0.79765   0.79771
 Alpha virt. eigenvalues --    0.80218   0.80218   0.81146   0.81534   0.81569
 Alpha virt. eigenvalues --    0.81658   0.81658   0.82003   0.82321   0.82431
 Alpha virt. eigenvalues --    0.82431   0.82733   0.82944   0.82944   0.83330
 Alpha virt. eigenvalues --    0.83330   0.83598   0.84340   0.84340   0.85191
 Alpha virt. eigenvalues --    0.85333   0.86816   0.86816   0.86841   0.87007
 Alpha virt. eigenvalues --    0.87080   0.87080   0.87537   0.88452   0.89084
 Alpha virt. eigenvalues --    0.89084   0.89466   0.89739   0.90577   0.90577
 Alpha virt. eigenvalues --    0.91312   0.91340   0.91643   0.91643   0.91656
 Alpha virt. eigenvalues --    0.92389   0.92459   0.92459   0.93312   0.95858
 Alpha virt. eigenvalues --    0.95858   0.96063   0.97085   0.97085   0.97287
 Alpha virt. eigenvalues --    0.97305   0.97364   0.97470   0.99395   0.99395
 Alpha virt. eigenvalues --    1.00153   1.00153   1.01216   1.02121   1.02650
 Alpha virt. eigenvalues --    1.02752   1.02813   1.02813   1.03249   1.03403
 Alpha virt. eigenvalues --    1.03403   1.04461   1.04461   1.05096   1.05966
 Alpha virt. eigenvalues --    1.06408   1.06468   1.07192   1.07192   1.08797
 Alpha virt. eigenvalues --    1.10578   1.10578   1.11024   1.12704   1.12964
 Alpha virt. eigenvalues --    1.13459   1.13565   1.13855   1.13855   1.14287
 Alpha virt. eigenvalues --    1.15465   1.16138   1.16628   1.16785   1.16840
 Alpha virt. eigenvalues --    1.16840   1.17117   1.19064   1.19064   1.19227
 Alpha virt. eigenvalues --    1.20271   1.20271   1.21190   1.21265   1.21828
 Alpha virt. eigenvalues --    1.21876   1.21876   1.21922   1.22362   1.23390
 Alpha virt. eigenvalues --    1.23390   1.24050   1.24050   1.24332   1.26253
 Alpha virt. eigenvalues --    1.26253   1.27562   1.27562   1.27816   1.28345
 Alpha virt. eigenvalues --    1.29176   1.29225   1.29407   1.29407   1.30621
 Alpha virt. eigenvalues --    1.31217   1.31217   1.32160   1.33311   1.33758
 Alpha virt. eigenvalues --    1.33850   1.33856   1.33856   1.34108   1.34247
 Alpha virt. eigenvalues --    1.34247   1.35583   1.35583   1.35826   1.35837
 Alpha virt. eigenvalues --    1.36622   1.37755   1.37871   1.37871   1.38774
 Alpha virt. eigenvalues --    1.38774   1.39465   1.40463   1.40747   1.41489
 Alpha virt. eigenvalues --    1.41768   1.41768   1.42780   1.43941   1.44024
 Alpha virt. eigenvalues --    1.44024   1.44513   1.44915   1.44915   1.45036
 Alpha virt. eigenvalues --    1.45412   1.45412   1.45709   1.47177   1.47371
 Alpha virt. eigenvalues --    1.47557   1.48091   1.48091   1.48121   1.48121
 Alpha virt. eigenvalues --    1.48158   1.48476   1.49085   1.51151   1.51856
 Alpha virt. eigenvalues --    1.51933   1.51980   1.51980   1.52360   1.53527
 Alpha virt. eigenvalues --    1.53897   1.54282   1.55319   1.55345   1.55345
 Alpha virt. eigenvalues --    1.55629   1.55629   1.55705   1.55705   1.57515
 Alpha virt. eigenvalues --    1.57515   1.57566   1.57650   1.57996   1.58146
 Alpha virt. eigenvalues --    1.58833   1.59809   1.60339   1.60351   1.60351
 Alpha virt. eigenvalues --    1.63062   1.63062   1.64566   1.64814   1.65463
 Alpha virt. eigenvalues --    1.65463   1.65581   1.65581   1.67169   1.67169
 Alpha virt. eigenvalues --    1.67429   1.68821   1.69145   1.69731   1.69731
 Alpha virt. eigenvalues --    1.69749   1.69956   1.70582   1.71666   1.71666
 Alpha virt. eigenvalues --    1.71854   1.71864   1.71864   1.72050   1.72160
 Alpha virt. eigenvalues --    1.72594   1.72937   1.73683   1.74248   1.74609
 Alpha virt. eigenvalues --    1.74807   1.75213   1.75213   1.76211   1.76211
 Alpha virt. eigenvalues --    1.78488   1.78488   1.78587   1.78737   1.79048
 Alpha virt. eigenvalues --    1.79163   1.79371   1.79371   1.80330   1.80330
 Alpha virt. eigenvalues --    1.80964   1.80987   1.81360   1.83575   1.83575
 Alpha virt. eigenvalues --    1.83710   1.83853   1.84142   1.84142   1.84203
 Alpha virt. eigenvalues --    1.85930   1.87862   1.87918   1.87918   1.88142
 Alpha virt. eigenvalues --    1.88142   1.89161   1.89203   1.90000   1.91325
 Alpha virt. eigenvalues --    1.91325   1.92779   1.92803   1.94028   1.94361
 Alpha virt. eigenvalues --    1.94585   1.94585   1.95019   1.95019   1.96034
 Alpha virt. eigenvalues --    1.96072   1.96128   1.99208   1.99208   2.00074
 Alpha virt. eigenvalues --    2.00074   2.00928   2.00928   2.02127   2.03979
 Alpha virt. eigenvalues --    2.05040   2.05551   2.05551   2.06082   2.06082
 Alpha virt. eigenvalues --    2.06172   2.07373   2.08652   2.10128   2.10781
 Alpha virt. eigenvalues --    2.11949   2.13348   2.13348   2.14044   2.14599
 Alpha virt. eigenvalues --    2.14599   2.15998   2.16606   2.16653   2.16653
 Alpha virt. eigenvalues --    2.16709   2.18226   2.18226   2.19213   2.19753
 Alpha virt. eigenvalues --    2.24528   2.24996   2.24996   2.26343   2.26343
 Alpha virt. eigenvalues --    2.26761   2.28704   2.28704   2.28944   2.29616
 Alpha virt. eigenvalues --    2.30811   2.30938   2.30938   2.31961   2.34561
 Alpha virt. eigenvalues --    2.34881   2.34881   2.35320   2.36242   2.36242
 Alpha virt. eigenvalues --    2.36732   2.37885   2.38372   2.38399   2.38671
 Alpha virt. eigenvalues --    2.38671   2.39084   2.39385   2.42269   2.42777
 Alpha virt. eigenvalues --    2.42777   2.42943   2.43106   2.43106   2.43123
 Alpha virt. eigenvalues --    2.43340   2.43883   2.46465   2.46465   2.47513
 Alpha virt. eigenvalues --    2.47707   2.48254   2.48254   2.48593   2.48609
 Alpha virt. eigenvalues --    2.48609   2.49439   2.50568   2.50663   2.50663
 Alpha virt. eigenvalues --    2.50892   2.50892   2.51224   2.51533   2.53381
 Alpha virt. eigenvalues --    2.54072   2.54683   2.54683   2.54687   2.55249
 Alpha virt. eigenvalues --    2.55258   2.55258   2.56919   2.59262   2.63330
 Alpha virt. eigenvalues --    2.64498   2.64498   2.64866   2.67441   2.69875
 Alpha virt. eigenvalues --    2.69875   2.69986   2.72616   2.74024   2.74024
 Alpha virt. eigenvalues --    2.74347   2.74983   2.75365   2.75365   2.75682
 Alpha virt. eigenvalues --    2.75685   2.76583   2.76583   2.76651   2.77577
 Alpha virt. eigenvalues --    2.77577   2.77646   2.77913   2.79514   2.79514
 Alpha virt. eigenvalues --    2.79662   2.80869   2.81861   2.86095   2.86095
 Alpha virt. eigenvalues --    2.86323   2.87501   2.89308   2.89308   2.89385
 Alpha virt. eigenvalues --    2.89385   2.89467   2.89784   2.89998   2.91342
 Alpha virt. eigenvalues --    2.91459   2.91459   2.92063   2.92621   2.93177
 Alpha virt. eigenvalues --    2.93177   2.94649   2.94819   2.95375   2.95448
 Alpha virt. eigenvalues --    2.96683   2.97272   2.97272   2.99431   2.99431
 Alpha virt. eigenvalues --    2.99798   3.00799   3.00799   3.01022   3.01919
 Alpha virt. eigenvalues --    3.03181   3.03727   3.04346   3.04450   3.04450
 Alpha virt. eigenvalues --    3.05400   3.05400   3.05853   3.05853   3.06318
 Alpha virt. eigenvalues --    3.06400   3.06575   3.07441   3.07441   3.07557
 Alpha virt. eigenvalues --    3.07673   3.07673   3.08210   3.09326   3.09667
 Alpha virt. eigenvalues --    3.11651   3.11651   3.12549   3.13459   3.13459
 Alpha virt. eigenvalues --    3.13609   3.14821   3.15816   3.15816   3.15904
 Alpha virt. eigenvalues --    3.16513   3.16534   3.16842   3.16938   3.18025
 Alpha virt. eigenvalues --    3.18366   3.18609   3.18609   3.18825   3.18963
 Alpha virt. eigenvalues --    3.19370   3.19370   3.19451   3.19451   3.20568
 Alpha virt. eigenvalues --    3.20845   3.20845   3.21199   3.22020   3.24231
 Alpha virt. eigenvalues --    3.24231   3.24385   3.24385   3.24958   3.25566
 Alpha virt. eigenvalues --    3.25975   3.28385   3.28385   3.28658   3.31636
 Alpha virt. eigenvalues --    3.31636   3.31934   3.32167   3.32181   3.32181
 Alpha virt. eigenvalues --    3.34063   3.34285   3.34405   3.35630   3.35727
 Alpha virt. eigenvalues --    3.35727   3.36075   3.37451   3.39065   3.39083
 Alpha virt. eigenvalues --    3.39083   3.39458   3.39885   3.39885   3.40103
 Alpha virt. eigenvalues --    3.40163   3.40163   3.40474   3.40798   3.41311
 Alpha virt. eigenvalues --    3.41914   3.41914   3.44342   3.44853   3.46259
 Alpha virt. eigenvalues --    3.46259   3.47006   3.48793   3.48816   3.48816
 Alpha virt. eigenvalues --    3.49778   3.50103   3.50103   3.50443   3.53556
 Alpha virt. eigenvalues --    3.53775   3.54082   3.54082   3.54155   3.54155
 Alpha virt. eigenvalues --    3.54610   3.54610   3.54959   3.56262   3.56308
 Alpha virt. eigenvalues --    3.56524   3.57785   3.58535   3.59920   3.59920
 Alpha virt. eigenvalues --    3.60208   3.61969   3.62033   3.62033   3.63129
 Alpha virt. eigenvalues --    3.64334   3.64334   3.65120   3.67735   3.68018
 Alpha virt. eigenvalues --    3.68018   3.68393   3.70479   3.70479   3.70587
 Alpha virt. eigenvalues --    3.71384   3.72286   3.73378   3.73378   3.74218
 Alpha virt. eigenvalues --    3.74391   3.74391   3.76039   3.76969   3.77650
 Alpha virt. eigenvalues --    3.79799   3.79799   3.81523   3.81523   3.82891
 Alpha virt. eigenvalues --    3.84569   3.85891   3.86088   3.90281   3.93075
 Alpha virt. eigenvalues --    3.93075   3.96019   3.96019   3.96343   3.98858
 Alpha virt. eigenvalues --    4.00078   4.00078   4.00092   4.00174   4.03459
 Alpha virt. eigenvalues --    4.05327   4.06420   4.06420   4.07198   4.07198
 Alpha virt. eigenvalues --    4.08099   4.09931   4.09931   4.11130   4.12915
 Alpha virt. eigenvalues --    4.13734   4.15541   4.19674   4.19674   4.21961
 Alpha virt. eigenvalues --    4.24066   4.25162   4.25162   4.26831   4.32283
 Alpha virt. eigenvalues --    4.32283   4.32433   4.34510   4.34782   4.34991
 Alpha virt. eigenvalues --    4.34991   4.37109   4.39937   4.41540   4.41540
 Alpha virt. eigenvalues --    4.42284   4.47952   4.48551   4.48551   4.50463
 Alpha virt. eigenvalues --    4.57960   4.61674   4.61904   4.61904   4.66075
 Alpha virt. eigenvalues --    4.70438   4.74090   4.75283   4.75283   4.78400
 Alpha virt. eigenvalues --    4.78400   4.79973   4.82690   4.84871   4.91242
 Alpha virt. eigenvalues --    4.91242   4.96442   4.96442   4.97471   4.99317
 Alpha virt. eigenvalues --    5.01233   5.01579   5.01824   5.03109   5.03109
 Alpha virt. eigenvalues --    5.03429   5.11976   5.12775   5.12775   5.18339
 Alpha virt. eigenvalues --    5.18339   5.23586   5.30296   5.30670   5.30670
 Alpha virt. eigenvalues --    5.36696   5.40057   5.40057   5.40642   5.43324
 Alpha virt. eigenvalues --    5.43324   5.47458   5.55010   5.63872   5.66109
 Alpha virt. eigenvalues --    5.66109   5.67501   5.89444   5.95313   6.09742
 Alpha virt. eigenvalues --    6.58664   6.59403   6.60441   6.61781   6.61781
 Alpha virt. eigenvalues --    6.74993   6.74993  21.59630  21.73050  21.73050
 Alpha virt. eigenvalues --   21.76434  21.92644  22.01788  22.01788  22.08299
 Alpha virt. eigenvalues --   22.14933  22.17362  22.17362  22.18502  22.18807
 Alpha virt. eigenvalues --   22.18807  22.18869  22.23912  22.45064  22.45064
 Alpha virt. eigenvalues --   22.45446  22.45972  22.54597  22.56086  22.56086
 Alpha virt. eigenvalues --   22.58025  22.64448  22.70737  22.70737  22.77273
 Alpha virt. eigenvalues --   23.29505  23.32906  23.32906  23.38975  32.10570
 Alpha virt. eigenvalues --   32.10570  32.14266  32.45821  32.52798  32.52798
 Alpha virt. eigenvalues --   32.53934  32.59991
          Condensed to atoms (all electrons):
 Mulliken charges:
               1
     1  C   -0.088101
     2  C   -0.088101
     3  C   -0.201454
     4  C    0.091602
     5  C    0.091602
     6  C   -0.201454
     7  C    0.331195
     8  C    0.331195
     9  N   -0.269133
    10  N   -0.534203
    11  N   -0.534203
    12  H    0.122233
    13  H    0.122233
    14  H    0.139798
    15  H    0.139798
    16  C   -0.088101
    17  C   -0.088101
    18  C   -0.201454
    19  C    0.091602
    20  C    0.091602
    21  C   -0.201454
    22  C    0.331195
    23  C    0.331195
    24  N   -0.269133
    25  N   -0.534203
    26  H    0.122233
    27  H    0.122233
    28  H    0.139798
    29  H    0.139798
    30  C   -0.088101
    31  C   -0.088101
    32  C   -0.201454
    33  C    0.091602
    34  C    0.091602
    35  C   -0.201454
    36  C    0.331195
    37  C    0.331195
    38  N   -0.269133
    39  N   -0.534203
    40  H    0.122233
    41  H    0.122233
    42  H    0.139798
    43  H    0.139798
    44  C   -0.088101
    45  C   -0.088101
    46  C   -0.201454
    47  C    0.091602
    48  C    0.091602
    49  C   -0.201454
    50  C    0.331195
    51  C    0.331195
    52  N   -0.269133
    53  H    0.122233
    54  H    0.122233
    55  H    0.139798
    56  H    0.139798
    57  Zn   0.051175
    58  C    0.000000
    59  C    0.000000
    60  C    0.000000
    61  C    0.000000
    62  C    0.000000
    63  C    0.000000
    64  C    0.000000
    65  C    0.000000
    66  N    0.000000
    67  N    0.000000
    68  N    0.000000
    69  H    0.000000
    70  H    0.000000
    71  H    0.000000
    72  H    0.000000
    73  C    0.000000
    74  C    0.000000
    75  C    0.000000
    76  C    0.000000
    77  C    0.000000
    78  C    0.000000
    79  C    0.000000
    80  C    0.000000
    81  N    0.000000
    82  N    0.000000
    83  H    0.000000
    84  H    0.000000
    85  H    0.000000
    86  H    0.000000
    87  C    0.000000
    88  C    0.000000
    89  C    0.000000
    90  C    0.000000
    91  C    0.000000
    92  C    0.000000
    93  C    0.000000
    94  C    0.000000
    95  N    0.000000
    96  N    0.000000
    97  H    0.000000
    98  H    0.000000
    99  H    0.000000
   100  H    0.000000
   101  C    0.000000
   102  C    0.000000
   103  C    0.000000
   104  C    0.000000
   105  C    0.000000
   106  C    0.000000
   107  C    0.000000
   108  C    0.000000
   109  N    0.000000
   110  H    0.000000
   111  H    0.000000
   112  H    0.000000
   113  H    0.000000
   114  Zn   0.000000
 Sum of Mulliken charges =  -0.00000
 Mulliken charges with hydrogens summed into heavy atoms:
               1
     1  C    0.034131
     2  C    0.034131
     3  C   -0.061656
     4  C    0.091602
     5  C    0.091602
     6  C   -0.061656
     7  C    0.331195
     8  C    0.331195
     9  N   -0.269133
    10  N   -0.534203
    11  N   -0.534203
    16  C    0.034131
    17  C    0.034131
    18  C   -0.061656
    19  C    0.091602
    20  C    0.091602
    21  C   -0.061656
    22  C    0.331195
    23  C    0.331195
    24  N   -0.269133
    25  N   -0.534203
    30  C    0.034131
    31  C    0.034131
    32  C   -0.061656
    33  C    0.091602
    34  C    0.091602
    35  C   -0.061656
    36  C    0.331195
    37  C    0.331195
    38  N   -0.269133
    39  N   -0.534203
    44  C    0.034131
    45  C    0.034131
    46  C   -0.061656
    47  C    0.091602
    48  C    0.091602
    49  C   -0.061656
    50  C    0.331195
    51  C    0.331195
    52  N   -0.269133
    57  Zn   0.051175
    58  C    0.000000
    59  C    0.000000
    60  C    0.000000
    61  C    0.000000
    62  C    0.000000
    63  C    0.000000
    64  C    0.000000
    65  C    0.000000
    66  N    0.000000
    67  N    0.000000
    68  N    0.000000
    73  C    0.000000
    74  C    0.000000
    75  C    0.000000
    76  C    0.000000
    77  C    0.000000
    78  C    0.000000
    79  C    0.000000
    80  C    0.000000
    81  N    0.000000
    82  N    0.000000
    87  C    0.000000
    88  C    0.000000
    89  C    0.000000
    90  C    0.000000
    91  C    0.000000
    92  C    0.000000
    93  C    0.000000
    94  C    0.000000
    95  N    0.000000
    96  N    0.000000
   101  C    0.000000
   102  C    0.000000
   103  C    0.000000
   104  C    0.000000
   105  C    0.000000
   106  C    0.000000
   107  C    0.000000
   108  C    0.000000
   109  N    0.000000
   114  Zn   0.000000
         Mulliken charges condensed to fragments:
      1     -0.000000
      2      0.000000
 Electronic spatial extent (au):  <R**2>=          25242.3647
 Charge=             -0.0000 electrons
 Dipole moment (field-independent basis, Debye):
    X=              0.0000    Y=             -0.0000    Z=             -0.0000  Tot=              0.0000
 Quadrupole moment (field-independent basis, Debye-Ang):
   XX=           -210.0726   YY=           -210.0726   ZZ=           -248.9850
   XY=             -0.0000   XZ=              0.0000   YZ=             -0.0000
 Traceless Quadrupole moment (field-independent basis, Debye-Ang):
   XX=             12.9708   YY=             12.9708   ZZ=            -25.9416
   XY=             -0.0000   XZ=              0.0000   YZ=             -0.0000
 Octapole moment (field-independent basis, Debye-Ang**2):
  XXX=              0.0000  YYY=             -0.0000  ZZZ=          -1307.1713  XYY=              0.0000
  XXY=             -0.0000  XXZ=           -367.6271  XZZ=              0.0000  YZZ=             -0.0000
  YYZ=           -367.6271  XYZ=             -0.0000
 Hexadecapole moment (field-independent basis, Debye-Ang**3):
 XXXX=         -13328.7353 YYYY=         -13328.7353 ZZZZ=          -4854.2243 XXXY=             -0.0000
 XXXZ=              0.0000 YYYX=             -0.0000 YYYZ=             -0.0000 ZZZX=              0.0000
 ZZZY=             -0.0000 XXYY=          -4824.9775 XXZZ=          -3540.6754 YYZZ=          -3540.6754
 XXYZ=             -0.0000 YYXZ=              0.0000 ZZXY=              0.0000
 N-N= 5.050362369963D+03 E-N=-1.823330906166D+04  KE= 3.433932621987D+03
 Leave Link  601 at Thu Apr 23 00:19:51 2026, MaxMem=  8589934592 cpu:         1.3
 (Enter /opt/g09/l122.exe)
 CPIOFr:  IOpCl= 0 IRwI=-1 IRwCP=  731 ICalc=  3 LCPTot=     7389475 Len1MO=    19550682 IndFrg=    85592203
 Counterpoise: doing MCBS calculation for fragment   2
 Leave Link  122 at Thu Apr 23 00:19:52 2026, MaxMem=  8589934592 cpu:         0.8
 (Enter /opt/g09/l301.exe)
 Basis read from rwf:  (5D, 7F)
 No pseudopotential information found on rwf file.
  1104 basis functions,  1873 primitive gaussians,  1191 cartesian basis functions
   147 alpha electrons      147 beta electrons
       nuclear repulsion energy      5050.3623699626 Hartrees.
 IExCor=10402 DFT=T Ex=LC-B+HF Corr=LYP ExCW=0 ScaHFX=  1.000000
 ScaDFX=  1.000000  1.000000  1.000000  1.000000 ScalE2=  1.000000  1.000000
 IRadAn=      0 IRanWt=     -1 IRanGd=            0 ICorTp=0 IEmpDi=  4
  HFx wShort=  0.000000 wLong=  0.350000 cFull=  0.000000 cShort=  0.000000 cLong=  1.000000
  DFx wShort=  0.000000 wLong=  0.350000 cFull=  0.000000 cShort=  0.000000 cLong=  1.000000
 NAtoms=  114 NActive=   57 NUniq=   57 SFac= 1.00D+00 NAtFMM=   60 NAOKFM=F Big=F
 Integral buffers will be    131072 words long.
 Raffenetti 2 integral format.
 Two-electron integral symmetry is turned off.
 No density basis found on file   718.
 Leave Link  301 at Thu Apr 23 00:19:52 2026, MaxMem=  8589934592 cpu:         0.3
 (Enter /opt/g09/l302.exe)
 NPDir=0 NMtPBC=     1 NCelOv=     1 NCel=       1 NClECP=     1 NCelD=      1
         NCelK=      1 NCelE2=     1 NClLst=     1 CellRange=     0.0.
 One-electron integrals computed using PRISM.
 NBasis=  1104 RedAO= T EigKep=  2.50D-06  NBF=  1104
 NBsUse=  1104 1.00D-06 EigRej= -1.00D+00 NBFU=  1104
 Precomputing XC quadrature grid using
 IXCGrd= 4 IRadAn=           0 IRanWt=          -1 IRanGd=           0 AccXCQ= 0.00D+00.
 Generated NRdTot=       0 NPtTot=           0 NUsed=           0 NTot=          32
 NSgBfM=  1128  1128  1128  1128  1128 MxSgAt=    57 MxSgA2=    57.
 Leave Link  302 at Thu Apr 23 00:19:53 2026, MaxMem=  8589934592 cpu:        10.0
 (Enter /opt/g09/l303.exe)
 DipDrv:  MaxL=1.
 Leave Link  303 at Thu Apr 23 00:19:53 2026, MaxMem=  8589934592 cpu:         1.3
 (Enter /opt/g09/l401.exe)
 ExpMin= 4.78D-02 ExpMax= 4.06D+05 ExpMxC= 3.92D+03 IAcc=2 IRadAn=         4 AccDes= 0.00D+00
 Harris functional with IExCor=10402 and IRadAn=       4 diagonalized for initial guess.
 HarFok:  IExCor=10402 AccDes= 0.00D+00 IRadAn=         4 IDoV= 1 UseB2=F ITyADJ=14
 ICtDFT=  3500011 ScaDFX=  1.000000  1.000000  1.000000  1.000000
 FoFCou: FMM=F IPFlag=           0 FMFlag=      100000 FMFlg1=           0
         NFxFlg=           0 DoJE=T BraDBF=F KetDBF=T FulRan=T
         wScrn=  0.000000 ICntrl=     500 IOpCl=  0 I1Cent=   200000004 NGrid=           0
         NMat0=    1 NMatS0=      1 NMatT0=    0 NMatD0=    1 NMtDS0=    0 NMtDT0=    0
 Symmetry not used in FoFCou.
 DSYEVD-2 returned Info=      917149 IAlg= 4 N=  1104 NDim=  1104 NE2=     7778159 trying  DSYEV.
 Harris En= -3390.29828258862    
 JPrj=0 DoOrth=F DoCkMO=F.
 Leave Link  401 at Thu Apr 23 00:19:57 2026, MaxMem=  8589934592 cpu:        35.2
 (Enter /opt/g09/l502.exe)
 Closed shell SCF:
 Using DIIS extrapolation, IDIIS=  1040.
 Two-electron integral symmetry not used.
 IVT=     4290895 IEndB=     4290895 NGot=  8589934592 MDV=  8587080010
 LenX=  8587080010 LenY=  8585660338
 Requested convergence on RMS density matrix=1.00D-08 within 128 cycles.
 Requested convergence on MAX density matrix=1.00D-06.
 Requested convergence on             energy=1.00D-06.
 No special actions if energy rises.
 Fock matrices will be formed incrementally for  20 cycles.

 Cycle   1  Pass 1  IDiag  1:
 FoFJK:  IHMeth= 1 ICntrl=       0 DoSepK=T KAlg= 0 I1Cent=   0 FoldK=F
 IRaf=         1 NMat=   1 IRICut=       1 DoRegI=T DoRafI=F ISym2E= 0.
 FoFCou: FMM=F IPFlag=           0 FMFlag=      100000 FMFlg1=           0
         NFxFlg=           0 DoJE=T BraDBF=F KetDBF=F FulRan=T
         wScrn=  0.000000 ICntrl=     500 IOpCl=  0 I1Cent=           0 NGrid=           0
         NMat0=    1 NMatS0=      1 NMatT0=    0 NMatD0=    1 NMtDS0=    0 NMtDT0=    0
 Symmetry not used in FoFCou.
 E= -3441.96892469412    
 DIIS: error= 5.92D-02 at cycle   1 NSaved=   1.
 NSaved= 1 IEnMin= 1 EnMin= -3441.96892469412     IErMin= 1 ErrMin= 5.92D-02
 ErrMax= 5.92D-02  0.00D+00 EMaxC= 1.00D-01 BMatC= 1.09D+00 BMatP= 1.09D+00
 IDIUse=3 WtCom= 4.08D-01 WtEn= 5.92D-01
 Coeff-Com:  0.100D+01
 Coeff-En:   0.100D+01
 Coeff:      0.100D+01
 Gap=     0.621 Goal=   None    Shift=    0.000
 DSYEVD-2 returned Info=        2209 IAlg= 4 N=  1104 NDim=  1104 NE2=     7776865 trying  DSYEV.
 GapD=    0.621 DampG=2.000 DampE=0.250 DampFc=0.5000 IDamp=-1.
 Damping current iteration by 5.00D-01
 RMSDP=2.59D-03 MaxDP=2.25D-01              OVMax= 1.78D-01

 Cycle   2  Pass 1  IDiag  1:
 RMSU=  1.22D-03    CP:  9.42D-01
 E= -3442.23798890711     Delta-E=       -0.269064212991 Rises=F Damp=T
 DIIS: error= 1.74D-02 at cycle   2 NSaved=   2.
 NSaved= 2 IEnMin= 2 EnMin= -3442.23798890711     IErMin= 2 ErrMin= 1.74D-02
 ErrMax= 1.74D-02  0.00D+00 EMaxC= 1.00D-01 BMatC= 1.55D-01 BMatP= 1.09D+00
 IDIUse=3 WtCom= 8.26D-01 WtEn= 1.74D-01
 Coeff-Com:  0.187D+00 0.813D+00
 Coeff-En:   0.979D-01 0.902D+00
 Coeff:      0.172D+00 0.828D+00
 Gap=     0.190 Goal=   None    Shift=    0.000
 RMSDP=1.23D-03 MaxDP=9.26D-02 DE=-2.69D-01 OVMax= 8.96D-02

 Cycle   3  Pass 1  IDiag  1:
 RMSU=  6.53D-04    CP:  8.66D-01  1.71D+00
 E= -3442.56801412033     Delta-E=       -0.330025213219 Rises=F Damp=F
 DIIS: error= 8.61D-03 at cycle   3 NSaved=   3.
 NSaved= 3 IEnMin= 3 EnMin= -3442.56801412033     IErMin= 3 ErrMin= 8.61D-03
 ErrMax= 8.61D-03  0.00D+00 EMaxC= 1.00D-01 BMatC= 2.97D-02 BMatP= 1.55D-01
 IDIUse=3 WtCom= 9.14D-01 WtEn= 8.61D-02
 Coeff-Com:  0.187D-01 0.282D+00 0.700D+00
 Coeff-En:   0.000D+00 0.000D+00 0.100D+01
 Coeff:      0.171D-01 0.257D+00 0.726D+00
 Gap=     0.175 Goal=   None    Shift=    0.000
 DSYEVD-2 returned Info=        2209 IAlg= 4 N=  1104 NDim=  1104 NE2=     7776865 trying  DSYEV.
 RMSDP=2.52D-04 MaxDP=1.23D-02 DE=-3.30D-01 OVMax= 1.55D-02

 Cycle   4  Pass 1  IDiag  1:
 RMSU=  2.17D-04    CP:  8.57D-01  1.74D+00  1.16D+00
 E= -3442.57994019593     Delta-E=       -0.011926075600 Rises=F Damp=F
 DIIS: error= 4.36D-03 at cycle   4 NSaved=   4.
 NSaved= 4 IEnMin= 4 EnMin= -3442.57994019593     IErMin= 4 ErrMin= 4.36D-03
 ErrMax= 4.36D-03  0.00D+00 EMaxC= 1.00D-01 BMatC= 7.53D-03 BMatP= 2.97D-02
 IDIUse=3 WtCom= 9.56D-01 WtEn= 4.36D-02
 Coeff-Com:  0.466D-02 0.143D-01 0.334D+00 0.647D+00
 Coeff-En:   0.000D+00 0.000D+00 0.980D-01 0.902D+00
 Coeff:      0.446D-02 0.137D-01 0.324D+00 0.658D+00
 Gap=     0.177 Goal=   None    Shift=    0.000
 RMSDP=1.09D-04 MaxDP=8.66D-03 DE=-1.19D-02 OVMax= 1.52D-02

 Cycle   5  Pass 1  IDiag  1:
 RMSU=  7.87D-05    CP:  8.52D-01  1.77D+00  1.22D+00  1.17D+00
 E= -3442.58355276133     Delta-E=       -0.003612565401 Rises=F Damp=F
 DIIS: error= 6.14D-04 at cycle   5 NSaved=   5.
 NSaved= 5 IEnMin= 5 EnMin= -3442.58355276133     IErMin= 5 ErrMin= 6.14D-04
 ErrMax= 6.14D-04  0.00D+00 EMaxC= 1.00D-01 BMatC= 1.93D-04 BMatP= 7.53D-03
 IDIUse=3 WtCom= 9.94D-01 WtEn= 6.14D-03
 Coeff-Com: -0.609D-03-0.875D-02 0.541D-01 0.205D+00 0.751D+00
 Coeff-En:   0.000D+00 0.000D+00 0.000D+00 0.000D+00 0.100D+01
 Coeff:     -0.605D-03-0.870D-02 0.538D-01 0.203D+00 0.752D+00
 Gap=     0.177 Goal=   None    Shift=    0.000
 RMSDP=3.03D-05 MaxDP=2.00D-03 DE=-3.61D-03 OVMax= 3.55D-03

 Cycle   6  Pass 1  IDiag  1:
 RMSU=  2.06D-05    CP:  8.51D-01  1.79D+00  1.24D+00  1.21D+00  1.02D+00
 E= -3442.58375737779     Delta-E=       -0.000204616465 Rises=F Damp=F
 DIIS: error= 4.20D-04 at cycle   6 NSaved=   6.
 NSaved= 6 IEnMin= 6 EnMin= -3442.58375737779     IErMin= 6 ErrMin= 4.20D-04
 ErrMax= 4.20D-04  0.00D+00 EMaxC= 1.00D-01 BMatC= 2.21D-05 BMatP= 1.93D-04
 IDIUse=3 WtCom= 9.96D-01 WtEn= 4.20D-03
 Coeff-Com: -0.641D-03-0.461D-02-0.135D-01 0.295D-03 0.243D+00 0.775D+00
 Coeff-En:   0.000D+00 0.000D+00 0.000D+00 0.000D+00 0.000D+00 0.100D+01
 Coeff:     -0.638D-03-0.459D-02-0.134D-01 0.294D-03 0.242D+00 0.776D+00
 Gap=     0.178 Goal=   None    Shift=    0.000
 DSYEVD-2 returned Info=        2209 IAlg= 4 N=  1104 NDim=  1104 NE2=     7776865 trying  DSYEV.
 RMSDP=1.88D-05 MaxDP=9.53D-04 DE=-2.05D-04 OVMax= 2.39D-03

 Cycle   7  Pass 1  IDiag  1:
 RMSU=  7.41D-06    CP:  8.50D-01  1.79D+00  1.24D+00  1.26D+00  1.13D+00
                    CP:  1.11D+00
 E= -3442.58379213408     Delta-E=       -0.000034756285 Rises=F Damp=F
 DIIS: error= 1.28D-04 at cycle   7 NSaved=   7.
 NSaved= 7 IEnMin= 7 EnMin= -3442.58379213408     IErMin= 7 ErrMin= 1.28D-04
 ErrMax= 1.28D-04  0.00D+00 EMaxC= 1.00D-01 BMatC= 4.59D-06 BMatP= 2.21D-05
 IDIUse=3 WtCom= 9.99D-01 WtEn= 1.28D-03
 Coeff-Com: -0.942D-04-0.113D-02-0.131D-01-0.290D-01-0.947D-02 0.321D+00
 Coeff-Com:  0.732D+00
 Coeff-En:   0.000D+00 0.000D+00 0.000D+00 0.000D+00 0.000D+00 0.000D+00
 Coeff-En:   0.100D+01
 Coeff:     -0.940D-04-0.113D-02-0.131D-01-0.290D-01-0.946D-02 0.321D+00
 Coeff:      0.732D+00
 Gap=     0.178 Goal=   None    Shift=    0.000
 RMSDP=6.99D-06 MaxDP=3.53D-04 DE=-3.48D-05 OVMax= 8.16D-04

 Cycle   8  Pass 1  IDiag  1:
 RMSU=  2.83D-06    CP:  8.50D-01  1.79D+00  1.25D+00  1.28D+00  1.18D+00
                    CP:  1.20D+00  1.14D+00
 E= -3442.58379956537     Delta-E=       -0.000007431292 Rises=F Damp=F
 DIIS: error= 3.50D-05 at cycle   8 NSaved=   8.
 NSaved= 8 IEnMin= 8 EnMin= -3442.58379956537     IErMin= 8 ErrMin= 3.50D-05
 ErrMax= 3.50D-05  0.00D+00 EMaxC= 1.00D-01 BMatC= 5.09D-07 BMatP= 4.59D-06
 IDIUse=1 WtCom= 1.00D+00 WtEn= 0.00D+00
 Coeff-Com:  0.113D-03-0.404D-04-0.276D-02-0.925D-02-0.356D-01 0.903D-02
 Coeff-Com:  0.243D+00 0.795D+00
 Coeff:      0.113D-03-0.404D-04-0.276D-02-0.925D-02-0.356D-01 0.903D-02
 Coeff:      0.243D+00 0.795D+00
 Gap=     0.178 Goal=   None    Shift=    0.000
 RMSDP=1.97D-06 MaxDP=9.14D-05 DE=-7.43D-06 OVMax= 3.51D-04

 Cycle   9  Pass 1  IDiag  1:
 RMSU=  1.04D-06    CP:  8.50D-01  1.79D+00  1.25D+00  1.28D+00  1.19D+00
                    CP:  1.22D+00  1.22D+00  1.19D+00
 E= -3442.58380066186     Delta-E=       -0.000001096490 Rises=F Damp=F
 DIIS: error= 1.69D-05 at cycle   9 NSaved=   9.
 NSaved= 9 IEnMin= 9 EnMin= -3442.58380066186     IErMin= 9 ErrMin= 1.69D-05
 ErrMax= 1.69D-05  0.00D+00 EMaxC= 1.00D-01 BMatC= 1.20D-07 BMatP= 5.09D-07
 IDIUse=1 WtCom= 1.00D+00 WtEn= 0.00D+00
 Coeff-Com:  0.813D-04 0.181D-03 0.829D-03 0.732D-03-0.146D-01-0.494D-01
 Coeff-Com: -0.989D-02 0.332D+00 0.740D+00
 Coeff:      0.813D-04 0.181D-03 0.829D-03 0.732D-03-0.146D-01-0.494D-01
 Coeff:     -0.989D-02 0.332D+00 0.740D+00
 Gap=     0.178 Goal=   None    Shift=    0.000
 RMSDP=8.83D-07 MaxDP=2.81D-05 DE=-1.10D-06 OVMax= 1.90D-04

 Cycle  10  Pass 1  IDiag  1:
 RMSU=  3.96D-07    CP:  8.50D-01  1.79D+00  1.25D+00  1.28D+00  1.19D+00
                    CP:  1.23D+00  1.27D+00  1.36D+00  1.17D+00
 E= -3442.58380092402     Delta-E=       -0.000000262162 Rises=F Damp=F
 DIIS: error= 1.07D-05 at cycle  10 NSaved=  10.
 NSaved=10 IEnMin=10 EnMin= -3442.58380092402     IErMin=10 ErrMin= 1.07D-05
 ErrMax= 1.07D-05  0.00D+00 EMaxC= 1.00D-01 BMatC= 2.42D-08 BMatP= 1.20D-07
 IDIUse=1 WtCom= 1.00D+00 WtEn= 0.00D+00
 Coeff-Com: -0.305D-05 0.972D-04 0.114D-02 0.333D-02 0.487D-02-0.214D-01
 Coeff-Com: -0.697D-01-0.103D+00 0.274D+00 0.910D+00
 Coeff:     -0.305D-05 0.972D-04 0.114D-02 0.333D-02 0.487D-02-0.214D-01
 Coeff:     -0.697D-01-0.103D+00 0.274D+00 0.910D+00
 Gap=     0.178 Goal=   None    Shift=    0.000
 RMSDP=4.36D-07 MaxDP=1.50D-05 DE=-2.62D-07 OVMax= 1.22D-04

 Cycle  11  Pass 1  IDiag  1:
 RMSU=  2.41D-07    CP:  8.50D-01  1.79D+00  1.25D+00  1.29D+00  1.19D+00
                    CP:  1.23D+00  1.29D+00  1.42D+00  1.38D+00  1.17D+00
 E= -3442.58380099834     Delta-E=       -0.000000074311 Rises=F Damp=F
 DIIS: error= 4.22D-06 at cycle  11 NSaved=  11.
 NSaved=11 IEnMin=11 EnMin= -3442.58380099834     IErMin=11 ErrMin= 4.22D-06
 ErrMax= 4.22D-06  0.00D+00 EMaxC= 1.00D-01 BMatC= 2.43D-09 BMatP= 2.42D-08
 IDIUse=1 WtCom= 1.00D+00 WtEn= 0.00D+00
 Coeff-Com: -0.178D-04 0.189D-04 0.454D-04 0.362D-03 0.187D-02 0.194D-02
 Coeff-Com: -0.694D-02-0.404D-01-0.432D-01 0.153D+00 0.933D+00
 Coeff:     -0.178D-04 0.189D-04 0.454D-04 0.362D-03 0.187D-02 0.194D-02
 Coeff:     -0.694D-02-0.404D-01-0.432D-01 0.153D+00 0.933D+00
 Gap=     0.178 Goal=   None    Shift=    0.000
 DSYEVD-2 returned Info=        1657 IAlg= 4 N=  1104 NDim=  1104 NE2=     7776865 trying  DSYEV.
 RMSDP=1.16D-07 MaxDP=6.82D-06 DE=-7.43D-08 OVMax= 4.06D-05

 Cycle  12  Pass 1  IDiag  1:
 RMSU=  7.87D-08    CP:  8.50D-01  1.79D+00  1.25D+00  1.28D+00  1.19D+00
                    CP:  1.23D+00  1.29D+00  1.42D+00  1.39D+00  1.29D+00
                    CP:  1.22D+00
 E= -3442.58380100723     Delta-E=       -0.000000008893 Rises=F Damp=F
 DIIS: error= 1.99D-06 at cycle  12 NSaved=  12.
 NSaved=12 IEnMin=12 EnMin= -3442.58380100723     IErMin=12 ErrMin= 1.99D-06
 ErrMax= 1.99D-06  0.00D+00 EMaxC= 1.00D-01 BMatC= 7.72D-10 BMatP= 2.43D-09
 IDIUse=1 WtCom= 1.00D+00 WtEn= 0.00D+00
 Coeff-Com: -0.774D-05-0.154D-04-0.206D-03-0.510D-03-0.393D-04 0.523D-02
 Coeff-Com:  0.106D-01 0.115D-02-0.906D-01-0.137D+00 0.381D+00 0.831D+00
 Coeff:     -0.774D-05-0.154D-04-0.206D-03-0.510D-03-0.393D-04 0.523D-02
 Coeff:      0.106D-01 0.115D-02-0.906D-01-0.137D+00 0.381D+00 0.831D+00
 Gap=     0.178 Goal=   None    Shift=    0.000
 DSYEVD-2 returned Info=      917149 IAlg= 4 N=  1104 NDim=  1104 NE2=     7776865 trying  DSYEV.
 RMSDP=7.63D-08 MaxDP=2.66D-06 DE=-8.89D-09 OVMax= 2.27D-05

 Cycle  13  Pass 1  IDiag  1:
 RMSU=  3.36D-08    CP:  8.50D-01  1.79D+00  1.25D+00  1.29D+00  1.19D+00
                    CP:  1.23D+00  1.29D+00  1.42D+00  1.40D+00  1.36D+00
                    CP:  1.39D+00  1.34D+00
 E= -3442.58380101004     Delta-E=       -0.000000002816 Rises=F Damp=F
 DIIS: error= 9.66D-07 at cycle  13 NSaved=  13.
 NSaved=13 IEnMin=13 EnMin= -3442.58380101004     IErMin=13 ErrMin= 9.66D-07
 ErrMax= 9.66D-07  0.00D+00 EMaxC= 1.00D-01 BMatC= 1.26D-10 BMatP= 7.72D-10
 IDIUse=1 WtCom= 1.00D+00 WtEn= 0.00D+00
 Coeff-Com:  0.521D-05-0.111D-04-0.295D-04-0.164D-03-0.428D-03 0.672D-04
 Coeff-Com:  0.260D-02 0.120D-01 0.134D-02-0.396D-01-0.179D+00 0.128D+00
 Coeff-Com:  0.108D+01
 Coeff:      0.521D-05-0.111D-04-0.295D-04-0.164D-03-0.428D-03 0.672D-04
 Coeff:      0.260D-02 0.120D-01 0.134D-02-0.396D-01-0.179D+00 0.128D+00
 Coeff:      0.108D+01
 Gap=     0.178 Goal=   None    Shift=    0.000
 DSYEVD-2 returned Info=     1069639 IAlg= 4 N=  1104 NDim=  1104 NE2=     7776865 trying  DSYEV.
 RMSDP=3.35D-08 MaxDP=1.75D-06 DE=-2.82D-09 OVMax= 9.32D-06

 Cycle  14  Pass 1  IDiag  1:
 RMSU=  1.64D-08    CP:  8.50D-01  1.79D+00  1.25D+00  1.29D+00  1.19D+00
                    CP:  1.23D+00  1.29D+00  1.41D+00  1.39D+00  1.37D+00
                    CP:  1.43D+00  1.58D+00  1.30D+00
 E= -3442.58380101061     Delta-E=       -0.000000000568 Rises=F Damp=F
 DIIS: error= 2.68D-07 at cycle  14 NSaved=  14.
 NSaved=14 IEnMin=14 EnMin= -3442.58380101061     IErMin=14 ErrMin= 2.68D-07
 ErrMax= 2.68D-07  0.00D+00 EMaxC= 1.00D-01 BMatC= 1.65D-11 BMatP= 1.26D-10
 IDIUse=1 WtCom= 1.00D+00 WtEn= 0.00D+00
 Coeff-Com:  0.267D-05-0.197D-05 0.178D-04 0.131D-04-0.110D-03-0.622D-03
 Coeff-Com: -0.747D-03 0.387D-02 0.104D-01 0.508D-02-0.117D+00-0.359D-01
 Coeff-Com:  0.344D+00 0.790D+00
 Coeff:      0.267D-05-0.197D-05 0.178D-04 0.131D-04-0.110D-03-0.622D-03
 Coeff:     -0.747D-03 0.387D-02 0.104D-01 0.508D-02-0.117D+00-0.359D-01
 Coeff:      0.344D+00 0.790D+00
 Gap=     0.178 Goal=   None    Shift=    0.000
 RMSDP=9.85D-09 MaxDP=3.61D-07 DE=-5.68D-10 OVMax= 3.06D-06

 SCF Done:  E(RLC-B+HF-LYP) =  -3442.58380101     A.U. after   14 cycles
            NFock= 14  Conv=0.99D-08     -V/T= 2.0025
 KE= 3.433932621987D+03 PE=-1.823330905328D+04 EE= 6.306430260323D+03
 Leave Link  502 at Thu Apr 23 00:38:46 2026, MaxMem=  8589934592 cpu:      9025.1
 (Enter /opt/g09/l601.exe)
 Copying SCF densities to generalized density rwf, IOpCl= 0 IROHF=0.
 Hyperfine terms turned off by default for NAtoms > 100.

 **********************************************************************

            Population analysis using the SCF density.

 **********************************************************************

 Alpha  occ. eigenvalues -- -345.97236 -41.84108 -36.92404 -36.91560 -36.91560
 Alpha  occ. eigenvalues --  -14.20498 -14.20496 -14.20495 -14.20495 -14.19647
 Alpha  occ. eigenvalues --  -14.19647 -14.19647 -14.19646 -10.16845 -10.16843
 Alpha  occ. eigenvalues --  -10.16843 -10.16841 -10.16839 -10.16837 -10.16837
 Alpha  occ. eigenvalues --  -10.16834 -10.09931 -10.09931 -10.09930 -10.09930
 Alpha  occ. eigenvalues --  -10.09900 -10.09899 -10.09899 -10.09899 -10.09739
 Alpha  occ. eigenvalues --  -10.09739 -10.09739 -10.09739 -10.09736 -10.09735
 Alpha  occ. eigenvalues --  -10.09735 -10.09735 -10.09575 -10.09575 -10.09575
 Alpha  occ. eigenvalues --  -10.09575 -10.09539 -10.09539 -10.09539 -10.09539
 Alpha  occ. eigenvalues --   -4.78978  -3.23605  -3.22177  -3.22177  -1.13232
 Alpha  occ. eigenvalues --   -1.11772  -1.11772  -1.08965  -1.06765  -1.02619
 Alpha  occ. eigenvalues --   -1.02619  -0.99511  -0.98204  -0.98204  -0.98158
 Alpha  occ. eigenvalues --   -0.98126  -0.90117  -0.88776  -0.88560  -0.88560
 Alpha  occ. eigenvalues --   -0.88171  -0.88171  -0.87991  -0.87854  -0.84353
 Alpha  occ. eigenvalues --   -0.81707  -0.81707  -0.76257  -0.76053  -0.75227
 Alpha  occ. eigenvalues --   -0.75227  -0.74608  -0.74279  -0.71766  -0.71766
 Alpha  occ. eigenvalues --   -0.71714  -0.70606  -0.68081  -0.67131  -0.67131
 Alpha  occ. eigenvalues --   -0.65651  -0.65465  -0.65465  -0.61884  -0.61797
 Alpha  occ. eigenvalues --   -0.61641  -0.61239  -0.59853  -0.59813  -0.59813
 Alpha  occ. eigenvalues --   -0.59698  -0.59698  -0.58381  -0.58381  -0.57638
 Alpha  occ. eigenvalues --   -0.57478  -0.56963  -0.56831  -0.56709  -0.56709
 Alpha  occ. eigenvalues --   -0.55938  -0.55397  -0.55397  -0.55318  -0.54832
 Alpha  occ. eigenvalues --   -0.54286  -0.54053  -0.54053  -0.52799  -0.51801
 Alpha  occ. eigenvalues --   -0.50984  -0.48913  -0.48910  -0.48910  -0.47903
 Alpha  occ. eigenvalues --   -0.47648  -0.47648  -0.46927  -0.46850  -0.46830
 Alpha  occ. eigenvalues --   -0.46830  -0.46152  -0.44982  -0.44982  -0.44823
 Alpha  occ. eigenvalues --   -0.43247  -0.43247  -0.42119  -0.39172  -0.39172
 Alpha  occ. eigenvalues --   -0.38274  -0.37351  -0.36360  -0.36025  -0.35791
 Alpha  occ. eigenvalues --   -0.35791  -0.35267  -0.34970  -0.34970  -0.34784
 Alpha  occ. eigenvalues --   -0.34138  -0.24099
 Alpha virt. eigenvalues --   -0.06289  -0.06289   0.02287   0.03333   0.03344
 Alpha virt. eigenvalues --    0.04345   0.04345   0.07764   0.08114   0.09443
 Alpha virt. eigenvalues --    0.09611   0.09611   0.11113   0.11113   0.11409
 Alpha virt. eigenvalues --    0.12349   0.12349   0.12358   0.12408   0.12476
 Alpha virt. eigenvalues --    0.13377   0.13940   0.13940   0.14517   0.15695
 Alpha virt. eigenvalues --    0.16579   0.16579   0.16618   0.17284   0.17392
 Alpha virt. eigenvalues --    0.18723   0.19194   0.19194   0.19695   0.20028
 Alpha virt. eigenvalues --    0.20028   0.20231   0.20952   0.20952   0.21541
 Alpha virt. eigenvalues --    0.21941   0.23636   0.23636   0.23978   0.23978
 Alpha virt. eigenvalues --    0.24409   0.24519   0.25043   0.25421   0.25478
 Alpha virt. eigenvalues --    0.26882   0.26882   0.26930   0.26930   0.27035
 Alpha virt. eigenvalues --    0.27262   0.27406   0.27842   0.27906   0.27906
 Alpha virt. eigenvalues --    0.28408   0.28433   0.28975   0.29193   0.29193
 Alpha virt. eigenvalues --    0.29434   0.29559   0.29647   0.29647   0.30080
 Alpha virt. eigenvalues --    0.30080   0.30446   0.30461   0.30850   0.30850
 Alpha virt. eigenvalues --    0.31150   0.31776   0.31776   0.32250   0.32473
 Alpha virt. eigenvalues --    0.32806   0.32935   0.33084   0.33271   0.33271
 Alpha virt. eigenvalues --    0.34698   0.34722   0.34722   0.35223   0.35260
 Alpha virt. eigenvalues --    0.35503   0.35503   0.36344   0.36628   0.36628
 Alpha virt. eigenvalues --    0.37671   0.37822   0.37955   0.37955   0.38266
 Alpha virt. eigenvalues --    0.39070   0.39661   0.39661   0.39680   0.39683
 Alpha virt. eigenvalues --    0.40539   0.40687   0.40687   0.40749   0.41398
 Alpha virt. eigenvalues --    0.41398   0.41865   0.41866   0.42322   0.42352
 Alpha virt. eigenvalues --    0.42434   0.42434   0.42894   0.42894   0.43033
 Alpha virt. eigenvalues --    0.44069   0.44096   0.44202   0.44986   0.45097
 Alpha virt. eigenvalues --    0.45097   0.45660   0.45660   0.46558   0.46671
 Alpha virt. eigenvalues --    0.46870   0.46980   0.46980   0.47594   0.47594
 Alpha virt. eigenvalues --    0.47994   0.48338   0.48714   0.48714   0.48810
 Alpha virt. eigenvalues --    0.49129   0.49129   0.49543   0.49543   0.49678
 Alpha virt. eigenvalues --    0.50497   0.50537   0.50537   0.50617   0.51656
 Alpha virt. eigenvalues --    0.51699   0.51773   0.51849   0.52842   0.52842
 Alpha virt. eigenvalues --    0.53392   0.54018   0.54018   0.54529   0.54868
 Alpha virt. eigenvalues --    0.55119   0.55427   0.55733   0.56523   0.56523
 Alpha virt. eigenvalues --    0.57433   0.57433   0.57639   0.57639   0.58167
 Alpha virt. eigenvalues --    0.58341   0.58567   0.58567   0.59046   0.59218
 Alpha virt. eigenvalues --    0.59218   0.59613   0.60096   0.60122   0.60122
 Alpha virt. eigenvalues --    0.60637   0.61457   0.61948   0.62218   0.64386
 Alpha virt. eigenvalues --    0.64472   0.64663   0.64663   0.65620   0.66177
 Alpha virt. eigenvalues --    0.66177   0.66545   0.66683   0.66683   0.66779
 Alpha virt. eigenvalues --    0.66868   0.66868   0.67326   0.67410   0.68562
 Alpha virt. eigenvalues --    0.68615   0.68615   0.70065   0.70099   0.70118
 Alpha virt. eigenvalues --    0.70118   0.70722   0.71463   0.71463   0.71575
 Alpha virt. eigenvalues --    0.72246   0.72348   0.73441   0.73441   0.73688
 Alpha virt. eigenvalues --    0.74459   0.74528   0.74985   0.75731   0.76976
 Alpha virt. eigenvalues --    0.77045   0.77045   0.77084   0.77410   0.78016
 Alpha virt. eigenvalues --    0.78263   0.78263   0.78447   0.78627   0.78726
 Alpha virt. eigenvalues --    0.78726   0.79763   0.79765   0.79765   0.79771
 Alpha virt. eigenvalues --    0.80218   0.80218   0.81146   0.81534   0.81569
 Alpha virt. eigenvalues --    0.81658   0.81658   0.82003   0.82321   0.82431
 Alpha virt. eigenvalues --    0.82431   0.82733   0.82944   0.82944   0.83330
 Alpha virt. eigenvalues --    0.83330   0.83598   0.84340   0.84340   0.85191
 Alpha virt. eigenvalues --    0.85333   0.86816   0.86816   0.86841   0.87007
 Alpha virt. eigenvalues --    0.87080   0.87080   0.87537   0.88452   0.89084
 Alpha virt. eigenvalues --    0.89084   0.89466   0.89739   0.90577   0.90577
 Alpha virt. eigenvalues --    0.91312   0.91340   0.91643   0.91643   0.91656
 Alpha virt. eigenvalues --    0.92389   0.92459   0.92459   0.93312   0.95858
 Alpha virt. eigenvalues --    0.95858   0.96063   0.97085   0.97085   0.97287
 Alpha virt. eigenvalues --    0.97305   0.97364   0.97470   0.99395   0.99395
 Alpha virt. eigenvalues --    1.00153   1.00153   1.01216   1.02121   1.02650
 Alpha virt. eigenvalues --    1.02752   1.02813   1.02813   1.03249   1.03403
 Alpha virt. eigenvalues --    1.03403   1.04461   1.04461   1.05096   1.05966
 Alpha virt. eigenvalues --    1.06408   1.06468   1.07192   1.07192   1.08797
 Alpha virt. eigenvalues --    1.10578   1.10578   1.11024   1.12704   1.12964
 Alpha virt. eigenvalues --    1.13459   1.13565   1.13855   1.13855   1.14287
 Alpha virt. eigenvalues --    1.15465   1.16138   1.16628   1.16785   1.16840
 Alpha virt. eigenvalues --    1.16840   1.17117   1.19064   1.19064   1.19227
 Alpha virt. eigenvalues --    1.20271   1.20271   1.21190   1.21265   1.21828
 Alpha virt. eigenvalues --    1.21876   1.21876   1.21922   1.22362   1.23390
 Alpha virt. eigenvalues --    1.23390   1.24050   1.24050   1.24332   1.26253
 Alpha virt. eigenvalues --    1.26253   1.27562   1.27562   1.27816   1.28345
 Alpha virt. eigenvalues --    1.29176   1.29225   1.29407   1.29407   1.30621
 Alpha virt. eigenvalues --    1.31217   1.31217   1.32160   1.33311   1.33758
 Alpha virt. eigenvalues --    1.33850   1.33856   1.33856   1.34108   1.34247
 Alpha virt. eigenvalues --    1.34247   1.35583   1.35583   1.35826   1.35837
 Alpha virt. eigenvalues --    1.36622   1.37755   1.37871   1.37871   1.38774
 Alpha virt. eigenvalues --    1.38774   1.39465   1.40463   1.40747   1.41489
 Alpha virt. eigenvalues --    1.41768   1.41768   1.42780   1.43941   1.44024
 Alpha virt. eigenvalues --    1.44024   1.44513   1.44915   1.44915   1.45036
 Alpha virt. eigenvalues --    1.45412   1.45412   1.45709   1.47177   1.47371
 Alpha virt. eigenvalues --    1.47557   1.48091   1.48091   1.48121   1.48121
 Alpha virt. eigenvalues --    1.48158   1.48476   1.49085   1.51151   1.51856
 Alpha virt. eigenvalues --    1.51933   1.51980   1.51980   1.52360   1.53527
 Alpha virt. eigenvalues --    1.53897   1.54282   1.55319   1.55345   1.55345
 Alpha virt. eigenvalues --    1.55629   1.55629   1.55705   1.55705   1.57515
 Alpha virt. eigenvalues --    1.57515   1.57566   1.57650   1.57996   1.58146
 Alpha virt. eigenvalues --    1.58833   1.59809   1.60339   1.60351   1.60351
 Alpha virt. eigenvalues --    1.63062   1.63062   1.64566   1.64814   1.65463
 Alpha virt. eigenvalues --    1.65463   1.65581   1.65581   1.67169   1.67169
 Alpha virt. eigenvalues --    1.67429   1.68821   1.69145   1.69731   1.69731
 Alpha virt. eigenvalues --    1.69749   1.69956   1.70582   1.71666   1.71666
 Alpha virt. eigenvalues --    1.71854   1.71864   1.71864   1.72050   1.72160
 Alpha virt. eigenvalues --    1.72594   1.72937   1.73683   1.74248   1.74609
 Alpha virt. eigenvalues --    1.74807   1.75213   1.75213   1.76211   1.76211
 Alpha virt. eigenvalues --    1.78488   1.78488   1.78587   1.78737   1.79048
 Alpha virt. eigenvalues --    1.79163   1.79371   1.79371   1.80330   1.80330
 Alpha virt. eigenvalues --    1.80964   1.80987   1.81360   1.83575   1.83575
 Alpha virt. eigenvalues --    1.83710   1.83853   1.84142   1.84142   1.84203
 Alpha virt. eigenvalues --    1.85930   1.87862   1.87918   1.87918   1.88142
 Alpha virt. eigenvalues --    1.88142   1.89161   1.89203   1.90000   1.91325
 Alpha virt. eigenvalues --    1.91325   1.92779   1.92803   1.94028   1.94361
 Alpha virt. eigenvalues --    1.94585   1.94585   1.95019   1.95019   1.96034
 Alpha virt. eigenvalues --    1.96072   1.96128   1.99208   1.99208   2.00074
 Alpha virt. eigenvalues --    2.00074   2.00928   2.00928   2.02127   2.03979
 Alpha virt. eigenvalues --    2.05040   2.05551   2.05551   2.06082   2.06082
 Alpha virt. eigenvalues --    2.06172   2.07373   2.08652   2.10128   2.10781
 Alpha virt. eigenvalues --    2.11949   2.13348   2.13348   2.14044   2.14599
 Alpha virt. eigenvalues --    2.14599   2.15998   2.16606   2.16653   2.16653
 Alpha virt. eigenvalues --    2.16709   2.18226   2.18226   2.19213   2.19753
 Alpha virt. eigenvalues --    2.24528   2.24996   2.24996   2.26343   2.26343
 Alpha virt. eigenvalues --    2.26761   2.28704   2.28704   2.28944   2.29616
 Alpha virt. eigenvalues --    2.30811   2.30938   2.30938   2.31961   2.34561
 Alpha virt. eigenvalues --    2.34881   2.34881   2.35320   2.36242   2.36242
 Alpha virt. eigenvalues --    2.36732   2.37885   2.38372   2.38399   2.38671
 Alpha virt. eigenvalues --    2.38671   2.39084   2.39385   2.42269   2.42777
 Alpha virt. eigenvalues --    2.42777   2.42943   2.43106   2.43106   2.43123
 Alpha virt. eigenvalues --    2.43340   2.43883   2.46465   2.46465   2.47513
 Alpha virt. eigenvalues --    2.47707   2.48254   2.48254   2.48593   2.48609
 Alpha virt. eigenvalues --    2.48609   2.49439   2.50568   2.50663   2.50663
 Alpha virt. eigenvalues --    2.50892   2.50892   2.51224   2.51533   2.53381
 Alpha virt. eigenvalues --    2.54072   2.54683   2.54683   2.54687   2.55249
 Alpha virt. eigenvalues --    2.55258   2.55258   2.56919   2.59262   2.63330
 Alpha virt. eigenvalues --    2.64498   2.64498   2.64866   2.67441   2.69875
 Alpha virt. eigenvalues --    2.69875   2.69986   2.72616   2.74024   2.74024
 Alpha virt. eigenvalues --    2.74347   2.74983   2.75365   2.75365   2.75682
 Alpha virt. eigenvalues --    2.75685   2.76583   2.76583   2.76651   2.77577
 Alpha virt. eigenvalues --    2.77577   2.77646   2.77913   2.79514   2.79514
 Alpha virt. eigenvalues --    2.79662   2.80869   2.81861   2.86095   2.86095
 Alpha virt. eigenvalues --    2.86323   2.87501   2.89308   2.89308   2.89385
 Alpha virt. eigenvalues --    2.89385   2.89467   2.89784   2.89998   2.91342
 Alpha virt. eigenvalues --    2.91459   2.91459   2.92063   2.92621   2.93177
 Alpha virt. eigenvalues --    2.93177   2.94649   2.94819   2.95375   2.95448
 Alpha virt. eigenvalues --    2.96683   2.97272   2.97272   2.99431   2.99431
 Alpha virt. eigenvalues --    2.99798   3.00799   3.00799   3.01022   3.01919
 Alpha virt. eigenvalues --    3.03181   3.03727   3.04346   3.04450   3.04450
 Alpha virt. eigenvalues --    3.05400   3.05400   3.05853   3.05853   3.06318
 Alpha virt. eigenvalues --    3.06400   3.06575   3.07441   3.07441   3.07557
 Alpha virt. eigenvalues --    3.07673   3.07673   3.08210   3.09326   3.09667
 Alpha virt. eigenvalues --    3.11651   3.11651   3.12549   3.13459   3.13459
 Alpha virt. eigenvalues --    3.13609   3.14821   3.15816   3.15816   3.15904
 Alpha virt. eigenvalues --    3.16513   3.16534   3.16842   3.16938   3.18025
 Alpha virt. eigenvalues --    3.18366   3.18609   3.18609   3.18825   3.18963
 Alpha virt. eigenvalues --    3.19370   3.19370   3.19451   3.19451   3.20568
 Alpha virt. eigenvalues --    3.20845   3.20845   3.21199   3.22020   3.24231
 Alpha virt. eigenvalues --    3.24231   3.24385   3.24385   3.24958   3.25566
 Alpha virt. eigenvalues --    3.25975   3.28385   3.28385   3.28658   3.31636
 Alpha virt. eigenvalues --    3.31636   3.31934   3.32167   3.32181   3.32181
 Alpha virt. eigenvalues --    3.34063   3.34285   3.34405   3.35630   3.35727
 Alpha virt. eigenvalues --    3.35727   3.36075   3.37451   3.39065   3.39083
 Alpha virt. eigenvalues --    3.39083   3.39458   3.39885   3.39885   3.40103
 Alpha virt. eigenvalues --    3.40163   3.40163   3.40474   3.40798   3.41311
 Alpha virt. eigenvalues --    3.41914   3.41914   3.44342   3.44853   3.46259
 Alpha virt. eigenvalues --    3.46259   3.47006   3.48793   3.48816   3.48816
 Alpha virt. eigenvalues --    3.49778   3.50103   3.50103   3.50443   3.53556
 Alpha virt. eigenvalues --    3.53775   3.54082   3.54082   3.54155   3.54155
 Alpha virt. eigenvalues --    3.54610   3.54610   3.54959   3.56262   3.56308
 Alpha virt. eigenvalues --    3.56524   3.57785   3.58535   3.59920   3.59920
 Alpha virt. eigenvalues --    3.60208   3.61969   3.62033   3.62033   3.63129
 Alpha virt. eigenvalues --    3.64334   3.64334   3.65120   3.67735   3.68018
 Alpha virt. eigenvalues --    3.68018   3.68393   3.70479   3.70479   3.70587
 Alpha virt. eigenvalues --    3.71384   3.72286   3.73378   3.73378   3.74218
 Alpha virt. eigenvalues --    3.74391   3.74391   3.76039   3.76969   3.77650
 Alpha virt. eigenvalues --    3.79799   3.79799   3.81523   3.81523   3.82891
 Alpha virt. eigenvalues --    3.84569   3.85891   3.86088   3.90281   3.93075
 Alpha virt. eigenvalues --    3.93075   3.96019   3.96019   3.96343   3.98858
 Alpha virt. eigenvalues --    4.00078   4.00078   4.00092   4.00174   4.03459
 Alpha virt. eigenvalues --    4.05327   4.06420   4.06420   4.07198   4.07198
 Alpha virt. eigenvalues --    4.08099   4.09931   4.09931   4.11130   4.12915
 Alpha virt. eigenvalues --    4.13734   4.15541   4.19674   4.19674   4.21961
 Alpha virt. eigenvalues --    4.24066   4.25162   4.25162   4.26831   4.32283
 Alpha virt. eigenvalues --    4.32283   4.32433   4.34510   4.34782   4.34991
 Alpha virt. eigenvalues --    4.34991   4.37109   4.39937   4.41540   4.41540
 Alpha virt. eigenvalues --    4.42284   4.47952   4.48551   4.48551   4.50463
 Alpha virt. eigenvalues --    4.57960   4.61674   4.61904   4.61904   4.66075
 Alpha virt. eigenvalues --    4.70438   4.74090   4.75283   4.75283   4.78400
 Alpha virt. eigenvalues --    4.78400   4.79973   4.82690   4.84871   4.91242
 Alpha virt. eigenvalues --    4.91242   4.96442   4.96442   4.97471   4.99317
 Alpha virt. eigenvalues --    5.01233   5.01579   5.01824   5.03109   5.03109
 Alpha virt. eigenvalues --    5.03429   5.11976   5.12775   5.12775   5.18339
 Alpha virt. eigenvalues --    5.18339   5.23586   5.30296   5.30670   5.30670
 Alpha virt. eigenvalues --    5.36696   5.40057   5.40057   5.40642   5.43324
 Alpha virt. eigenvalues --    5.43324   5.47458   5.55010   5.63872   5.66109
 Alpha virt. eigenvalues --    5.66109   5.67501   5.89444   5.95313   6.09742
 Alpha virt. eigenvalues --    6.58664   6.59403   6.60441   6.61781   6.61781
 Alpha virt. eigenvalues --    6.74993   6.74993  21.59630  21.73050  21.73050
 Alpha virt. eigenvalues --   21.76434  21.92644  22.01788  22.01788  22.08299
 Alpha virt. eigenvalues --   22.14933  22.17362  22.17362  22.18502  22.18807
 Alpha virt. eigenvalues --   22.18807  22.18869  22.23912  22.45064  22.45064
 Alpha virt. eigenvalues --   22.45446  22.45972  22.54597  22.56086  22.56086
 Alpha virt. eigenvalues --   22.58025  22.64448  22.70737  22.70737  22.77273
 Alpha virt. eigenvalues --   23.29505  23.32906  23.32906  23.38975  32.10570
 Alpha virt. eigenvalues --   32.10570  32.14266  32.45821  32.52798  32.52798
 Alpha virt. eigenvalues --   32.53934  32.59991
          Condensed to atoms (all electrons):
 Mulliken charges:
               1
     1  C    0.000000
     2  C    0.000000
     3  C    0.000000
     4  C    0.000000
     5  C    0.000000
     6  C    0.000000
     7  C    0.000000
     8  C    0.000000
     9  N    0.000000
    10  N    0.000000
    11  N    0.000000
    12  H    0.000000
    13  H    0.000000
    14  H    0.000000
    15  H    0.000000
    16  C    0.000000
    17  C    0.000000
    18  C    0.000000
    19  C    0.000000
    20  C    0.000000
    21  C    0.000000
    22  C    0.000000
    23  C    0.000000
    24  N    0.000000
    25  N    0.000000
    26  H    0.000000
    27  H    0.000000
    28  H    0.000000
    29  H    0.000000
    30  C    0.000000
    31  C    0.000000
    32  C    0.000000
    33  C    0.000000
    34  C    0.000000
    35  C    0.000000
    36  C    0.000000
    37  C    0.000000
    38  N    0.000000
    39  N    0.000000
    40  H    0.000000
    41  H    0.000000
    42  H    0.000000
    43  H    0.000000
    44  C    0.000000
    45  C    0.000000
    46  C    0.000000
    47  C    0.000000
    48  C    0.000000
    49  C    0.000000
    50  C    0.000000
    51  C    0.000000
    52  N    0.000000
    53  H    0.000000
    54  H    0.000000
    55  H    0.000000
    56  H    0.000000
    57  Zn   0.000000
    58  C   -0.088101
    59  C   -0.088101
    60  C   -0.201454
    61  C    0.091602
    62  C    0.091602
    63  C   -0.201454
    64  C    0.331195
    65  C    0.331195
    66  N   -0.269133
    67  N   -0.534203
    68  N   -0.534203
    69  H    0.122233
    70  H    0.122233
    71  H    0.139798
    72  H    0.139798
    73  C   -0.088101
    74  C   -0.088101
    75  C   -0.201454
    76  C    0.091602
    77  C    0.091602
    78  C   -0.201454
    79  C    0.331195
    80  C    0.331195
    81  N   -0.269133
    82  N   -0.534203
    83  H    0.122233
    84  H    0.122233
    85  H    0.139798
    86  H    0.139798
    87  C   -0.088101
    88  C   -0.088101
    89  C   -0.201454
    90  C    0.091602
    91  C    0.091602
    92  C   -0.201454
    93  C    0.331195
    94  C    0.331195
    95  N   -0.269133
    96  N   -0.534203
    97  H    0.122233
    98  H    0.122233
    99  H    0.139798
   100  H    0.139798
   101  C   -0.088101
   102  C   -0.088101
   103  C   -0.201454
   104  C    0.091602
   105  C    0.091602
   106  C   -0.201454
   107  C    0.331195
   108  C    0.331195
   109  N   -0.269133
   110  H    0.122233
   111  H    0.122233
   112  H    0.139798
   113  H    0.139798
   114  Zn   0.051175
 Sum of Mulliken charges =  -0.00000
 Mulliken charges with hydrogens summed into heavy atoms:
               1
     1  C    0.000000
     2  C    0.000000
     3  C    0.000000
     4  C    0.000000
     5  C    0.000000
     6  C    0.000000
     7  C    0.000000
     8  C    0.000000
     9  N    0.000000
    10  N    0.000000
    11  N    0.000000
    16  C    0.000000
    17  C    0.000000
    18  C    0.000000
    19  C    0.000000
    20  C    0.000000
    21  C    0.000000
    22  C    0.000000
    23  C    0.000000
    24  N    0.000000
    25  N    0.000000
    30  C    0.000000
    31  C    0.000000
    32  C    0.000000
    33  C    0.000000
    34  C    0.000000
    35  C    0.000000
    36  C    0.000000
    37  C    0.000000
    38  N    0.000000
    39  N    0.000000
    44  C    0.000000
    45  C    0.000000
    46  C    0.000000
    47  C    0.000000
    48  C    0.000000
    49  C    0.000000
    50  C    0.000000
    51  C    0.000000
    52  N    0.000000
    57  Zn   0.000000
    58  C    0.034131
    59  C    0.034131
    60  C   -0.061656
    61  C    0.091602
    62  C    0.091602
    63  C   -0.061656
    64  C    0.331195
    65  C    0.331195
    66  N   -0.269133
    67  N   -0.534203
    68  N   -0.534203
    73  C    0.034131
    74  C    0.034131
    75  C   -0.061656
    76  C    0.091602
    77  C    0.091602
    78  C   -0.061656
    79  C    0.331195
    80  C    0.331195
    81  N   -0.269133
    82  N   -0.534203
    87  C    0.034131
    88  C    0.034131
    89  C   -0.061656
    90  C    0.091602
    91  C    0.091602
    92  C   -0.061656
    93  C    0.331195
    94  C    0.331195
    95  N   -0.269133
    96  N   -0.534203
   101  C    0.034131
   102  C    0.034131
   103  C   -0.061656
   104  C    0.091602
   105  C    0.091602
   106  C   -0.061656
   107  C    0.331195
   108  C    0.331195
   109  N   -0.269133
   114  Zn   0.051175
         Mulliken charges condensed to fragments:
      1      0.000000
      2     -0.000000
 Electronic spatial extent (au):  <R**2>=          25242.3647
 Charge=             -0.0000 electrons
 Dipole moment (field-independent basis, Debye):
    X=              0.0000    Y=              0.0000    Z=              0.0000  Tot=              0.0000
 Quadrupole moment (field-independent basis, Debye-Ang):
   XX=           -210.0726   YY=           -210.0726   ZZ=           -248.9850
   XY=              0.0000   XZ=             -0.0000   YZ=              0.0000
 Traceless Quadrupole moment (field-independent basis, Debye-Ang):
   XX=             12.9708   YY=             12.9708   ZZ=            -25.9416
   XY=              0.0000   XZ=             -0.0000   YZ=              0.0000
 Octapole moment (field-independent basis, Debye-Ang**2):
  XXX=              0.0000  YYY=              0.0000  ZZZ=           1307.1713  XYY=              0.0000
  XXY=              0.0000  XXZ=            367.6271  XZZ=              0.0000  YZZ=             -0.0000
  YYZ=            367.6271  XYZ=             -0.0000
 Hexadecapole moment (field-independent basis, Debye-Ang**3):
 XXXX=         -13328.7353 YYYY=         -13328.7353 ZZZZ=          -4854.2243 XXXY=              0.0000
 XXXZ=             -0.0000 YYYX=             -0.0000 YYYZ=             -0.0000 ZZZX=             -0.0000
 ZZZY=              0.0000 XXYY=          -4824.9775 XXZZ=          -3540.6754 YYZZ=          -3540.6754
 XXYZ=              0.0000 YYXZ=             -0.0000 ZZXY=              0.0000
 N-N= 5.050362369963D+03 E-N=-1.823330906166D+04  KE= 3.433932621987D+03
 Leave Link  601 at Thu Apr 23 00:38:46 2026, MaxMem=  8589934592 cpu:         1.3
 (Enter /opt/g09/l122.exe)
 CPIOFr:  IOpCl= 0 IRwI=-1 IRwCP=  731 ICalc=  4 LCPTot=     7389475 Len1MO=    19550682 IndFrg=   105142885
 Restoring MOs from calculation   1 to rwf.
 CPIOFr:  IOpCl= 0 IRwI=-2 IRwCP=  731 ICalc=  0 LCPTot=     7389475 Len1MO=    19550682 IndFrg=    26940157
 Counterpoise corrected energy =   -6885.161048168531
                   BSSE energy =       0.004042537497
               sum of monomers =   -6885.167602021260
           complexation energy =       1.58 kcal/mole (raw)
           complexation energy =       4.11 kcal/mole (corrected)
 Leave Link  122 at Thu Apr 23 00:38:46 2026, MaxMem=  8589934592 cpu:         1.7
 (Enter /opt/g09/l9999.exe)

 Test job not archived.
 1\1\ WCSS.PL-BEM-CMOKC406W\SP\RLC-BLYP\Gen\C64H32N16Zn2\SERGEY\23-Apr-
 2026\0\\#p lc-blyp/gen counterpoise=2 iop(3/107=0350000000,3/108=03500
 00000)\\ZnPc dimer lc-blyp(mu=0.35)/def2-tzvp(-f), monomer geom r2scan
 -3c\\0,1\C,0,0.701663,6.554204,0.\C,0,-0.701663,6.554204,0.\C,0,1.4225
 71,5.364926,0.\C,0,0.703967,4.174565,0.\C,0,-0.703967,4.174565,0.\C,0,
 -1.422571,5.364926,0.\C,0,1.120422,2.78002,0.\C,0,-1.120422,2.78002,0.
 \N,0,0.,1.989101,0.\N,0,-2.390568,2.390568,0.\N,0,2.390568,2.390568,0.
 \H,0,1.231071,7.50255,0.\H,0,-1.231071,7.50255,0.\H,0,2.508027,5.35647
 5,0.\H,0,-2.508027,5.356475,0.\C,0,6.554204,-0.701663,0.\C,0,6.554204,
 0.701663,0.\C,0,5.364926,-1.422571,0.\C,0,4.174565,-0.703967,0.\C,0,4.
 174565,0.703967,0.\C,0,5.364926,1.422571,0.\C,0,2.78002,-1.120422,0.\C
 ,0,2.78002,1.120422,0.\N,0,1.989101,0.,0.\N,0,2.390568,-2.390568,0.\H,
 0,7.50255,-1.231071,0.\H,0,7.50255,1.231071,0.\H,0,5.356475,-2.508027,
 0.\H,0,5.356475,2.508027,0.\C,0,-6.554204,0.701663,0.\C,0,-6.554204,-0
 .701663,0.\C,0,-5.364926,1.422571,0.\C,0,-4.174565,0.703967,0.\C,0,-4.
 174565,-0.703967,0.\C,0,-5.364926,-1.422571,0.\C,0,-2.78002,1.120422,0
 .\C,0,-2.78002,-1.120422,0.\N,0,-1.989101,0.,0.\N,0,-2.390568,-2.39056
 8,0.\H,0,-7.50255,1.231071,0.\H,0,-7.50255,-1.231071,0.\H,0,-5.356475,
 2.508027,0.\H,0,-5.356475,-2.508027,0.\C,0,-0.701663,-6.554204,0.\C,0,
 0.701663,-6.554204,0.\C,0,-1.422571,-5.364926,0.\C,0,-0.703967,-4.1745
 65,0.\C,0,0.703967,-4.174565,0.\C,0,1.422571,-5.364926,0.\C,0,-1.12042
 2,-2.78002,0.\C,0,1.120422,-2.78002,0.\N,0,0.,-1.989101,0.\H,0,-1.2310
 71,-7.50255,0.\H,0,1.231071,-7.50255,0.\H,0,-2.508027,-5.356475,0.\H,0
 ,2.508027,-5.356475,0.\Zn,0,0.,0.,0.\C,0,0.701663,6.554204,3.5\C,0,-0.
 701663,6.554204,3.5\C,0,1.422571,5.364926,3.5\C,0,0.703967,4.174565,3.
 5\C,0,-0.703967,4.174565,3.5\C,0,-1.422571,5.364926,3.5\C,0,1.120422,2
 .78002,3.5\C,0,-1.120422,2.78002,3.5\N,0,0.,1.989101,3.5\N,0,-2.390568
 ,2.390568,3.5\N,0,2.390568,2.390568,3.5\H,0,1.231071,7.50255,3.5\H,0,-
 1.231071,7.50255,3.5\H,0,2.508027,5.356475,3.5\H,0,-2.508027,5.356475,
 3.5\C,0,6.554204,-0.701663,3.5\C,0,6.554204,0.701663,3.5\C,0,5.364926,
 -1.422571,3.5\C,0,4.174565,-0.703967,3.5\C,0,4.174565,0.703967,3.5\C,0
 ,5.364926,1.422571,3.5\C,0,2.78002,-1.120422,3.5\C,0,2.78002,1.120422,
 3.5\N,0,1.989101,0.,3.5\N,0,2.390568,-2.390568,3.5\H,0,7.50255,-1.2310
 71,3.5\H,0,7.50255,1.231071,3.5\H,0,5.356475,-2.508027,3.5\H,0,5.35647
 5,2.508027,3.5\C,0,-6.554204,0.701663,3.5\C,0,-6.554204,-0.701663,3.5\
 C,0,-5.364926,1.422571,3.5\C,0,-4.174565,0.703967,3.5\C,0,-4.174565,-0
 .703967,3.5\C,0,-5.364926,-1.422571,3.5\C,0,-2.78002,1.120422,3.5\C,0,
 -2.78002,-1.120422,3.5\N,0,-1.989101,0.,3.5\N,0,-2.390568,-2.390568,3.
 5\H,0,-7.50255,1.231071,3.5\H,0,-7.50255,-1.231071,3.5\H,0,-5.356475,2
 .508027,3.5\H,0,-5.356475,-2.508027,3.5\C,0,-0.701663,-6.554204,3.5\C,
 0,0.701663,-6.554204,3.5\C,0,-1.422571,-5.364926,3.5\C,0,-0.703967,-4.
 174565,3.5\C,0,0.703967,-4.174565,3.5\C,0,1.422571,-5.364926,3.5\C,0,-
 1.120422,-2.78002,3.5\C,0,1.120422,-2.78002,3.5\N,0,0.,-1.989101,3.5\H
 ,0,-1.231071,-7.50255,3.5\H,0,1.231071,-7.50255,3.5\H,0,-2.508027,-5.3
 56475,3.5\H,0,2.508027,-5.356475,3.5\Zn,0,0.,0.,3.5\\Version=ES64L-G09
 RevE.01\HF=-3442.583801\RMSD=9.854e-09\Dipole=0.,0.,0.\Quadrupole=19.8
 665444,19.8665451,-39.7330895,-0.0000006,-0.0000005,-0.0000003\PG=D04H
  [C4(Zn1.Zn1),2SGV(N4),2SGD(N4),X(C64H32)]\\@


  DISAPPOINTMENT IS THE NURSE OF WISDOM.               
                              SIR BOYLE ROCHE                 
 Job cpu time:       3 days  9 hours 19 minutes 17.8 seconds.
 File lengths (MBytes):  RWF=   3949 Int=      0 D2E=      0 Chk=   1092 Scr=      1
 Normal termination of Gaussian 09 at Thu Apr 23 00:38:48 2026.
