%chk=ZnPc2_beta035.chk
%mem=16GB
%nproc=6
# lc-blyp/def2svp iop(3/107=0350000000, 3/108=0350000000)

monomer geom r2scan-3c

0 1
C	-4.138371	5.130673	0.000000
C	-5.130673	4.138371	0.000000
C	-2.787666	4.799485	0.000000
C	-2.454083	3.449643	0.000000
C	-3.449643	2.454083	0.000000
C	-4.799485	2.787666	0.000000
C	-1.173513	2.758029	0.000000
C	-2.758029	1.173513	0.000000
N	-1.406507	1.406507	0.000000
N	-3.380774	0.000000	0.000000
N	0.000000	3.380774	0.000000
H	-4.434605	6.175603	0.000000
H	-6.175603	4.434605	0.000000
H	-2.014157	5.561043	0.000000
H	-5.561043	2.014157	0.000000
C	5.130673	4.138371	0.000000
C	4.138371	5.130673	0.000000
C	4.799485	2.787666	0.000000
C	3.449643	2.454083	0.000000
C	2.454083	3.449643	0.000000
C	2.787666	4.799485	0.000000
C	2.758029	1.173513	0.000000
C	1.173513	2.758029	0.000000
N	1.406507	1.406507	0.000000
N	3.380774	0.000000	0.000000
H	6.175603	4.434605	0.000000
H	4.434605	6.175603	0.000000
H	5.561043	2.014157	0.000000
H	2.014157	5.561043	0.000000
C	-5.130673	-4.138371	0.000000
C	-4.138371	-5.130673	0.000000
C	-4.799485	-2.787666	0.000000
C	-3.449643	-2.454083	0.000000
C	-2.454083	-3.449643	0.000000
C	-2.787666	-4.799485	0.000000
C	-2.758029	-1.173513	0.000000
C	-1.173513	-2.758029	0.000000
N	-1.406507	-1.406507	0.000000
N	0.000000	-3.380774	0.000000
H	-6.175603	-4.434605	0.000000
H	-4.434605	-6.175603	0.000000
H	-5.561043	-2.014157	0.000000
H	-2.014157	-5.561043	0.000000
C	4.138371	-5.130673	0.000000
C	5.130673	-4.138371	0.000000
C	2.787666	-4.799485	0.000000
C	2.454083	-3.449643	0.000000
C	3.449643	-2.454083	0.000000
C	4.799485	-2.787666	0.000000
C	1.173513	-2.758029	0.000000
C	2.758029	-1.173513	0.000000
N	1.406507	-1.406507	0.000000
H	4.434605	-6.175603	0.000000
H	6.175603	-4.434605	0.000000
H	2.014157	-5.561043	0.000000
H	5.561043	-2.014157	0.000000
Zn	0.000000	0.000000	0.000000
C	-0.506012	5.315408	3.214221
C	-1.498314	4.323106	3.214221
C	0.844693	4.984220	3.214221
C	1.178276	3.634378	3.214221
C	0.182716	2.638818	3.214221
C	-1.167126	2.972401	3.214221
C	2.458846	2.942764	3.214221
C	0.874330	1.358248	3.214221
N	2.225852	1.591242	3.214221
N	0.251585	0.184735	3.214221
N	3.632359	3.565509	3.214221
H	-0.802246	6.360338	3.214221
H	-2.543244	4.619340	3.214221
H	1.618202	5.745778	3.214221
H	-1.928684	2.198892	3.214221
C	8.763032	4.323106	3.214221
C	7.770730	5.315408	3.214221
C	8.431844	2.972401	3.214221
C	7.082002	2.638818	3.214221
C	6.086442	3.634378	3.214221
C	6.420025	4.984220	3.214221
C	6.390388	1.358248	3.214221
C	4.805872	2.942764	3.214221
N	5.038866	1.591242	3.214221
N	7.013133	0.184735	3.214221
H	9.807962	4.619340	3.214221
H	8.066964	6.360338	3.214221
H	9.193402	2.198892	3.214221
H	5.646516	5.745778	3.214221
C	-1.498314	-3.953636	3.214221
C	-0.506012	-4.945938	3.214221
C	-1.167126	-2.602931	3.214221
C	0.182716	-2.269348	3.214221
C	1.178276	-3.264908	3.214221
C	0.844693	-4.614750	3.214221
C	0.874330	-0.988778	3.214221
C	2.458846	-2.573294	3.214221
N	2.225852	-1.221772	3.214221
N	3.632359	-3.196039	3.214221
H	-2.543244	-4.249870	3.214221
H	-0.802246	-5.990868	3.214221
H	-1.928684	-1.829422	3.214221
H	1.618202	-5.376308	3.214221
C	7.770730	-4.945938	3.214221
C	8.763032	-3.953636	3.214221
C	6.420025	-4.614750	3.214221
C	6.086442	-3.264908	3.214221
C	7.082002	-2.269348	3.214221
C	8.431844	-2.602931	3.214221
C	4.805872	-2.573294	3.214221
C	6.390388	-0.988778	3.214221
N	5.038866	-1.221772	3.214221
H	8.066964	-5.990868	3.214221
H	9.807962	-4.249870	3.214221
H	5.646516	-5.376308	3.214221
H	9.193402	-1.829422	3.214221
Zn	3.632359	0.184735	3.214221

--Link1--
%chk=ZnPc2_beta035.chk
%mem=60GB
%nproc=6
#p td(nstates=8) lc-blyp/gen iop(3/107=0350000000, 3/108=0350000000) geom=check guess=read

monomer geom r2scan-3c, def2tzvp(-f)

0 1

H Zn 0
def2tzvp
****
C     0
S    6   1.00
  13575.3496820              0.22245814352D-03
   2035.2333680              0.17232738252D-02
    463.22562359             0.89255715314D-02
    131.20019598             0.35727984502D-01
     42.853015891            0.11076259931
     15.584185766            0.24295627626
S    2   1.00
      6.2067138508           0.41440263448
      2.5764896527           0.23744968655
S    1   1.00
      0.57696339419          1.0000000
S    1   1.00
      0.22972831358          1.0000000
S    1   1.00
      0.95164440028D-01      1.0000000
P    4   1.00
     34.697232244            0.53333657805D-02
      7.9582622826           0.35864109092D-01
      2.3780826883           0.14215873329
      0.81433208183          0.34270471845
P    1   1.00
      0.28887547253           .46445822433
P    1   1.00
      0.10056823671           .24955789874
D    1   1.00
      1.09700000             1.0000000
D    1   1.00
      0.31800000             1.0000000
****
N     0
S    6   1.00
  19730.8006470              0.21887984991D-03
   2957.8958745              0.16960708803D-02
    673.22133595             0.87954603538D-02
    190.68249494             0.35359382605D-01
     62.295441898            0.11095789217
     22.654161182            0.24982972552
S    2   1.00
      8.9791477428           0.40623896148
      3.6863002370           0.24338217176
S    1   1.00
      0.84660076805          1.0000000
S    1   1.00
      0.33647133771          1.0000000
S    1   1.00
      0.13647653675          1.0000000
P    4   1.00
     49.200380510            0.55552416751D-02
     11.346790537            0.38052379723D-01
      3.4273972411           0.14953671029
      1.1785525134           0.34949305230
P    1   1.00
      0.41642204972           .45843153697
P    1   1.00
      0.14260826011           .24428771672
D    1   1.00
      1.65400000             1.0000000
D    1   1.00
      0.46900000             1.0000000
****

