%chk=ZnPc4_beta035.chk
%mem=32GB
%nproc=8
# lc-blyp/def2svp iop(3/107=0350000000, 3/108=0350000000) int=ultrafine

monomer geom r2scan-3c

0 1
C	-4.138371	5.130673	0.000000
C	-5.130673	4.138371	0.000000
C	-2.787666	4.799485	0.000000
C	-2.454083	3.449643	0.000000
C	-3.449643	2.454083	0.000000
C	-4.799485	2.787666	0.000000
C	-1.173513	2.758029	0.000000
C	-2.758029	1.173513	0.000000
N	-1.406507	1.406507	0.000000
N	-3.380774	0.000000	0.000000
N	0.000000	3.380774	0.000000
H	-4.434605	6.175603	0.000000
H	-6.175603	4.434605	0.000000
H	-2.014157	5.561043	0.000000
H	-5.561043	2.014157	0.000000
C	5.130673	4.138371	0.000000
C	4.138371	5.130673	0.000000
C	4.799485	2.787666	0.000000
C	3.449643	2.454083	0.000000
C	2.454083	3.449643	0.000000
C	2.787666	4.799485	0.000000
C	2.758029	1.173513	0.000000
C	1.173513	2.758029	0.000000
N	1.406507	1.406507	0.000000
N	3.380774	0.000000	0.000000
H	6.175603	4.434605	0.000000
H	4.434605	6.175603	0.000000
H	5.561043	2.014157	0.000000
H	2.014157	5.561043	0.000000
C	-5.130673	-4.138371	0.000000
C	-4.138371	-5.130673	0.000000
C	-4.799485	-2.787666	0.000000
C	-3.449643	-2.454083	0.000000
C	-2.454083	-3.449643	0.000000
C	-2.787666	-4.799485	0.000000
C	-2.758029	-1.173513	0.000000
C	-1.173513	-2.758029	0.000000
N	-1.406507	-1.406507	0.000000
N	0.000000	-3.380774	0.000000
H	-6.175603	-4.434605	0.000000
H	-4.434605	-6.175603	0.000000
H	-5.561043	-2.014157	0.000000
H	-2.014157	-5.561043	0.000000
C	4.138371	-5.130673	0.000000
C	5.130673	-4.138371	0.000000
C	2.787666	-4.799485	0.000000
C	2.454083	-3.449643	0.000000
C	3.449643	-2.454083	0.000000
C	4.799485	-2.787666	0.000000
C	1.173513	-2.758029	0.000000
C	2.758029	-1.173513	0.000000
N	1.406507	-1.406507	0.000000
H	4.434605	-6.175603	0.000000
H	6.175603	-4.434605	0.000000
H	2.014157	-5.561043	0.000000
H	5.561043	-2.014157	0.000000
Zn	0.000000	0.000000	0.000000
C	-0.506012	5.315408	3.214221
C	-1.498314	4.323106	3.214221
C	0.844693	4.984220	3.214221
C	1.178276	3.634378	3.214221
C	0.182716	2.638818	3.214221
C	-1.167126	2.972401	3.214221
C	2.458846	2.942764	3.214221
C	0.874330	1.358248	3.214221
N	2.225852	1.591242	3.214221
N	0.251585	0.184735	3.214221
N	3.632359	3.565509	3.214221
H	-0.802246	6.360338	3.214221
H	-2.543244	4.619340	3.214221
H	1.618202	5.745778	3.214221
H	-1.928684	2.198892	3.214221
C	8.763032	4.323106	3.214221
C	7.770730	5.315408	3.214221
C	8.431844	2.972401	3.214221
C	7.082002	2.638818	3.214221
C	6.086442	3.634378	3.214221
C	6.420025	4.984220	3.214221
C	6.390388	1.358248	3.214221
C	4.805872	2.942764	3.214221
N	5.038866	1.591242	3.214221
N	7.013133	0.184735	3.214221
H	9.807962	4.619340	3.214221
H	8.066964	6.360338	3.214221
H	9.193402	2.198892	3.214221
H	5.646516	5.745778	3.214221
C	-1.498314	-3.953636	3.214221
C	-0.506012	-4.945938	3.214221
C	-1.167126	-2.602931	3.214221
C	0.182716	-2.269348	3.214221
C	1.178276	-3.264908	3.214221
C	0.844693	-4.614750	3.214221
C	0.874330	-0.988778	3.214221
C	2.458846	-2.573294	3.214221
N	2.225852	-1.221772	3.214221
N	3.632359	-3.196039	3.214221
H	-2.543244	-4.249870	3.214221
H	-0.802246	-5.990868	3.214221
H	-1.928684	-1.829422	3.214221
H	1.618202	-5.376308	3.214221
C	7.770730	-4.945938	3.214221
C	8.763032	-3.953636	3.214221
C	6.420025	-4.614750	3.214221
C	6.086442	-3.264908	3.214221
C	7.082002	-2.269348	3.214221
C	8.431844	-2.602931	3.214221
C	4.805872	-2.573294	3.214221
C	6.390388	-0.988778	3.214221
N	5.038866	-1.221772	3.214221
H	8.066964	-5.990868	3.214221
H	9.807962	-4.249870	3.214221
H	5.646516	-5.376308	3.214221
H	9.193402	-1.829422	3.214221
Zn	3.632359	0.184735	3.214221
C	3.126347	5.500143	6.428442
C	2.134045	4.507841	6.428442
C	4.477052	5.168955	6.428442
C	4.810635	3.819113	6.428442
C	3.815075	2.823553	6.428442
C	2.465233	3.157136	6.428442
C	6.091205	3.127499	6.428442
C	4.506689	1.542983	6.428442
N	5.858211	1.775977	6.428442
N	3.883944	0.369470	6.428442
N	7.264718	3.750244	6.428442
H	2.830113	6.545073	6.428442
H	1.089115	4.804075	6.428442
H	5.250561	5.930513	6.428442
H	1.703675	2.383627	6.428442
C	12.395391	4.507841	6.428442
C	11.403089	5.500143	6.428442
C	12.064203	3.157136	6.428442
C	10.714361	2.823553	6.428442
C	9.718801	3.819113	6.428442
C	10.052384	5.168955	6.428442
C	10.022747	1.542983	6.428442
C	8.438231	3.127499	6.428442
N	8.671225	1.775977	6.428442
N	10.645492	0.369470	6.428442
H	13.440321	4.804075	6.428442
H	11.699323	6.545073	6.428442
H	12.825761	2.383627	6.428442
H	9.278875	5.930513	6.428442
C	2.134045	-3.768901	6.428442
C	3.126347	-4.761203	6.428442
C	2.465233	-2.418196	6.428442
C	3.815075	-2.084613	6.428442
C	4.810635	-3.080173	6.428442
C	4.477052	-4.430015	6.428442
C	4.506689	-0.804043	6.428442
C	6.091205	-2.388559	6.428442
N	5.858211	-1.037037	6.428442
N	7.264718	-3.011304	6.428442
H	1.089115	-4.065135	6.428442
H	2.830113	-5.806133	6.428442
H	1.703675	-1.644687	6.428442
H	5.250561	-5.191573	6.428442
C	11.403089	-4.761203	6.428442
C	12.395391	-3.768901	6.428442
C	10.052384	-4.430015	6.428442
C	9.718801	-3.080173	6.428442
C	10.714361	-2.084613	6.428442
C	12.064203	-2.418196	6.428442
C	8.438231	-2.388559	6.428442
C	10.022747	-0.804043	6.428442
N	8.671225	-1.037037	6.428442
H	11.699323	-5.806133	6.428442
H	13.440321	-4.065135	6.428442
H	9.278875	-5.191573	6.428442
H	12.825761	-1.644687	6.428442
Zn	7.264718	0.369470	6.428442
C	6.758706	5.684878	9.642663
C	5.766404	4.692576	9.642663
C	8.109411	5.353690	9.642663
C	8.442994	4.003848	9.642663
C	7.447434	3.008288	9.642663
C	6.097592	3.341871	9.642663
C	9.723564	3.312234	9.642663
C	8.139048	1.727718	9.642663
N	9.490570	1.960712	9.642663
N	7.516303	0.554205	9.642663
N	10.897077	3.934979	9.642663
H	6.462472	6.729808	9.642663
H	4.721474	4.988810	9.642663
H	8.882920	6.115248	9.642663
H	5.336034	2.568362	9.642663
C	16.027750	4.692576	9.642663
C	15.035448	5.684878	9.642663
C	15.696562	3.341871	9.642663
C	14.346720	3.008288	9.642663
C	13.351160	4.003848	9.642663
C	13.684743	5.353690	9.642663
C	13.655106	1.727718	9.642663
C	12.070590	3.312234	9.642663
N	12.303584	1.960712	9.642663
N	14.277851	0.554205	9.642663
H	17.072680	4.988810	9.642663
H	15.331682	6.729808	9.642663
H	16.458120	2.568362	9.642663
H	12.911234	6.115248	9.642663
C	5.766404	-3.584166	9.642663
C	6.758706	-4.576468	9.642663
C	6.097592	-2.233461	9.642663
C	7.447434	-1.899878	9.642663
C	8.442994	-2.895438	9.642663
C	8.109411	-4.245280	9.642663
C	8.139048	-0.619308	9.642663
C	9.723564	-2.203824	9.642663
N	9.490570	-0.852302	9.642663
N	10.897077	-2.826569	9.642663
H	4.721474	-3.880400	9.642663
H	6.462472	-5.621398	9.642663
H	5.336034	-1.459952	9.642663
H	8.882920	-5.006838	9.642663
C	15.035448	-4.576468	9.642663
C	16.027750	-3.584166	9.642663
C	13.684743	-4.245280	9.642663
C	13.351160	-2.895438	9.642663
C	14.346720	-1.899878	9.642663
C	15.696562	-2.233461	9.642663
C	12.070590	-2.203824	9.642663
C	13.655106	-0.619308	9.642663
N	12.303584	-0.852302	9.642663
H	15.331682	-5.621398	9.642663
H	17.072680	-3.880400	9.642663
H	12.911234	-5.006838	9.642663
H	16.458120	-1.459952	9.642663
Zn	10.897077	0.554205	9.642663

--Link1--
%chk=ZnPc4_beta035.chk
%mem=100GB
%nproc=8
#p td(nstates=10) lc-blyp/gen iop(3/107=0350000000, 3/108=0350000000) geom=check guess=read int=ultrafine

monomer geom r2scan-3c, def2tzvp(-f)

0 1

H Zn 0
def2tzvp
****
C     0
S    6   1.00
  13575.3496820              0.22245814352D-03
   2035.2333680              0.17232738252D-02
    463.22562359             0.89255715314D-02
    131.20019598             0.35727984502D-01
     42.853015891            0.11076259931
     15.584185766            0.24295627626
S    2   1.00
      6.2067138508           0.41440263448
      2.5764896527           0.23744968655
S    1   1.00
      0.57696339419          1.0000000
S    1   1.00
      0.22972831358          1.0000000
S    1   1.00
      0.95164440028D-01      1.0000000
P    4   1.00
     34.697232244            0.53333657805D-02
      7.9582622826           0.35864109092D-01
      2.3780826883           0.14215873329
      0.81433208183          0.34270471845
P    1   1.00
      0.28887547253           .46445822433
P    1   1.00
      0.10056823671           .24955789874
D    1   1.00
      1.09700000             1.0000000
D    1   1.00
      0.31800000             1.0000000
****
N     0
S    6   1.00
  19730.8006470              0.21887984991D-03
   2957.8958745              0.16960708803D-02
    673.22133595             0.87954603538D-02
    190.68249494             0.35359382605D-01
     62.295441898            0.11095789217
     22.654161182            0.24982972552
S    2   1.00
      8.9791477428           0.40623896148
      3.6863002370           0.24338217176
S    1   1.00
      0.84660076805          1.0000000
S    1   1.00
      0.33647133771          1.0000000
S    1   1.00
      0.13647653675          1.0000000
P    4   1.00
     49.200380510            0.55552416751D-02
     11.346790537            0.38052379723D-01
      3.4273972411           0.14953671029
      1.1785525134           0.34949305230
P    1   1.00
      0.41642204972           .45843153697
P    1   1.00
      0.14260826011           .24428771672
D    1   1.00
      1.65400000             1.0000000
D    1   1.00
      0.46900000             1.0000000
****

